Li                                      
    1.000000000000000     
     4.2214646918924830    0.0000000000000000    0.0000000000000000
     0.0000000000000000    4.4436470440973510    0.0000000000000000
     0.0000000000000000    0.0000000000000000    4.4436470440973510
   Li
     4
Direct
     0.9204942654745452    0.1255304477991785    0.6255304477991785
     0.3941784760008602    0.3744695522008215    0.3744695522008215
     0.1321373134728248    0.6255304477991785    0.8744695522008215
     0.6584531029465097    0.8744695522008215    0.1255304477991785
 
  0.00000000E+00  0.00000000E+00  0.00000000E+00
  0.00000000E+00  0.00000000E+00  0.00000000E+00
  0.00000000E+00  0.00000000E+00  0.00000000E+00
  0.00000000E+00  0.00000000E+00  0.00000000E+00
