 vasp.6.5.1 10Mar25 (build May 29 2025 22:39:37) complex                         
 executed on              LinuxNV date 2026.03.09  16:36:07
 running    1 mpi-ranks, with    1 threads/rank, on    1 nodes
 distrk:  each k-point on    1 cores,    1 groups
 distr:  one band on NCORE=   1 cores,    1 groups
 Offloading initialized ...    1 GPUs detected


--------------------------------------------------------------------------------------------------------


 INCAR:
   LCHARG = .FALSE.
   LWAVE = .FALSE.
   ISTART = 0
   ICHARG = 2
   KSPACING = 0.1
   KGAMMA = .TRUE.
   GGA = PE
   ENCUT = 600
   ALGO = Normal
   NELM = 120
   EDIFF = 1E-06
   SIGMA = 0.02
   ISMEAR = 0
   PREC = Accurate
   NSW = 1
   IBRION = -1
   LREAL = A

 POTCAR:    PAW_PBE Li_sv 10Sep2004               
 POTCAR:    PAW_PBE Li_sv 10Sep2004               
   VRHFIN =Li: 1s2s2p                                                                               
   LEXCH  = PE                                                                                      
   EATOM  =   202.7858 eV,   14.9043 Ry                                                             
                                                                                                    
   TITEL  = PAW_PBE Li_sv 10Sep2004                                                                 
   LULTRA =        F    use ultrasoft PP ?                                                          
   IUNSCR =        0    unscreen: 0-lin 1-nonlin 2-no                                               
   RPACOR =    0.000    partial core radius                                                         
   POMASS =    7.010; ZVAL   =    3.000    mass and valenz                                          
   RCORE  =    1.700    outmost cutoff radius                                                       
   RWIGS  =    2.050; RWIGS  =    1.085    wigner-seitz radius (au A)                               
   ENMAX  =  499.034; ENMIN  =  374.276 eV                                                          
   ICORE  =        2    local potential                                                             
   LCOR   =        T    correct aug charges                                                         
   LPAW   =        T    paw PP                                                                      
   EAUG   =  628.945                                                                                
   RMAX   =    1.732    core radius for proj-oper                                                   
   RAUG   =    1.300    factor for augmentation sphere                                              
   RDEP   =    1.728    radius for radial grids                                                     
   RDEPT  =    1.329    core radius for aug-charge                                                  
                                                                                                    
   Atomic configuration                                                                             
    4 entries                                                                                       
     n  l   j            E        occ.                                                              
     1  0  0.50       -51.8549   2.0000                                                             
     2  0  0.50        -2.8742   1.0000                                                             
     2  1  0.50        -1.3606   0.0000                                                             
     3  2  1.50        -1.3606   0.0000                                                             
   Description                                                                                      
     l       E           TYP  RCUT    TYP  RCUT                                                     
     0    -51.8548813     23  1.400                                                                 
     0     -2.8742052     23  1.700                                                                 
     1     -1.3605826     23  1.400                                                                 
     2     -1.3605826     23  1.400                                                                 
  local pseudopotential read in
  atomic valenz-charges read in
  non local Contribution for L=            0  read in
    real space projection operators read in
  non local Contribution for L=            0  read in
    real space projection operators read in
  non local Contribution for L=            1  read in
    real space projection operators read in
    PAW grid and wavefunctions read in
 
   number of l-projection  operators is LMAX  =            3
   number of lm-projection operators is LMMAX =            5
 
 -----------------------------------------------------------------------------
|                                                                             |
|               ----> ADVICE to this user running VASP <----                  |
|                                                                             |
|     You have a (more or less) 'small supercell' and for smaller cells       |
|     it is recommended to use the reciprocal-space projection scheme!        |
|     The real-space optimization is not efficient for small cells and it     |
|     is also less accurate ...                                               |
|     Therefore, set LREAL=.FALSE. in the INCAR file.                         |
|                                                                             |
 -----------------------------------------------------------------------------

 Optimization of the real space projectors (new method)

 maximal supplied QI-value         = 22.11
 optimisation between [QCUT,QGAM] = [ 12.38, 24.98] = [ 42.93,174.79] Ry 
 Optimized for a Real-space Cutoff    1.03 Angstroem

   l    n(q)    QCUT    max X(q) W(low)/X(q) W(high)/X(q)  e(spline) 
   0      8    12.381    10.506    0.81E-04    0.12E-04    0.14E-07
   0      8    12.381     8.367    0.18E-03    0.27E-04    0.28E-07
   1      7    12.381     8.983    0.49E-04    0.18E-03    0.14E-06
  PAW_PBE Li_sv 10Sep2004               :
 energy of atom  1       EATOM= -202.7858
 kinetic energy error for atom=    0.0100 (will be added to EATOM!!)
 
 
 POSCAR: Li
  positions in direct lattice
  No initial velocities read in


 exchange-correlation table for PE
   RHO(1)=    0.500       N(1)  =     2000
   RHO(2)=  100.500       N(2)  =     4000
 


--------------------------------------------------------------------------------------------------------


 ion  position               nearest neighbor table
   1  0.920  0.126  0.626-   2 2.54
   2  0.394  0.374  0.374-   1 2.54
   3  0.132  0.626  0.874-   4 2.54
   4  0.658  0.874  0.126-   3 2.54
 
  LATTYP: Found a simple tetragonal cell.
 ALAT       =     4.4436470441
 C/A-ratio  =     0.9500000000
  
  Lattice vectors:
  
 A1 = (   0.0000000000,   4.4436470441,   0.0000000000)
 A2 = (   0.0000000000,   0.0000000000,   4.4436470441)
 A3 = (   4.2214646919,   0.0000000000,   0.0000000000)


Analysis of symmetry for initial positions (statically):
=====================================================================
 Subroutine PRICEL returns:
 Original cell was already a primitive cell.
 

 Routine SETGRP: Setting up the symmetry group for a 
 simple tetragonal supercell.


 Subroutine GETGRP returns: Found  2 space group operations
 (whereof  1 operations were pure point group operations)
 out of a pool of 16 trial point group operations.


The static configuration has the point symmetry C_1 .
 The point group associated with its full space group is C_2 .


Analysis of symmetry for dynamics (positions and initial velocities):
=====================================================================
 Subroutine PRICEL returns:
 Original cell was already a primitive cell.
 

 Routine SETGRP: Setting up the symmetry group for a 
 simple tetragonal supercell.


 Subroutine GETGRP returns: Found  2 space group operations
 (whereof  1 operations were pure point group operations)
 out of a pool of 16 trial point group operations.


The dynamic configuration has the point symmetry C_1 .
 The point group associated with its full space group is C_2 .


 Subroutine INISYM returns: Found  2 space group operations
 (whereof  1 operations are pure point group operations),
 and found     1 'primitive' translations


----------------------------------------------------------------------------------------

                                     Primitive cell                                     

  volume of cell :      83.3570

  direct lattice vectors                    reciprocal lattice vectors
     4.221464692  0.000000000  0.000000000     0.236884606  0.000000000  0.000000000
     0.000000000  4.443647044  0.000000000     0.000000000  0.225040376  0.000000000
     0.000000000  0.000000000  4.443647044     0.000000000  0.000000000  0.225040376

  length of vectors
     4.221464692  4.443647044  4.443647044     0.236884606  0.225040376  0.225040376

  position of ions in fractional coordinates (direct lattice)
     0.920494265  0.125530448  0.625530448
     0.394178476  0.374469552  0.374469552
     0.132137313  0.625530448  0.874469552
     0.658453103  0.874469552  0.125530448

  ion indices of the primitive-cell ions
   primitive index   ion index
                 1           1
                 2           2
                 3           3
                 4           4

----------------------------------------------------------------------------------------

 
 -----------------------------------------------------------------------------
|                                                                             |
|           W    W    AA    RRRRR   N    N  II  N    N   GGGG   !!!           |
|           W    W   A  A   R    R  NN   N  II  NN   N  G    G  !!!           |
|           W    W  A    A  R    R  N N  N  II  N N  N  G       !!!           |
|           W WW W  AAAAAA  RRRRR   N  N N  II  N  N N  G  GGG   !            |
|           WW  WW  A    A  R   R   N   NN  II  N   NN  G    G                |
|           W    W  A    A  R    R  N    N  II  N    N   GGGG   !!!           |
|                                                                             |
|     The requested file  could not be found or opened for reading            |
|     k-point information. Automatic k-point generation is used as a          |
|     fallback, which may lead to unwanted results.                           |
|                                                                             |
 -----------------------------------------------------------------------------

 

Automatic generation of k-mesh.
 Grid dimensions derived from KSPACING:
 generate k-points for:   15   15   15

 Generating k-lattice:

  Cartesian coordinates                     Fractional coordinates (reciprocal lattice)
     0.015792307  0.000000000  0.000000000     0.066666667  0.000000000  0.000000000
     0.000000000  0.015002692  0.000000000     0.000000000  0.066666667  0.000000000
     0.000000000  0.000000000  0.015002692     0.000000000  0.000000000  0.066666667

  Length of vectors
     0.015792307  0.015002692  0.015002692

  Shift w.r.t. Gamma in fractional coordinates (k-lattice)
     0.000000000  0.000000000  0.000000000

 
 Subroutine IBZKPT returns following result:
 ===========================================
 
 Found    904 irreducible k-points:
 
 Following reciprocal coordinates:
            Coordinates               Weight
  0.000000  0.000000  0.000000      1.000000
  0.066667  0.000000  0.000000      2.000000
  0.133333  0.000000  0.000000      2.000000
  0.200000  0.000000  0.000000      2.000000
  0.266667  0.000000  0.000000      2.000000
  0.333333  0.000000  0.000000      2.000000
  0.400000  0.000000  0.000000      2.000000
  0.466667  0.000000  0.000000      2.000000
  0.000000  0.066667  0.000000      2.000000
  0.000000  0.000000  0.066667      2.000000
  0.066667  0.066667  0.000000      4.000000
  0.066667  0.000000  0.066667      2.000000
  0.066667  0.000000 -0.066667      2.000000
  0.133333  0.066667  0.000000      4.000000
  0.133333  0.000000  0.066667      2.000000
  0.133333  0.000000 -0.066667      2.000000
  0.200000  0.066667  0.000000      4.000000
  0.200000  0.000000  0.066667      2.000000
  0.200000  0.000000 -0.066667      2.000000
  0.266667  0.066667  0.000000      4.000000
  0.266667  0.000000  0.066667      2.000000
  0.266667  0.000000 -0.066667      2.000000
  0.333333  0.066667  0.000000      4.000000
  0.333333  0.000000  0.066667      2.000000
  0.333333  0.000000 -0.066667      2.000000
  0.400000  0.066667  0.000000      4.000000
  0.400000  0.000000  0.066667      2.000000
  0.400000  0.000000 -0.066667      2.000000
  0.466667  0.066667  0.000000      4.000000
  0.466667  0.000000  0.066667      2.000000
  0.466667  0.000000 -0.066667      2.000000
  0.000000  0.133333  0.000000      2.000000
  0.000000  0.000000  0.133333      2.000000
  0.066667  0.133333  0.000000      4.000000
  0.066667  0.000000  0.133333      2.000000
  0.066667  0.000000 -0.133333      2.000000
  0.133333  0.133333  0.000000      4.000000
  0.133333  0.000000  0.133333      2.000000
  0.133333  0.000000 -0.133333      2.000000
  0.200000  0.133333  0.000000      4.000000
  0.200000  0.000000  0.133333      2.000000
  0.200000  0.000000 -0.133333      2.000000
  0.266667  0.133333  0.000000      4.000000
  0.266667  0.000000  0.133333      2.000000
  0.266667  0.000000 -0.133333      2.000000
  0.333333  0.133333  0.000000      4.000000
  0.333333  0.000000  0.133333      2.000000
  0.333333  0.000000 -0.133333      2.000000
  0.400000  0.133333  0.000000      4.000000
  0.400000  0.000000  0.133333      2.000000
  0.400000  0.000000 -0.133333      2.000000
  0.466667  0.133333  0.000000      4.000000
  0.466667  0.000000  0.133333      2.000000
  0.466667  0.000000 -0.133333      2.000000
  0.000000  0.200000  0.000000      2.000000
  0.000000  0.000000  0.200000      2.000000
  0.066667  0.200000  0.000000      4.000000
  0.066667  0.000000  0.200000      2.000000
  0.066667  0.000000 -0.200000      2.000000
  0.133333  0.200000  0.000000      4.000000
  0.133333  0.000000  0.200000      2.000000
  0.133333  0.000000 -0.200000      2.000000
  0.200000  0.200000  0.000000      4.000000
  0.200000  0.000000  0.200000      2.000000
  0.200000  0.000000 -0.200000      2.000000
  0.266667  0.200000  0.000000      4.000000
  0.266667  0.000000  0.200000      2.000000
  0.266667  0.000000 -0.200000      2.000000
  0.333333  0.200000  0.000000      4.000000
  0.333333  0.000000  0.200000      2.000000
  0.333333  0.000000 -0.200000      2.000000
  0.400000  0.200000  0.000000      4.000000
  0.400000  0.000000  0.200000      2.000000
  0.400000  0.000000 -0.200000      2.000000
  0.466667  0.200000  0.000000      4.000000
  0.466667  0.000000  0.200000      2.000000
  0.466667  0.000000 -0.200000      2.000000
  0.000000  0.266667  0.000000      2.000000
  0.000000  0.000000  0.266667      2.000000
  0.066667  0.266667  0.000000      4.000000
  0.066667  0.000000  0.266667      2.000000
  0.066667  0.000000 -0.266667      2.000000
  0.133333  0.266667  0.000000      4.000000
  0.133333  0.000000  0.266667      2.000000
  0.133333  0.000000 -0.266667      2.000000
  0.200000  0.266667  0.000000      4.000000
  0.200000  0.000000  0.266667      2.000000
  0.200000  0.000000 -0.266667      2.000000
  0.266667  0.266667  0.000000      4.000000
  0.266667  0.000000  0.266667      2.000000
  0.266667  0.000000 -0.266667      2.000000
  0.333333  0.266667  0.000000      4.000000
  0.333333  0.000000  0.266667      2.000000
  0.333333  0.000000 -0.266667      2.000000
  0.400000  0.266667  0.000000      4.000000
  0.400000  0.000000  0.266667      2.000000
  0.400000  0.000000 -0.266667      2.000000
  0.466667  0.266667  0.000000      4.000000
  0.466667  0.000000  0.266667      2.000000
  0.466667  0.000000 -0.266667      2.000000
  0.000000  0.333333  0.000000      2.000000
  0.000000  0.000000  0.333333      2.000000
  0.066667  0.333333  0.000000      4.000000
  0.066667  0.000000  0.333333      2.000000
  0.066667  0.000000 -0.333333      2.000000
  0.133333  0.333333  0.000000      4.000000
  0.133333  0.000000  0.333333      2.000000
  0.133333  0.000000 -0.333333      2.000000
  0.200000  0.333333  0.000000      4.000000
  0.200000  0.000000  0.333333      2.000000
  0.200000  0.000000 -0.333333      2.000000
  0.266667  0.333333  0.000000      4.000000
  0.266667  0.000000  0.333333      2.000000
  0.266667  0.000000 -0.333333      2.000000
  0.333333  0.333333  0.000000      4.000000
  0.333333  0.000000  0.333333      2.000000
  0.333333  0.000000 -0.333333      2.000000
  0.400000  0.333333  0.000000      4.000000
  0.400000  0.000000  0.333333      2.000000
  0.400000  0.000000 -0.333333      2.000000
  0.466667  0.333333  0.000000      4.000000
  0.466667  0.000000  0.333333      2.000000
  0.466667  0.000000 -0.333333      2.000000
  0.000000  0.400000  0.000000      2.000000
  0.000000  0.000000  0.400000      2.000000
  0.066667  0.400000  0.000000      4.000000
  0.066667  0.000000  0.400000      2.000000
  0.066667  0.000000 -0.400000      2.000000
  0.133333  0.400000  0.000000      4.000000
  0.133333  0.000000  0.400000      2.000000
  0.133333  0.000000 -0.400000      2.000000
  0.200000  0.400000  0.000000      4.000000
  0.200000  0.000000  0.400000      2.000000
  0.200000  0.000000 -0.400000      2.000000
  0.266667  0.400000  0.000000      4.000000
  0.266667  0.000000  0.400000      2.000000
  0.266667  0.000000 -0.400000      2.000000
  0.333333  0.400000  0.000000      4.000000
  0.333333  0.000000  0.400000      2.000000
  0.333333  0.000000 -0.400000      2.000000
  0.400000  0.400000  0.000000      4.000000
  0.400000  0.000000  0.400000      2.000000
  0.400000  0.000000 -0.400000      2.000000
  0.466667  0.400000  0.000000      4.000000
  0.466667  0.000000  0.400000      2.000000
  0.466667  0.000000 -0.400000      2.000000
  0.000000  0.466667  0.000000      2.000000
  0.000000  0.000000  0.466667      2.000000
  0.066667  0.466667  0.000000      4.000000
  0.066667  0.000000  0.466667      2.000000
  0.066667  0.000000 -0.466667      2.000000
  0.133333  0.466667  0.000000      4.000000
  0.133333  0.000000  0.466667      2.000000
  0.133333  0.000000 -0.466667      2.000000
  0.200000  0.466667  0.000000      4.000000
  0.200000  0.000000  0.466667      2.000000
  0.200000  0.000000 -0.466667      2.000000
  0.266667  0.466667  0.000000      4.000000
  0.266667  0.000000  0.466667      2.000000
  0.266667  0.000000 -0.466667      2.000000
  0.333333  0.466667  0.000000      4.000000
  0.333333  0.000000  0.466667      2.000000
  0.333333  0.000000 -0.466667      2.000000
  0.400000  0.466667  0.000000      4.000000
  0.400000  0.000000  0.466667      2.000000
  0.400000  0.000000 -0.466667      2.000000
  0.466667  0.466667  0.000000      4.000000
  0.466667  0.000000  0.466667      2.000000
  0.466667  0.000000 -0.466667      2.000000
  0.000000  0.066667  0.066667      4.000000
  0.066667  0.066667  0.066667      4.000000
  0.066667 -0.066667 -0.066667      4.000000
  0.133333  0.066667  0.066667      4.000000
  0.133333 -0.066667 -0.066667      4.000000
  0.200000  0.066667  0.066667      4.000000
  0.200000 -0.066667 -0.066667      4.000000
  0.266667  0.066667  0.066667      4.000000
  0.266667 -0.066667 -0.066667      4.000000
  0.333333  0.066667  0.066667      4.000000
  0.333333 -0.066667 -0.066667      4.000000
  0.400000  0.066667  0.066667      4.000000
  0.400000 -0.066667 -0.066667      4.000000
  0.466667  0.066667  0.066667      4.000000
  0.466667 -0.066667 -0.066667      4.000000
  0.000000  0.133333  0.066667      4.000000
  0.000000 -0.066667  0.133333      4.000000
  0.066667  0.133333  0.066667      4.000000
  0.066667 -0.066667  0.133333      4.000000
  0.066667 -0.133333 -0.066667      4.000000
  0.066667  0.066667 -0.133333      4.000000
  0.133333  0.133333  0.066667      4.000000
  0.133333 -0.066667  0.133333      4.000000
  0.133333 -0.133333 -0.066667      4.000000
  0.133333  0.066667 -0.133333      4.000000
  0.200000  0.133333  0.066667      4.000000
  0.200000 -0.066667  0.133333      4.000000
  0.200000 -0.133333 -0.066667      4.000000
  0.200000  0.066667 -0.133333      4.000000
  0.266667  0.133333  0.066667      4.000000
  0.266667 -0.066667  0.133333      4.000000
  0.266667 -0.133333 -0.066667      4.000000
  0.266667  0.066667 -0.133333      4.000000
  0.333333  0.133333  0.066667      4.000000
  0.333333 -0.066667  0.133333      4.000000
  0.333333 -0.133333 -0.066667      4.000000
  0.333333  0.066667 -0.133333      4.000000
  0.400000  0.133333  0.066667      4.000000
  0.400000 -0.066667  0.133333      4.000000
  0.400000 -0.133333 -0.066667      4.000000
  0.400000  0.066667 -0.133333      4.000000
  0.466667  0.133333  0.066667      4.000000
  0.466667 -0.066667  0.133333      4.000000
  0.466667 -0.133333 -0.066667      4.000000
  0.466667  0.066667 -0.133333      4.000000
  0.000000  0.200000  0.066667      4.000000
  0.000000 -0.066667  0.200000      4.000000
  0.066667  0.200000  0.066667      4.000000
  0.066667 -0.066667  0.200000      4.000000
  0.066667 -0.200000 -0.066667      4.000000
  0.066667  0.066667 -0.200000      4.000000
  0.133333  0.200000  0.066667      4.000000
  0.133333 -0.066667  0.200000      4.000000
  0.133333 -0.200000 -0.066667      4.000000
  0.133333  0.066667 -0.200000      4.000000
  0.200000  0.200000  0.066667      4.000000
  0.200000 -0.066667  0.200000      4.000000
  0.200000 -0.200000 -0.066667      4.000000
  0.200000  0.066667 -0.200000      4.000000
  0.266667  0.200000  0.066667      4.000000
  0.266667 -0.066667  0.200000      4.000000
  0.266667 -0.200000 -0.066667      4.000000
  0.266667  0.066667 -0.200000      4.000000
  0.333333  0.200000  0.066667      4.000000
  0.333333 -0.066667  0.200000      4.000000
  0.333333 -0.200000 -0.066667      4.000000
  0.333333  0.066667 -0.200000      4.000000
  0.400000  0.200000  0.066667      4.000000
  0.400000 -0.066667  0.200000      4.000000
  0.400000 -0.200000 -0.066667      4.000000
  0.400000  0.066667 -0.200000      4.000000
  0.466667  0.200000  0.066667      4.000000
  0.466667 -0.066667  0.200000      4.000000
  0.466667 -0.200000 -0.066667      4.000000
  0.466667  0.066667 -0.200000      4.000000
  0.000000  0.266667  0.066667      4.000000
  0.000000 -0.066667  0.266667      4.000000
  0.066667  0.266667  0.066667      4.000000
  0.066667 -0.066667  0.266667      4.000000
  0.066667 -0.266667 -0.066667      4.000000
  0.066667  0.066667 -0.266667      4.000000
  0.133333  0.266667  0.066667      4.000000
  0.133333 -0.066667  0.266667      4.000000
  0.133333 -0.266667 -0.066667      4.000000
  0.133333  0.066667 -0.266667      4.000000
  0.200000  0.266667  0.066667      4.000000
  0.200000 -0.066667  0.266667      4.000000
  0.200000 -0.266667 -0.066667      4.000000
  0.200000  0.066667 -0.266667      4.000000
  0.266667  0.266667  0.066667      4.000000
  0.266667 -0.066667  0.266667      4.000000
  0.266667 -0.266667 -0.066667      4.000000
  0.266667  0.066667 -0.266667      4.000000
  0.333333  0.266667  0.066667      4.000000
  0.333333 -0.066667  0.266667      4.000000
  0.333333 -0.266667 -0.066667      4.000000
  0.333333  0.066667 -0.266667      4.000000
  0.400000  0.266667  0.066667      4.000000
  0.400000 -0.066667  0.266667      4.000000
  0.400000 -0.266667 -0.066667      4.000000
  0.400000  0.066667 -0.266667      4.000000
  0.466667  0.266667  0.066667      4.000000
  0.466667 -0.066667  0.266667      4.000000
  0.466667 -0.266667 -0.066667      4.000000
  0.466667  0.066667 -0.266667      4.000000
  0.000000  0.333333  0.066667      4.000000
  0.000000 -0.066667  0.333333      4.000000
  0.066667  0.333333  0.066667      4.000000
  0.066667 -0.066667  0.333333      4.000000
  0.066667 -0.333333 -0.066667      4.000000
  0.066667  0.066667 -0.333333      4.000000
  0.133333  0.333333  0.066667      4.000000
  0.133333 -0.066667  0.333333      4.000000
  0.133333 -0.333333 -0.066667      4.000000
  0.133333  0.066667 -0.333333      4.000000
  0.200000  0.333333  0.066667      4.000000
  0.200000 -0.066667  0.333333      4.000000
  0.200000 -0.333333 -0.066667      4.000000
  0.200000  0.066667 -0.333333      4.000000
  0.266667  0.333333  0.066667      4.000000
  0.266667 -0.066667  0.333333      4.000000
  0.266667 -0.333333 -0.066667      4.000000
  0.266667  0.066667 -0.333333      4.000000
  0.333333  0.333333  0.066667      4.000000
  0.333333 -0.066667  0.333333      4.000000
  0.333333 -0.333333 -0.066667      4.000000
  0.333333  0.066667 -0.333333      4.000000
  0.400000  0.333333  0.066667      4.000000
  0.400000 -0.066667  0.333333      4.000000
  0.400000 -0.333333 -0.066667      4.000000
  0.400000  0.066667 -0.333333      4.000000
  0.466667  0.333333  0.066667      4.000000
  0.466667 -0.066667  0.333333      4.000000
  0.466667 -0.333333 -0.066667      4.000000
  0.466667  0.066667 -0.333333      4.000000
  0.000000  0.400000  0.066667      4.000000
  0.000000 -0.066667  0.400000      4.000000
  0.066667  0.400000  0.066667      4.000000
  0.066667 -0.066667  0.400000      4.000000
  0.066667 -0.400000 -0.066667      4.000000
  0.066667  0.066667 -0.400000      4.000000
  0.133333  0.400000  0.066667      4.000000
  0.133333 -0.066667  0.400000      4.000000
  0.133333 -0.400000 -0.066667      4.000000
  0.133333  0.066667 -0.400000      4.000000
  0.200000  0.400000  0.066667      4.000000
  0.200000 -0.066667  0.400000      4.000000
  0.200000 -0.400000 -0.066667      4.000000
  0.200000  0.066667 -0.400000      4.000000
  0.266667  0.400000  0.066667      4.000000
  0.266667 -0.066667  0.400000      4.000000
  0.266667 -0.400000 -0.066667      4.000000
  0.266667  0.066667 -0.400000      4.000000
  0.333333  0.400000  0.066667      4.000000
  0.333333 -0.066667  0.400000      4.000000
  0.333333 -0.400000 -0.066667      4.000000
  0.333333  0.066667 -0.400000      4.000000
  0.400000  0.400000  0.066667      4.000000
  0.400000 -0.066667  0.400000      4.000000
  0.400000 -0.400000 -0.066667      4.000000
  0.400000  0.066667 -0.400000      4.000000
  0.466667  0.400000  0.066667      4.000000
  0.466667 -0.066667  0.400000      4.000000
  0.466667 -0.400000 -0.066667      4.000000
  0.466667  0.066667 -0.400000      4.000000
  0.000000  0.466667  0.066667      4.000000
  0.000000 -0.066667  0.466667      4.000000
  0.066667  0.466667  0.066667      4.000000
  0.066667 -0.066667  0.466667      4.000000
  0.066667 -0.466667 -0.066667      4.000000
  0.066667  0.066667 -0.466667      4.000000
  0.133333  0.466667  0.066667      4.000000
  0.133333 -0.066667  0.466667      4.000000
  0.133333 -0.466667 -0.066667      4.000000
  0.133333  0.066667 -0.466667      4.000000
  0.200000  0.466667  0.066667      4.000000
  0.200000 -0.066667  0.466667      4.000000
  0.200000 -0.466667 -0.066667      4.000000
  0.200000  0.066667 -0.466667      4.000000
  0.266667  0.466667  0.066667      4.000000
  0.266667 -0.066667  0.466667      4.000000
  0.266667 -0.466667 -0.066667      4.000000
  0.266667  0.066667 -0.466667      4.000000
  0.333333  0.466667  0.066667      4.000000
  0.333333 -0.066667  0.466667      4.000000
  0.333333 -0.466667 -0.066667      4.000000
  0.333333  0.066667 -0.466667      4.000000
  0.400000  0.466667  0.066667      4.000000
  0.400000 -0.066667  0.466667      4.000000
  0.400000 -0.466667 -0.066667      4.000000
  0.400000  0.066667 -0.466667      4.000000
  0.466667  0.466667  0.066667      4.000000
  0.466667 -0.066667  0.466667      4.000000
  0.466667 -0.466667 -0.066667      4.000000
  0.466667  0.066667 -0.466667      4.000000
  0.000000  0.133333  0.133333      4.000000
  0.066667  0.133333  0.133333      4.000000
  0.066667 -0.133333 -0.133333      4.000000
  0.133333  0.133333  0.133333      4.000000
  0.133333 -0.133333 -0.133333      4.000000
  0.200000  0.133333  0.133333      4.000000
  0.200000 -0.133333 -0.133333      4.000000
  0.266667  0.133333  0.133333      4.000000
  0.266667 -0.133333 -0.133333      4.000000
  0.333333  0.133333  0.133333      4.000000
  0.333333 -0.133333 -0.133333      4.000000
  0.400000  0.133333  0.133333      4.000000
  0.400000 -0.133333 -0.133333      4.000000
  0.466667  0.133333  0.133333      4.000000
  0.466667 -0.133333 -0.133333      4.000000
  0.000000  0.200000  0.133333      4.000000
  0.000000 -0.133333  0.200000      4.000000
  0.066667  0.200000  0.133333      4.000000
  0.066667 -0.133333  0.200000      4.000000
  0.066667 -0.200000 -0.133333      4.000000
  0.066667  0.133333 -0.200000      4.000000
  0.133333  0.200000  0.133333      4.000000
  0.133333 -0.133333  0.200000      4.000000
  0.133333 -0.200000 -0.133333      4.000000
  0.133333  0.133333 -0.200000      4.000000
  0.200000  0.200000  0.133333      4.000000
  0.200000 -0.133333  0.200000      4.000000
  0.200000 -0.200000 -0.133333      4.000000
  0.200000  0.133333 -0.200000      4.000000
  0.266667  0.200000  0.133333      4.000000
  0.266667 -0.133333  0.200000      4.000000
  0.266667 -0.200000 -0.133333      4.000000
  0.266667  0.133333 -0.200000      4.000000
  0.333333  0.200000  0.133333      4.000000
  0.333333 -0.133333  0.200000      4.000000
  0.333333 -0.200000 -0.133333      4.000000
  0.333333  0.133333 -0.200000      4.000000
  0.400000  0.200000  0.133333      4.000000
  0.400000 -0.133333  0.200000      4.000000
  0.400000 -0.200000 -0.133333      4.000000
  0.400000  0.133333 -0.200000      4.000000
  0.466667  0.200000  0.133333      4.000000
  0.466667 -0.133333  0.200000      4.000000
  0.466667 -0.200000 -0.133333      4.000000
  0.466667  0.133333 -0.200000      4.000000
  0.000000  0.266667  0.133333      4.000000
  0.000000 -0.133333  0.266667      4.000000
  0.066667  0.266667  0.133333      4.000000
  0.066667 -0.133333  0.266667      4.000000
  0.066667 -0.266667 -0.133333      4.000000
  0.066667  0.133333 -0.266667      4.000000
  0.133333  0.266667  0.133333      4.000000
  0.133333 -0.133333  0.266667      4.000000
  0.133333 -0.266667 -0.133333      4.000000
  0.133333  0.133333 -0.266667      4.000000
  0.200000  0.266667  0.133333      4.000000
  0.200000 -0.133333  0.266667      4.000000
  0.200000 -0.266667 -0.133333      4.000000
  0.200000  0.133333 -0.266667      4.000000
  0.266667  0.266667  0.133333      4.000000
  0.266667 -0.133333  0.266667      4.000000
  0.266667 -0.266667 -0.133333      4.000000
  0.266667  0.133333 -0.266667      4.000000
  0.333333  0.266667  0.133333      4.000000
  0.333333 -0.133333  0.266667      4.000000
  0.333333 -0.266667 -0.133333      4.000000
  0.333333  0.133333 -0.266667      4.000000
  0.400000  0.266667  0.133333      4.000000
  0.400000 -0.133333  0.266667      4.000000
  0.400000 -0.266667 -0.133333      4.000000
  0.400000  0.133333 -0.266667      4.000000
  0.466667  0.266667  0.133333      4.000000
  0.466667 -0.133333  0.266667      4.000000
  0.466667 -0.266667 -0.133333      4.000000
  0.466667  0.133333 -0.266667      4.000000
  0.000000  0.333333  0.133333      4.000000
  0.000000 -0.133333  0.333333      4.000000
  0.066667  0.333333  0.133333      4.000000
  0.066667 -0.133333  0.333333      4.000000
  0.066667 -0.333333 -0.133333      4.000000
  0.066667  0.133333 -0.333333      4.000000
  0.133333  0.333333  0.133333      4.000000
  0.133333 -0.133333  0.333333      4.000000
  0.133333 -0.333333 -0.133333      4.000000
  0.133333  0.133333 -0.333333      4.000000
  0.200000  0.333333  0.133333      4.000000
  0.200000 -0.133333  0.333333      4.000000
  0.200000 -0.333333 -0.133333      4.000000
  0.200000  0.133333 -0.333333      4.000000
  0.266667  0.333333  0.133333      4.000000
  0.266667 -0.133333  0.333333      4.000000
  0.266667 -0.333333 -0.133333      4.000000
  0.266667  0.133333 -0.333333      4.000000
  0.333333  0.333333  0.133333      4.000000
  0.333333 -0.133333  0.333333      4.000000
  0.333333 -0.333333 -0.133333      4.000000
  0.333333  0.133333 -0.333333      4.000000
  0.400000  0.333333  0.133333      4.000000
  0.400000 -0.133333  0.333333      4.000000
  0.400000 -0.333333 -0.133333      4.000000
  0.400000  0.133333 -0.333333      4.000000
  0.466667  0.333333  0.133333      4.000000
  0.466667 -0.133333  0.333333      4.000000
  0.466667 -0.333333 -0.133333      4.000000
  0.466667  0.133333 -0.333333      4.000000
  0.000000  0.400000  0.133333      4.000000
  0.000000 -0.133333  0.400000      4.000000
  0.066667  0.400000  0.133333      4.000000
  0.066667 -0.133333  0.400000      4.000000
  0.066667 -0.400000 -0.133333      4.000000
  0.066667  0.133333 -0.400000      4.000000
  0.133333  0.400000  0.133333      4.000000
  0.133333 -0.133333  0.400000      4.000000
  0.133333 -0.400000 -0.133333      4.000000
  0.133333  0.133333 -0.400000      4.000000
  0.200000  0.400000  0.133333      4.000000
  0.200000 -0.133333  0.400000      4.000000
  0.200000 -0.400000 -0.133333      4.000000
  0.200000  0.133333 -0.400000      4.000000
  0.266667  0.400000  0.133333      4.000000
  0.266667 -0.133333  0.400000      4.000000
  0.266667 -0.400000 -0.133333      4.000000
  0.266667  0.133333 -0.400000      4.000000
  0.333333  0.400000  0.133333      4.000000
  0.333333 -0.133333  0.400000      4.000000
  0.333333 -0.400000 -0.133333      4.000000
  0.333333  0.133333 -0.400000      4.000000
  0.400000  0.400000  0.133333      4.000000
  0.400000 -0.133333  0.400000      4.000000
  0.400000 -0.400000 -0.133333      4.000000
  0.400000  0.133333 -0.400000      4.000000
  0.466667  0.400000  0.133333      4.000000
  0.466667 -0.133333  0.400000      4.000000
  0.466667 -0.400000 -0.133333      4.000000
  0.466667  0.133333 -0.400000      4.000000
  0.000000  0.466667  0.133333      4.000000
  0.000000 -0.133333  0.466667      4.000000
  0.066667  0.466667  0.133333      4.000000
  0.066667 -0.133333  0.466667      4.000000
  0.066667 -0.466667 -0.133333      4.000000
  0.066667  0.133333 -0.466667      4.000000
  0.133333  0.466667  0.133333      4.000000
  0.133333 -0.133333  0.466667      4.000000
  0.133333 -0.466667 -0.133333      4.000000
  0.133333  0.133333 -0.466667      4.000000
  0.200000  0.466667  0.133333      4.000000
  0.200000 -0.133333  0.466667      4.000000
  0.200000 -0.466667 -0.133333      4.000000
  0.200000  0.133333 -0.466667      4.000000
  0.266667  0.466667  0.133333      4.000000
  0.266667 -0.133333  0.466667      4.000000
  0.266667 -0.466667 -0.133333      4.000000
  0.266667  0.133333 -0.466667      4.000000
  0.333333  0.466667  0.133333      4.000000
  0.333333 -0.133333  0.466667      4.000000
  0.333333 -0.466667 -0.133333      4.000000
  0.333333  0.133333 -0.466667      4.000000
  0.400000  0.466667  0.133333      4.000000
  0.400000 -0.133333  0.466667      4.000000
  0.400000 -0.466667 -0.133333      4.000000
  0.400000  0.133333 -0.466667      4.000000
  0.466667  0.466667  0.133333      4.000000
  0.466667 -0.133333  0.466667      4.000000
  0.466667 -0.466667 -0.133333      4.000000
  0.466667  0.133333 -0.466667      4.000000
  0.000000  0.200000  0.200000      4.000000
  0.066667  0.200000  0.200000      4.000000
  0.066667 -0.200000 -0.200000      4.000000
  0.133333  0.200000  0.200000      4.000000
  0.133333 -0.200000 -0.200000      4.000000
  0.200000  0.200000  0.200000      4.000000
  0.200000 -0.200000 -0.200000      4.000000
  0.266667  0.200000  0.200000      4.000000
  0.266667 -0.200000 -0.200000      4.000000
  0.333333  0.200000  0.200000      4.000000
  0.333333 -0.200000 -0.200000      4.000000
  0.400000  0.200000  0.200000      4.000000
  0.400000 -0.200000 -0.200000      4.000000
  0.466667  0.200000  0.200000      4.000000
  0.466667 -0.200000 -0.200000      4.000000
  0.000000  0.266667  0.200000      4.000000
  0.000000 -0.200000  0.266667      4.000000
  0.066667  0.266667  0.200000      4.000000
  0.066667 -0.200000  0.266667      4.000000
  0.066667 -0.266667 -0.200000      4.000000
  0.066667  0.200000 -0.266667      4.000000
  0.133333  0.266667  0.200000      4.000000
  0.133333 -0.200000  0.266667      4.000000
  0.133333 -0.266667 -0.200000      4.000000
  0.133333  0.200000 -0.266667      4.000000
  0.200000  0.266667  0.200000      4.000000
  0.200000 -0.200000  0.266667      4.000000
  0.200000 -0.266667 -0.200000      4.000000
  0.200000  0.200000 -0.266667      4.000000
  0.266667  0.266667  0.200000      4.000000
  0.266667 -0.200000  0.266667      4.000000
  0.266667 -0.266667 -0.200000      4.000000
  0.266667  0.200000 -0.266667      4.000000
  0.333333  0.266667  0.200000      4.000000
  0.333333 -0.200000  0.266667      4.000000
  0.333333 -0.266667 -0.200000      4.000000
  0.333333  0.200000 -0.266667      4.000000
  0.400000  0.266667  0.200000      4.000000
  0.400000 -0.200000  0.266667      4.000000
  0.400000 -0.266667 -0.200000      4.000000
  0.400000  0.200000 -0.266667      4.000000
  0.466667  0.266667  0.200000      4.000000
  0.466667 -0.200000  0.266667      4.000000
  0.466667 -0.266667 -0.200000      4.000000
  0.466667  0.200000 -0.266667      4.000000
  0.000000  0.333333  0.200000      4.000000
  0.000000 -0.200000  0.333333      4.000000
  0.066667  0.333333  0.200000      4.000000
  0.066667 -0.200000  0.333333      4.000000
  0.066667 -0.333333 -0.200000      4.000000
  0.066667  0.200000 -0.333333      4.000000
  0.133333  0.333333  0.200000      4.000000
  0.133333 -0.200000  0.333333      4.000000
  0.133333 -0.333333 -0.200000      4.000000
  0.133333  0.200000 -0.333333      4.000000
  0.200000  0.333333  0.200000      4.000000
  0.200000 -0.200000  0.333333      4.000000
  0.200000 -0.333333 -0.200000      4.000000
  0.200000  0.200000 -0.333333      4.000000
  0.266667  0.333333  0.200000      4.000000
  0.266667 -0.200000  0.333333      4.000000
  0.266667 -0.333333 -0.200000      4.000000
  0.266667  0.200000 -0.333333      4.000000
  0.333333  0.333333  0.200000      4.000000
  0.333333 -0.200000  0.333333      4.000000
  0.333333 -0.333333 -0.200000      4.000000
  0.333333  0.200000 -0.333333      4.000000
  0.400000  0.333333  0.200000      4.000000
  0.400000 -0.200000  0.333333      4.000000
  0.400000 -0.333333 -0.200000      4.000000
  0.400000  0.200000 -0.333333      4.000000
  0.466667  0.333333  0.200000      4.000000
  0.466667 -0.200000  0.333333      4.000000
  0.466667 -0.333333 -0.200000      4.000000
  0.466667  0.200000 -0.333333      4.000000
  0.000000  0.400000  0.200000      4.000000
  0.000000 -0.200000  0.400000      4.000000
  0.066667  0.400000  0.200000      4.000000
  0.066667 -0.200000  0.400000      4.000000
  0.066667 -0.400000 -0.200000      4.000000
  0.066667  0.200000 -0.400000      4.000000
  0.133333  0.400000  0.200000      4.000000
  0.133333 -0.200000  0.400000      4.000000
  0.133333 -0.400000 -0.200000      4.000000
  0.133333  0.200000 -0.400000      4.000000
  0.200000  0.400000  0.200000      4.000000
  0.200000 -0.200000  0.400000      4.000000
  0.200000 -0.400000 -0.200000      4.000000
  0.200000  0.200000 -0.400000      4.000000
  0.266667  0.400000  0.200000      4.000000
  0.266667 -0.200000  0.400000      4.000000
  0.266667 -0.400000 -0.200000      4.000000
  0.266667  0.200000 -0.400000      4.000000
  0.333333  0.400000  0.200000      4.000000
  0.333333 -0.200000  0.400000      4.000000
  0.333333 -0.400000 -0.200000      4.000000
  0.333333  0.200000 -0.400000      4.000000
  0.400000  0.400000  0.200000      4.000000
  0.400000 -0.200000  0.400000      4.000000
  0.400000 -0.400000 -0.200000      4.000000
  0.400000  0.200000 -0.400000      4.000000
  0.466667  0.400000  0.200000      4.000000
  0.466667 -0.200000  0.400000      4.000000
  0.466667 -0.400000 -0.200000      4.000000
  0.466667  0.200000 -0.400000      4.000000
  0.000000  0.466667  0.200000      4.000000
  0.000000 -0.200000  0.466667      4.000000
  0.066667  0.466667  0.200000      4.000000
  0.066667 -0.200000  0.466667      4.000000
  0.066667 -0.466667 -0.200000      4.000000
  0.066667  0.200000 -0.466667      4.000000
  0.133333  0.466667  0.200000      4.000000
  0.133333 -0.200000  0.466667      4.000000
  0.133333 -0.466667 -0.200000      4.000000
  0.133333  0.200000 -0.466667      4.000000
  0.200000  0.466667  0.200000      4.000000
  0.200000 -0.200000  0.466667      4.000000
  0.200000 -0.466667 -0.200000      4.000000
  0.200000  0.200000 -0.466667      4.000000
  0.266667  0.466667  0.200000      4.000000
  0.266667 -0.200000  0.466667      4.000000
  0.266667 -0.466667 -0.200000      4.000000
  0.266667  0.200000 -0.466667      4.000000
  0.333333  0.466667  0.200000      4.000000
  0.333333 -0.200000  0.466667      4.000000
  0.333333 -0.466667 -0.200000      4.000000
  0.333333  0.200000 -0.466667      4.000000
  0.400000  0.466667  0.200000      4.000000
  0.400000 -0.200000  0.466667      4.000000
  0.400000 -0.466667 -0.200000      4.000000
  0.400000  0.200000 -0.466667      4.000000
  0.466667  0.466667  0.200000      4.000000
  0.466667 -0.200000  0.466667      4.000000
  0.466667 -0.466667 -0.200000      4.000000
  0.466667  0.200000 -0.466667      4.000000
  0.000000  0.266667  0.266667      4.000000
  0.066667  0.266667  0.266667      4.000000
  0.066667 -0.266667 -0.266667      4.000000
  0.133333  0.266667  0.266667      4.000000
  0.133333 -0.266667 -0.266667      4.000000
  0.200000  0.266667  0.266667      4.000000
  0.200000 -0.266667 -0.266667      4.000000
  0.266667  0.266667  0.266667      4.000000
  0.266667 -0.266667 -0.266667      4.000000
  0.333333  0.266667  0.266667      4.000000
  0.333333 -0.266667 -0.266667      4.000000
  0.400000  0.266667  0.266667      4.000000
  0.400000 -0.266667 -0.266667      4.000000
  0.466667  0.266667  0.266667      4.000000
  0.466667 -0.266667 -0.266667      4.000000
  0.000000  0.333333  0.266667      4.000000
  0.000000 -0.266667  0.333333      4.000000
  0.066667  0.333333  0.266667      4.000000
  0.066667 -0.266667  0.333333      4.000000
  0.066667 -0.333333 -0.266667      4.000000
  0.066667  0.266667 -0.333333      4.000000
  0.133333  0.333333  0.266667      4.000000
  0.133333 -0.266667  0.333333      4.000000
  0.133333 -0.333333 -0.266667      4.000000
  0.133333  0.266667 -0.333333      4.000000
  0.200000  0.333333  0.266667      4.000000
  0.200000 -0.266667  0.333333      4.000000
  0.200000 -0.333333 -0.266667      4.000000
  0.200000  0.266667 -0.333333      4.000000
  0.266667  0.333333  0.266667      4.000000
  0.266667 -0.266667  0.333333      4.000000
  0.266667 -0.333333 -0.266667      4.000000
  0.266667  0.266667 -0.333333      4.000000
  0.333333  0.333333  0.266667      4.000000
  0.333333 -0.266667  0.333333      4.000000
  0.333333 -0.333333 -0.266667      4.000000
  0.333333  0.266667 -0.333333      4.000000
  0.400000  0.333333  0.266667      4.000000
  0.400000 -0.266667  0.333333      4.000000
  0.400000 -0.333333 -0.266667      4.000000
  0.400000  0.266667 -0.333333      4.000000
  0.466667  0.333333  0.266667      4.000000
  0.466667 -0.266667  0.333333      4.000000
  0.466667 -0.333333 -0.266667      4.000000
  0.466667  0.266667 -0.333333      4.000000
  0.000000  0.400000  0.266667      4.000000
  0.000000 -0.266667  0.400000      4.000000
  0.066667  0.400000  0.266667      4.000000
  0.066667 -0.266667  0.400000      4.000000
  0.066667 -0.400000 -0.266667      4.000000
  0.066667  0.266667 -0.400000      4.000000
  0.133333  0.400000  0.266667      4.000000
  0.133333 -0.266667  0.400000      4.000000
  0.133333 -0.400000 -0.266667      4.000000
  0.133333  0.266667 -0.400000      4.000000
  0.200000  0.400000  0.266667      4.000000
  0.200000 -0.266667  0.400000      4.000000
  0.200000 -0.400000 -0.266667      4.000000
  0.200000  0.266667 -0.400000      4.000000
  0.266667  0.400000  0.266667      4.000000
  0.266667 -0.266667  0.400000      4.000000
  0.266667 -0.400000 -0.266667      4.000000
  0.266667  0.266667 -0.400000      4.000000
  0.333333  0.400000  0.266667      4.000000
  0.333333 -0.266667  0.400000      4.000000
  0.333333 -0.400000 -0.266667      4.000000
  0.333333  0.266667 -0.400000      4.000000
  0.400000  0.400000  0.266667      4.000000
  0.400000 -0.266667  0.400000      4.000000
  0.400000 -0.400000 -0.266667      4.000000
  0.400000  0.266667 -0.400000      4.000000
  0.466667  0.400000  0.266667      4.000000
  0.466667 -0.266667  0.400000      4.000000
  0.466667 -0.400000 -0.266667      4.000000
  0.466667  0.266667 -0.400000      4.000000
  0.000000  0.466667  0.266667      4.000000
  0.000000 -0.266667  0.466667      4.000000
  0.066667  0.466667  0.266667      4.000000
  0.066667 -0.266667  0.466667      4.000000
  0.066667 -0.466667 -0.266667      4.000000
  0.066667  0.266667 -0.466667      4.000000
  0.133333  0.466667  0.266667      4.000000
  0.133333 -0.266667  0.466667      4.000000
  0.133333 -0.466667 -0.266667      4.000000
  0.133333  0.266667 -0.466667      4.000000
  0.200000  0.466667  0.266667      4.000000
  0.200000 -0.266667  0.466667      4.000000
  0.200000 -0.466667 -0.266667      4.000000
  0.200000  0.266667 -0.466667      4.000000
  0.266667  0.466667  0.266667      4.000000
  0.266667 -0.266667  0.466667      4.000000
  0.266667 -0.466667 -0.266667      4.000000
  0.266667  0.266667 -0.466667      4.000000
  0.333333  0.466667  0.266667      4.000000
  0.333333 -0.266667  0.466667      4.000000
  0.333333 -0.466667 -0.266667      4.000000
  0.333333  0.266667 -0.466667      4.000000
  0.400000  0.466667  0.266667      4.000000
  0.400000 -0.266667  0.466667      4.000000
  0.400000 -0.466667 -0.266667      4.000000
  0.400000  0.266667 -0.466667      4.000000
  0.466667  0.466667  0.266667      4.000000
  0.466667 -0.266667  0.466667      4.000000
  0.466667 -0.466667 -0.266667      4.000000
  0.466667  0.266667 -0.466667      4.000000
  0.000000  0.333333  0.333333      4.000000
  0.066667  0.333333  0.333333      4.000000
  0.066667 -0.333333 -0.333333      4.000000
  0.133333  0.333333  0.333333      4.000000
  0.133333 -0.333333 -0.333333      4.000000
  0.200000  0.333333  0.333333      4.000000
  0.200000 -0.333333 -0.333333      4.000000
  0.266667  0.333333  0.333333      4.000000
  0.266667 -0.333333 -0.333333      4.000000
  0.333333  0.333333  0.333333      4.000000
  0.333333 -0.333333 -0.333333      4.000000
  0.400000  0.333333  0.333333      4.000000
  0.400000 -0.333333 -0.333333      4.000000
  0.466667  0.333333  0.333333      4.000000
  0.466667 -0.333333 -0.333333      4.000000
  0.000000  0.400000  0.333333      4.000000
  0.000000 -0.333333  0.400000      4.000000
  0.066667  0.400000  0.333333      4.000000
  0.066667 -0.333333  0.400000      4.000000
  0.066667 -0.400000 -0.333333      4.000000
  0.066667  0.333333 -0.400000      4.000000
  0.133333  0.400000  0.333333      4.000000
  0.133333 -0.333333  0.400000      4.000000
  0.133333 -0.400000 -0.333333      4.000000
  0.133333  0.333333 -0.400000      4.000000
  0.200000  0.400000  0.333333      4.000000
  0.200000 -0.333333  0.400000      4.000000
  0.200000 -0.400000 -0.333333      4.000000
  0.200000  0.333333 -0.400000      4.000000
  0.266667  0.400000  0.333333      4.000000
  0.266667 -0.333333  0.400000      4.000000
  0.266667 -0.400000 -0.333333      4.000000
  0.266667  0.333333 -0.400000      4.000000
  0.333333  0.400000  0.333333      4.000000
  0.333333 -0.333333  0.400000      4.000000
  0.333333 -0.400000 -0.333333      4.000000
  0.333333  0.333333 -0.400000      4.000000
  0.400000  0.400000  0.333333      4.000000
  0.400000 -0.333333  0.400000      4.000000
  0.400000 -0.400000 -0.333333      4.000000
  0.400000  0.333333 -0.400000      4.000000
  0.466667  0.400000  0.333333      4.000000
  0.466667 -0.333333  0.400000      4.000000
  0.466667 -0.400000 -0.333333      4.000000
  0.466667  0.333333 -0.400000      4.000000
  0.000000  0.466667  0.333333      4.000000
  0.000000 -0.333333  0.466667      4.000000
  0.066667  0.466667  0.333333      4.000000
  0.066667 -0.333333  0.466667      4.000000
  0.066667 -0.466667 -0.333333      4.000000
  0.066667  0.333333 -0.466667      4.000000
  0.133333  0.466667  0.333333      4.000000
  0.133333 -0.333333  0.466667      4.000000
  0.133333 -0.466667 -0.333333      4.000000
  0.133333  0.333333 -0.466667      4.000000
  0.200000  0.466667  0.333333      4.000000
  0.200000 -0.333333  0.466667      4.000000
  0.200000 -0.466667 -0.333333      4.000000
  0.200000  0.333333 -0.466667      4.000000
  0.266667  0.466667  0.333333      4.000000
  0.266667 -0.333333  0.466667      4.000000
  0.266667 -0.466667 -0.333333      4.000000
  0.266667  0.333333 -0.466667      4.000000
  0.333333  0.466667  0.333333      4.000000
  0.333333 -0.333333  0.466667      4.000000
  0.333333 -0.466667 -0.333333      4.000000
  0.333333  0.333333 -0.466667      4.000000
  0.400000  0.466667  0.333333      4.000000
  0.400000 -0.333333  0.466667      4.000000
  0.400000 -0.466667 -0.333333      4.000000
  0.400000  0.333333 -0.466667      4.000000
  0.466667  0.466667  0.333333      4.000000
  0.466667 -0.333333  0.466667      4.000000
  0.466667 -0.466667 -0.333333      4.000000
  0.466667  0.333333 -0.466667      4.000000
  0.000000  0.400000  0.400000      4.000000
  0.066667  0.400000  0.400000      4.000000
  0.066667 -0.400000 -0.400000      4.000000
  0.133333  0.400000  0.400000      4.000000
  0.133333 -0.400000 -0.400000      4.000000
  0.200000  0.400000  0.400000      4.000000
  0.200000 -0.400000 -0.400000      4.000000
  0.266667  0.400000  0.400000      4.000000
  0.266667 -0.400000 -0.400000      4.000000
  0.333333  0.400000  0.400000      4.000000
  0.333333 -0.400000 -0.400000      4.000000
  0.400000  0.400000  0.400000      4.000000
  0.400000 -0.400000 -0.400000      4.000000
  0.466667  0.400000  0.400000      4.000000
  0.466667 -0.400000 -0.400000      4.000000
  0.000000  0.466667  0.400000      4.000000
  0.000000 -0.400000  0.466667      4.000000
  0.066667  0.466667  0.400000      4.000000
  0.066667 -0.400000  0.466667      4.000000
  0.066667 -0.466667 -0.400000      4.000000
  0.066667  0.400000 -0.466667      4.000000
  0.133333  0.466667  0.400000      4.000000
  0.133333 -0.400000  0.466667      4.000000
  0.133333 -0.466667 -0.400000      4.000000
  0.133333  0.400000 -0.466667      4.000000
  0.200000  0.466667  0.400000      4.000000
  0.200000 -0.400000  0.466667      4.000000
  0.200000 -0.466667 -0.400000      4.000000
  0.200000  0.400000 -0.466667      4.000000
  0.266667  0.466667  0.400000      4.000000
  0.266667 -0.400000  0.466667      4.000000
  0.266667 -0.466667 -0.400000      4.000000
  0.266667  0.400000 -0.466667      4.000000
  0.333333  0.466667  0.400000      4.000000
  0.333333 -0.400000  0.466667      4.000000
  0.333333 -0.466667 -0.400000      4.000000
  0.333333  0.400000 -0.466667      4.000000
  0.400000  0.466667  0.400000      4.000000
  0.400000 -0.400000  0.466667      4.000000
  0.400000 -0.466667 -0.400000      4.000000
  0.400000  0.400000 -0.466667      4.000000
  0.466667  0.466667  0.400000      4.000000
  0.466667 -0.400000  0.466667      4.000000
  0.466667 -0.466667 -0.400000      4.000000
  0.466667  0.400000 -0.466667      4.000000
  0.000000  0.466667  0.466667      4.000000
  0.066667  0.466667  0.466667      4.000000
  0.066667 -0.466667 -0.466667      4.000000
  0.133333  0.466667  0.466667      4.000000
  0.133333 -0.466667 -0.466667      4.000000
  0.200000  0.466667  0.466667      4.000000
  0.200000 -0.466667 -0.466667      4.000000
  0.266667  0.466667  0.466667      4.000000
  0.266667 -0.466667 -0.466667      4.000000
  0.333333  0.466667  0.466667      4.000000
  0.333333 -0.466667 -0.466667      4.000000
  0.400000  0.466667  0.466667      4.000000
  0.400000 -0.466667 -0.466667      4.000000
  0.466667  0.466667  0.466667      4.000000
  0.466667 -0.466667 -0.466667      4.000000
 
 Following cartesian coordinates:
            Coordinates               Weight
  0.000000  0.000000  0.000000      1.000000
  0.015792  0.000000  0.000000      2.000000
  0.031585  0.000000  0.000000      2.000000
  0.047377  0.000000  0.000000      2.000000
  0.063169  0.000000  0.000000      2.000000
  0.078962  0.000000  0.000000      2.000000
  0.094754  0.000000  0.000000      2.000000
  0.110546  0.000000  0.000000      2.000000
  0.000000  0.015003  0.000000      2.000000
  0.000000  0.000000  0.015003      2.000000
  0.015792  0.015003  0.000000      4.000000
  0.015792  0.000000  0.015003      2.000000
  0.015792  0.000000 -0.015003      2.000000
  0.031585  0.015003  0.000000      4.000000
  0.031585  0.000000  0.015003      2.000000
  0.031585  0.000000 -0.015003      2.000000
  0.047377  0.015003  0.000000      4.000000
  0.047377  0.000000  0.015003      2.000000
  0.047377  0.000000 -0.015003      2.000000
  0.063169  0.015003  0.000000      4.000000
  0.063169  0.000000  0.015003      2.000000
  0.063169  0.000000 -0.015003      2.000000
  0.078962  0.015003  0.000000      4.000000
  0.078962  0.000000  0.015003      2.000000
  0.078962  0.000000 -0.015003      2.000000
  0.094754  0.015003  0.000000      4.000000
  0.094754  0.000000  0.015003      2.000000
  0.094754  0.000000 -0.015003      2.000000
  0.110546  0.015003  0.000000      4.000000
  0.110546  0.000000  0.015003      2.000000
  0.110546  0.000000 -0.015003      2.000000
  0.000000  0.030005  0.000000      2.000000
  0.000000  0.000000  0.030005      2.000000
  0.015792  0.030005  0.000000      4.000000
  0.015792  0.000000  0.030005      2.000000
  0.015792  0.000000 -0.030005      2.000000
  0.031585  0.030005  0.000000      4.000000
  0.031585  0.000000  0.030005      2.000000
  0.031585  0.000000 -0.030005      2.000000
  0.047377  0.030005  0.000000      4.000000
  0.047377  0.000000  0.030005      2.000000
  0.047377  0.000000 -0.030005      2.000000
  0.063169  0.030005  0.000000      4.000000
  0.063169  0.000000  0.030005      2.000000
  0.063169  0.000000 -0.030005      2.000000
  0.078962  0.030005  0.000000      4.000000
  0.078962  0.000000  0.030005      2.000000
  0.078962  0.000000 -0.030005      2.000000
  0.094754  0.030005  0.000000      4.000000
  0.094754  0.000000  0.030005      2.000000
  0.094754  0.000000 -0.030005      2.000000
  0.110546  0.030005  0.000000      4.000000
  0.110546  0.000000  0.030005      2.000000
  0.110546  0.000000 -0.030005      2.000000
  0.000000  0.045008  0.000000      2.000000
  0.000000  0.000000  0.045008      2.000000
  0.015792  0.045008  0.000000      4.000000
  0.015792  0.000000  0.045008      2.000000
  0.015792  0.000000 -0.045008      2.000000
  0.031585  0.045008  0.000000      4.000000
  0.031585  0.000000  0.045008      2.000000
  0.031585  0.000000 -0.045008      2.000000
  0.047377  0.045008  0.000000      4.000000
  0.047377  0.000000  0.045008      2.000000
  0.047377  0.000000 -0.045008      2.000000
  0.063169  0.045008  0.000000      4.000000
  0.063169  0.000000  0.045008      2.000000
  0.063169  0.000000 -0.045008      2.000000
  0.078962  0.045008  0.000000      4.000000
  0.078962  0.000000  0.045008      2.000000
  0.078962  0.000000 -0.045008      2.000000
  0.094754  0.045008  0.000000      4.000000
  0.094754  0.000000  0.045008      2.000000
  0.094754  0.000000 -0.045008      2.000000
  0.110546  0.045008  0.000000      4.000000
  0.110546  0.000000  0.045008      2.000000
  0.110546  0.000000 -0.045008      2.000000
  0.000000  0.060011  0.000000      2.000000
  0.000000  0.000000  0.060011      2.000000
  0.015792  0.060011  0.000000      4.000000
  0.015792  0.000000  0.060011      2.000000
  0.015792  0.000000 -0.060011      2.000000
  0.031585  0.060011  0.000000      4.000000
  0.031585  0.000000  0.060011      2.000000
  0.031585  0.000000 -0.060011      2.000000
  0.047377  0.060011  0.000000      4.000000
  0.047377  0.000000  0.060011      2.000000
  0.047377  0.000000 -0.060011      2.000000
  0.063169  0.060011  0.000000      4.000000
  0.063169  0.000000  0.060011      2.000000
  0.063169  0.000000 -0.060011      2.000000
  0.078962  0.060011  0.000000      4.000000
  0.078962  0.000000  0.060011      2.000000
  0.078962  0.000000 -0.060011      2.000000
  0.094754  0.060011  0.000000      4.000000
  0.094754  0.000000  0.060011      2.000000
  0.094754  0.000000 -0.060011      2.000000
  0.110546  0.060011  0.000000      4.000000
  0.110546  0.000000  0.060011      2.000000
  0.110546  0.000000 -0.060011      2.000000
  0.000000  0.075013  0.000000      2.000000
  0.000000  0.000000  0.075013      2.000000
  0.015792  0.075013  0.000000      4.000000
  0.015792  0.000000  0.075013      2.000000
  0.015792  0.000000 -0.075013      2.000000
  0.031585  0.075013  0.000000      4.000000
  0.031585  0.000000  0.075013      2.000000
  0.031585  0.000000 -0.075013      2.000000
  0.047377  0.075013  0.000000      4.000000
  0.047377  0.000000  0.075013      2.000000
  0.047377  0.000000 -0.075013      2.000000
  0.063169  0.075013  0.000000      4.000000
  0.063169  0.000000  0.075013      2.000000
  0.063169  0.000000 -0.075013      2.000000
  0.078962  0.075013  0.000000      4.000000
  0.078962  0.000000  0.075013      2.000000
  0.078962  0.000000 -0.075013      2.000000
  0.094754  0.075013  0.000000      4.000000
  0.094754  0.000000  0.075013      2.000000
  0.094754  0.000000 -0.075013      2.000000
  0.110546  0.075013  0.000000      4.000000
  0.110546  0.000000  0.075013      2.000000
  0.110546  0.000000 -0.075013      2.000000
  0.000000  0.090016  0.000000      2.000000
  0.000000  0.000000  0.090016      2.000000
  0.015792  0.090016  0.000000      4.000000
  0.015792  0.000000  0.090016      2.000000
  0.015792  0.000000 -0.090016      2.000000
  0.031585  0.090016  0.000000      4.000000
  0.031585  0.000000  0.090016      2.000000
  0.031585  0.000000 -0.090016      2.000000
  0.047377  0.090016  0.000000      4.000000
  0.047377  0.000000  0.090016      2.000000
  0.047377  0.000000 -0.090016      2.000000
  0.063169  0.090016  0.000000      4.000000
  0.063169  0.000000  0.090016      2.000000
  0.063169  0.000000 -0.090016      2.000000
  0.078962  0.090016  0.000000      4.000000
  0.078962  0.000000  0.090016      2.000000
  0.078962  0.000000 -0.090016      2.000000
  0.094754  0.090016  0.000000      4.000000
  0.094754  0.000000  0.090016      2.000000
  0.094754  0.000000 -0.090016      2.000000
  0.110546  0.090016  0.000000      4.000000
  0.110546  0.000000  0.090016      2.000000
  0.110546  0.000000 -0.090016      2.000000
  0.000000  0.105019  0.000000      2.000000
  0.000000  0.000000  0.105019      2.000000
  0.015792  0.105019  0.000000      4.000000
  0.015792  0.000000  0.105019      2.000000
  0.015792  0.000000 -0.105019      2.000000
  0.031585  0.105019  0.000000      4.000000
  0.031585  0.000000  0.105019      2.000000
  0.031585  0.000000 -0.105019      2.000000
  0.047377  0.105019  0.000000      4.000000
  0.047377  0.000000  0.105019      2.000000
  0.047377  0.000000 -0.105019      2.000000
  0.063169  0.105019  0.000000      4.000000
  0.063169  0.000000  0.105019      2.000000
  0.063169  0.000000 -0.105019      2.000000
  0.078962  0.105019  0.000000      4.000000
  0.078962  0.000000  0.105019      2.000000
  0.078962  0.000000 -0.105019      2.000000
  0.094754  0.105019  0.000000      4.000000
  0.094754  0.000000  0.105019      2.000000
  0.094754  0.000000 -0.105019      2.000000
  0.110546  0.105019  0.000000      4.000000
  0.110546  0.000000  0.105019      2.000000
  0.110546  0.000000 -0.105019      2.000000
  0.000000  0.015003  0.015003      4.000000
  0.015792  0.015003  0.015003      4.000000
  0.015792 -0.015003 -0.015003      4.000000
  0.031585  0.015003  0.015003      4.000000
  0.031585 -0.015003 -0.015003      4.000000
  0.047377  0.015003  0.015003      4.000000
  0.047377 -0.015003 -0.015003      4.000000
  0.063169  0.015003  0.015003      4.000000
  0.063169 -0.015003 -0.015003      4.000000
  0.078962  0.015003  0.015003      4.000000
  0.078962 -0.015003 -0.015003      4.000000
  0.094754  0.015003  0.015003      4.000000
  0.094754 -0.015003 -0.015003      4.000000
  0.110546  0.015003  0.015003      4.000000
  0.110546 -0.015003 -0.015003      4.000000
  0.000000  0.030005  0.015003      4.000000
  0.000000 -0.015003  0.030005      4.000000
  0.015792  0.030005  0.015003      4.000000
  0.015792 -0.015003  0.030005      4.000000
  0.015792 -0.030005 -0.015003      4.000000
  0.015792  0.015003 -0.030005      4.000000
  0.031585  0.030005  0.015003      4.000000
  0.031585 -0.015003  0.030005      4.000000
  0.031585 -0.030005 -0.015003      4.000000
  0.031585  0.015003 -0.030005      4.000000
  0.047377  0.030005  0.015003      4.000000
  0.047377 -0.015003  0.030005      4.000000
  0.047377 -0.030005 -0.015003      4.000000
  0.047377  0.015003 -0.030005      4.000000
  0.063169  0.030005  0.015003      4.000000
  0.063169 -0.015003  0.030005      4.000000
  0.063169 -0.030005 -0.015003      4.000000
  0.063169  0.015003 -0.030005      4.000000
  0.078962  0.030005  0.015003      4.000000
  0.078962 -0.015003  0.030005      4.000000
  0.078962 -0.030005 -0.015003      4.000000
  0.078962  0.015003 -0.030005      4.000000
  0.094754  0.030005  0.015003      4.000000
  0.094754 -0.015003  0.030005      4.000000
  0.094754 -0.030005 -0.015003      4.000000
  0.094754  0.015003 -0.030005      4.000000
  0.110546  0.030005  0.015003      4.000000
  0.110546 -0.015003  0.030005      4.000000
  0.110546 -0.030005 -0.015003      4.000000
  0.110546  0.015003 -0.030005      4.000000
  0.000000  0.045008  0.015003      4.000000
  0.000000 -0.015003  0.045008      4.000000
  0.015792  0.045008  0.015003      4.000000
  0.015792 -0.015003  0.045008      4.000000
  0.015792 -0.045008 -0.015003      4.000000
  0.015792  0.015003 -0.045008      4.000000
  0.031585  0.045008  0.015003      4.000000
  0.031585 -0.015003  0.045008      4.000000
  0.031585 -0.045008 -0.015003      4.000000
  0.031585  0.015003 -0.045008      4.000000
  0.047377  0.045008  0.015003      4.000000
  0.047377 -0.015003  0.045008      4.000000
  0.047377 -0.045008 -0.015003      4.000000
  0.047377  0.015003 -0.045008      4.000000
  0.063169  0.045008  0.015003      4.000000
  0.063169 -0.015003  0.045008      4.000000
  0.063169 -0.045008 -0.015003      4.000000
  0.063169  0.015003 -0.045008      4.000000
  0.078962  0.045008  0.015003      4.000000
  0.078962 -0.015003  0.045008      4.000000
  0.078962 -0.045008 -0.015003      4.000000
  0.078962  0.015003 -0.045008      4.000000
  0.094754  0.045008  0.015003      4.000000
  0.094754 -0.015003  0.045008      4.000000
  0.094754 -0.045008 -0.015003      4.000000
  0.094754  0.015003 -0.045008      4.000000
  0.110546  0.045008  0.015003      4.000000
  0.110546 -0.015003  0.045008      4.000000
  0.110546 -0.045008 -0.015003      4.000000
  0.110546  0.015003 -0.045008      4.000000
  0.000000  0.060011  0.015003      4.000000
  0.000000 -0.015003  0.060011      4.000000
  0.015792  0.060011  0.015003      4.000000
  0.015792 -0.015003  0.060011      4.000000
  0.015792 -0.060011 -0.015003      4.000000
  0.015792  0.015003 -0.060011      4.000000
  0.031585  0.060011  0.015003      4.000000
  0.031585 -0.015003  0.060011      4.000000
  0.031585 -0.060011 -0.015003      4.000000
  0.031585  0.015003 -0.060011      4.000000
  0.047377  0.060011  0.015003      4.000000
  0.047377 -0.015003  0.060011      4.000000
  0.047377 -0.060011 -0.015003      4.000000
  0.047377  0.015003 -0.060011      4.000000
  0.063169  0.060011  0.015003      4.000000
  0.063169 -0.015003  0.060011      4.000000
  0.063169 -0.060011 -0.015003      4.000000
  0.063169  0.015003 -0.060011      4.000000
  0.078962  0.060011  0.015003      4.000000
  0.078962 -0.015003  0.060011      4.000000
  0.078962 -0.060011 -0.015003      4.000000
  0.078962  0.015003 -0.060011      4.000000
  0.094754  0.060011  0.015003      4.000000
  0.094754 -0.015003  0.060011      4.000000
  0.094754 -0.060011 -0.015003      4.000000
  0.094754  0.015003 -0.060011      4.000000
  0.110546  0.060011  0.015003      4.000000
  0.110546 -0.015003  0.060011      4.000000
  0.110546 -0.060011 -0.015003      4.000000
  0.110546  0.015003 -0.060011      4.000000
  0.000000  0.075013  0.015003      4.000000
  0.000000 -0.015003  0.075013      4.000000
  0.015792  0.075013  0.015003      4.000000
  0.015792 -0.015003  0.075013      4.000000
  0.015792 -0.075013 -0.015003      4.000000
  0.015792  0.015003 -0.075013      4.000000
  0.031585  0.075013  0.015003      4.000000
  0.031585 -0.015003  0.075013      4.000000
  0.031585 -0.075013 -0.015003      4.000000
  0.031585  0.015003 -0.075013      4.000000
  0.047377  0.075013  0.015003      4.000000
  0.047377 -0.015003  0.075013      4.000000
  0.047377 -0.075013 -0.015003      4.000000
  0.047377  0.015003 -0.075013      4.000000
  0.063169  0.075013  0.015003      4.000000
  0.063169 -0.015003  0.075013      4.000000
  0.063169 -0.075013 -0.015003      4.000000
  0.063169  0.015003 -0.075013      4.000000
  0.078962  0.075013  0.015003      4.000000
  0.078962 -0.015003  0.075013      4.000000
  0.078962 -0.075013 -0.015003      4.000000
  0.078962  0.015003 -0.075013      4.000000
  0.094754  0.075013  0.015003      4.000000
  0.094754 -0.015003  0.075013      4.000000
  0.094754 -0.075013 -0.015003      4.000000
  0.094754  0.015003 -0.075013      4.000000
  0.110546  0.075013  0.015003      4.000000
  0.110546 -0.015003  0.075013      4.000000
  0.110546 -0.075013 -0.015003      4.000000
  0.110546  0.015003 -0.075013      4.000000
  0.000000  0.090016  0.015003      4.000000
  0.000000 -0.015003  0.090016      4.000000
  0.015792  0.090016  0.015003      4.000000
  0.015792 -0.015003  0.090016      4.000000
  0.015792 -0.090016 -0.015003      4.000000
  0.015792  0.015003 -0.090016      4.000000
  0.031585  0.090016  0.015003      4.000000
  0.031585 -0.015003  0.090016      4.000000
  0.031585 -0.090016 -0.015003      4.000000
  0.031585  0.015003 -0.090016      4.000000
  0.047377  0.090016  0.015003      4.000000
  0.047377 -0.015003  0.090016      4.000000
  0.047377 -0.090016 -0.015003      4.000000
  0.047377  0.015003 -0.090016      4.000000
  0.063169  0.090016  0.015003      4.000000
  0.063169 -0.015003  0.090016      4.000000
  0.063169 -0.090016 -0.015003      4.000000
  0.063169  0.015003 -0.090016      4.000000
  0.078962  0.090016  0.015003      4.000000
  0.078962 -0.015003  0.090016      4.000000
  0.078962 -0.090016 -0.015003      4.000000
  0.078962  0.015003 -0.090016      4.000000
  0.094754  0.090016  0.015003      4.000000
  0.094754 -0.015003  0.090016      4.000000
  0.094754 -0.090016 -0.015003      4.000000
  0.094754  0.015003 -0.090016      4.000000
  0.110546  0.090016  0.015003      4.000000
  0.110546 -0.015003  0.090016      4.000000
  0.110546 -0.090016 -0.015003      4.000000
  0.110546  0.015003 -0.090016      4.000000
  0.000000  0.105019  0.015003      4.000000
  0.000000 -0.015003  0.105019      4.000000
  0.015792  0.105019  0.015003      4.000000
  0.015792 -0.015003  0.105019      4.000000
  0.015792 -0.105019 -0.015003      4.000000
  0.015792  0.015003 -0.105019      4.000000
  0.031585  0.105019  0.015003      4.000000
  0.031585 -0.015003  0.105019      4.000000
  0.031585 -0.105019 -0.015003      4.000000
  0.031585  0.015003 -0.105019      4.000000
  0.047377  0.105019  0.015003      4.000000
  0.047377 -0.015003  0.105019      4.000000
  0.047377 -0.105019 -0.015003      4.000000
  0.047377  0.015003 -0.105019      4.000000
  0.063169  0.105019  0.015003      4.000000
  0.063169 -0.015003  0.105019      4.000000
  0.063169 -0.105019 -0.015003      4.000000
  0.063169  0.015003 -0.105019      4.000000
  0.078962  0.105019  0.015003      4.000000
  0.078962 -0.015003  0.105019      4.000000
  0.078962 -0.105019 -0.015003      4.000000
  0.078962  0.015003 -0.105019      4.000000
  0.094754  0.105019  0.015003      4.000000
  0.094754 -0.015003  0.105019      4.000000
  0.094754 -0.105019 -0.015003      4.000000
  0.094754  0.015003 -0.105019      4.000000
  0.110546  0.105019  0.015003      4.000000
  0.110546 -0.015003  0.105019      4.000000
  0.110546 -0.105019 -0.015003      4.000000
  0.110546  0.015003 -0.105019      4.000000
  0.000000  0.030005  0.030005      4.000000
  0.015792  0.030005  0.030005      4.000000
  0.015792 -0.030005 -0.030005      4.000000
  0.031585  0.030005  0.030005      4.000000
  0.031585 -0.030005 -0.030005      4.000000
  0.047377  0.030005  0.030005      4.000000
  0.047377 -0.030005 -0.030005      4.000000
  0.063169  0.030005  0.030005      4.000000
  0.063169 -0.030005 -0.030005      4.000000
  0.078962  0.030005  0.030005      4.000000
  0.078962 -0.030005 -0.030005      4.000000
  0.094754  0.030005  0.030005      4.000000
  0.094754 -0.030005 -0.030005      4.000000
  0.110546  0.030005  0.030005      4.000000
  0.110546 -0.030005 -0.030005      4.000000
  0.000000  0.045008  0.030005      4.000000
  0.000000 -0.030005  0.045008      4.000000
  0.015792  0.045008  0.030005      4.000000
  0.015792 -0.030005  0.045008      4.000000
  0.015792 -0.045008 -0.030005      4.000000
  0.015792  0.030005 -0.045008      4.000000
  0.031585  0.045008  0.030005      4.000000
  0.031585 -0.030005  0.045008      4.000000
  0.031585 -0.045008 -0.030005      4.000000
  0.031585  0.030005 -0.045008      4.000000
  0.047377  0.045008  0.030005      4.000000
  0.047377 -0.030005  0.045008      4.000000
  0.047377 -0.045008 -0.030005      4.000000
  0.047377  0.030005 -0.045008      4.000000
  0.063169  0.045008  0.030005      4.000000
  0.063169 -0.030005  0.045008      4.000000
  0.063169 -0.045008 -0.030005      4.000000
  0.063169  0.030005 -0.045008      4.000000
  0.078962  0.045008  0.030005      4.000000
  0.078962 -0.030005  0.045008      4.000000
  0.078962 -0.045008 -0.030005      4.000000
  0.078962  0.030005 -0.045008      4.000000
  0.094754  0.045008  0.030005      4.000000
  0.094754 -0.030005  0.045008      4.000000
  0.094754 -0.045008 -0.030005      4.000000
  0.094754  0.030005 -0.045008      4.000000
  0.110546  0.045008  0.030005      4.000000
  0.110546 -0.030005  0.045008      4.000000
  0.110546 -0.045008 -0.030005      4.000000
  0.110546  0.030005 -0.045008      4.000000
  0.000000  0.060011  0.030005      4.000000
  0.000000 -0.030005  0.060011      4.000000
  0.015792  0.060011  0.030005      4.000000
  0.015792 -0.030005  0.060011      4.000000
  0.015792 -0.060011 -0.030005      4.000000
  0.015792  0.030005 -0.060011      4.000000
  0.031585  0.060011  0.030005      4.000000
  0.031585 -0.030005  0.060011      4.000000
  0.031585 -0.060011 -0.030005      4.000000
  0.031585  0.030005 -0.060011      4.000000
  0.047377  0.060011  0.030005      4.000000
  0.047377 -0.030005  0.060011      4.000000
  0.047377 -0.060011 -0.030005      4.000000
  0.047377  0.030005 -0.060011      4.000000
  0.063169  0.060011  0.030005      4.000000
  0.063169 -0.030005  0.060011      4.000000
  0.063169 -0.060011 -0.030005      4.000000
  0.063169  0.030005 -0.060011      4.000000
  0.078962  0.060011  0.030005      4.000000
  0.078962 -0.030005  0.060011      4.000000
  0.078962 -0.060011 -0.030005      4.000000
  0.078962  0.030005 -0.060011      4.000000
  0.094754  0.060011  0.030005      4.000000
  0.094754 -0.030005  0.060011      4.000000
  0.094754 -0.060011 -0.030005      4.000000
  0.094754  0.030005 -0.060011      4.000000
  0.110546  0.060011  0.030005      4.000000
  0.110546 -0.030005  0.060011      4.000000
  0.110546 -0.060011 -0.030005      4.000000
  0.110546  0.030005 -0.060011      4.000000
  0.000000  0.075013  0.030005      4.000000
  0.000000 -0.030005  0.075013      4.000000
  0.015792  0.075013  0.030005      4.000000
  0.015792 -0.030005  0.075013      4.000000
  0.015792 -0.075013 -0.030005      4.000000
  0.015792  0.030005 -0.075013      4.000000
  0.031585  0.075013  0.030005      4.000000
  0.031585 -0.030005  0.075013      4.000000
  0.031585 -0.075013 -0.030005      4.000000
  0.031585  0.030005 -0.075013      4.000000
  0.047377  0.075013  0.030005      4.000000
  0.047377 -0.030005  0.075013      4.000000
  0.047377 -0.075013 -0.030005      4.000000
  0.047377  0.030005 -0.075013      4.000000
  0.063169  0.075013  0.030005      4.000000
  0.063169 -0.030005  0.075013      4.000000
  0.063169 -0.075013 -0.030005      4.000000
  0.063169  0.030005 -0.075013      4.000000
  0.078962  0.075013  0.030005      4.000000
  0.078962 -0.030005  0.075013      4.000000
  0.078962 -0.075013 -0.030005      4.000000
  0.078962  0.030005 -0.075013      4.000000
  0.094754  0.075013  0.030005      4.000000
  0.094754 -0.030005  0.075013      4.000000
  0.094754 -0.075013 -0.030005      4.000000
  0.094754  0.030005 -0.075013      4.000000
  0.110546  0.075013  0.030005      4.000000
  0.110546 -0.030005  0.075013      4.000000
  0.110546 -0.075013 -0.030005      4.000000
  0.110546  0.030005 -0.075013      4.000000
  0.000000  0.090016  0.030005      4.000000
  0.000000 -0.030005  0.090016      4.000000
  0.015792  0.090016  0.030005      4.000000
  0.015792 -0.030005  0.090016      4.000000
  0.015792 -0.090016 -0.030005      4.000000
  0.015792  0.030005 -0.090016      4.000000
  0.031585  0.090016  0.030005      4.000000
  0.031585 -0.030005  0.090016      4.000000
  0.031585 -0.090016 -0.030005      4.000000
  0.031585  0.030005 -0.090016      4.000000
  0.047377  0.090016  0.030005      4.000000
  0.047377 -0.030005  0.090016      4.000000
  0.047377 -0.090016 -0.030005      4.000000
  0.047377  0.030005 -0.090016      4.000000
  0.063169  0.090016  0.030005      4.000000
  0.063169 -0.030005  0.090016      4.000000
  0.063169 -0.090016 -0.030005      4.000000
  0.063169  0.030005 -0.090016      4.000000
  0.078962  0.090016  0.030005      4.000000
  0.078962 -0.030005  0.090016      4.000000
  0.078962 -0.090016 -0.030005      4.000000
  0.078962  0.030005 -0.090016      4.000000
  0.094754  0.090016  0.030005      4.000000
  0.094754 -0.030005  0.090016      4.000000
  0.094754 -0.090016 -0.030005      4.000000
  0.094754  0.030005 -0.090016      4.000000
  0.110546  0.090016  0.030005      4.000000
  0.110546 -0.030005  0.090016      4.000000
  0.110546 -0.090016 -0.030005      4.000000
  0.110546  0.030005 -0.090016      4.000000
  0.000000  0.105019  0.030005      4.000000
  0.000000 -0.030005  0.105019      4.000000
  0.015792  0.105019  0.030005      4.000000
  0.015792 -0.030005  0.105019      4.000000
  0.015792 -0.105019 -0.030005      4.000000
  0.015792  0.030005 -0.105019      4.000000
  0.031585  0.105019  0.030005      4.000000
  0.031585 -0.030005  0.105019      4.000000
  0.031585 -0.105019 -0.030005      4.000000
  0.031585  0.030005 -0.105019      4.000000
  0.047377  0.105019  0.030005      4.000000
  0.047377 -0.030005  0.105019      4.000000
  0.047377 -0.105019 -0.030005      4.000000
  0.047377  0.030005 -0.105019      4.000000
  0.063169  0.105019  0.030005      4.000000
  0.063169 -0.030005  0.105019      4.000000
  0.063169 -0.105019 -0.030005      4.000000
  0.063169  0.030005 -0.105019      4.000000
  0.078962  0.105019  0.030005      4.000000
  0.078962 -0.030005  0.105019      4.000000
  0.078962 -0.105019 -0.030005      4.000000
  0.078962  0.030005 -0.105019      4.000000
  0.094754  0.105019  0.030005      4.000000
  0.094754 -0.030005  0.105019      4.000000
  0.094754 -0.105019 -0.030005      4.000000
  0.094754  0.030005 -0.105019      4.000000
  0.110546  0.105019  0.030005      4.000000
  0.110546 -0.030005  0.105019      4.000000
  0.110546 -0.105019 -0.030005      4.000000
  0.110546  0.030005 -0.105019      4.000000
  0.000000  0.045008  0.045008      4.000000
  0.015792  0.045008  0.045008      4.000000
  0.015792 -0.045008 -0.045008      4.000000
  0.031585  0.045008  0.045008      4.000000
  0.031585 -0.045008 -0.045008      4.000000
  0.047377  0.045008  0.045008      4.000000
  0.047377 -0.045008 -0.045008      4.000000
  0.063169  0.045008  0.045008      4.000000
  0.063169 -0.045008 -0.045008      4.000000
  0.078962  0.045008  0.045008      4.000000
  0.078962 -0.045008 -0.045008      4.000000
  0.094754  0.045008  0.045008      4.000000
  0.094754 -0.045008 -0.045008      4.000000
  0.110546  0.045008  0.045008      4.000000
  0.110546 -0.045008 -0.045008      4.000000
  0.000000  0.060011  0.045008      4.000000
  0.000000 -0.045008  0.060011      4.000000
  0.015792  0.060011  0.045008      4.000000
  0.015792 -0.045008  0.060011      4.000000
  0.015792 -0.060011 -0.045008      4.000000
  0.015792  0.045008 -0.060011      4.000000
  0.031585  0.060011  0.045008      4.000000
  0.031585 -0.045008  0.060011      4.000000
  0.031585 -0.060011 -0.045008      4.000000
  0.031585  0.045008 -0.060011      4.000000
  0.047377  0.060011  0.045008      4.000000
  0.047377 -0.045008  0.060011      4.000000
  0.047377 -0.060011 -0.045008      4.000000
  0.047377  0.045008 -0.060011      4.000000
  0.063169  0.060011  0.045008      4.000000
  0.063169 -0.045008  0.060011      4.000000
  0.063169 -0.060011 -0.045008      4.000000
  0.063169  0.045008 -0.060011      4.000000
  0.078962  0.060011  0.045008      4.000000
  0.078962 -0.045008  0.060011      4.000000
  0.078962 -0.060011 -0.045008      4.000000
  0.078962  0.045008 -0.060011      4.000000
  0.094754  0.060011  0.045008      4.000000
  0.094754 -0.045008  0.060011      4.000000
  0.094754 -0.060011 -0.045008      4.000000
  0.094754  0.045008 -0.060011      4.000000
  0.110546  0.060011  0.045008      4.000000
  0.110546 -0.045008  0.060011      4.000000
  0.110546 -0.060011 -0.045008      4.000000
  0.110546  0.045008 -0.060011      4.000000
  0.000000  0.075013  0.045008      4.000000
  0.000000 -0.045008  0.075013      4.000000
  0.015792  0.075013  0.045008      4.000000
  0.015792 -0.045008  0.075013      4.000000
  0.015792 -0.075013 -0.045008      4.000000
  0.015792  0.045008 -0.075013      4.000000
  0.031585  0.075013  0.045008      4.000000
  0.031585 -0.045008  0.075013      4.000000
  0.031585 -0.075013 -0.045008      4.000000
  0.031585  0.045008 -0.075013      4.000000
  0.047377  0.075013  0.045008      4.000000
  0.047377 -0.045008  0.075013      4.000000
  0.047377 -0.075013 -0.045008      4.000000
  0.047377  0.045008 -0.075013      4.000000
  0.063169  0.075013  0.045008      4.000000
  0.063169 -0.045008  0.075013      4.000000
  0.063169 -0.075013 -0.045008      4.000000
  0.063169  0.045008 -0.075013      4.000000
  0.078962  0.075013  0.045008      4.000000
  0.078962 -0.045008  0.075013      4.000000
  0.078962 -0.075013 -0.045008      4.000000
  0.078962  0.045008 -0.075013      4.000000
  0.094754  0.075013  0.045008      4.000000
  0.094754 -0.045008  0.075013      4.000000
  0.094754 -0.075013 -0.045008      4.000000
  0.094754  0.045008 -0.075013      4.000000
  0.110546  0.075013  0.045008      4.000000
  0.110546 -0.045008  0.075013      4.000000
  0.110546 -0.075013 -0.045008      4.000000
  0.110546  0.045008 -0.075013      4.000000
  0.000000  0.090016  0.045008      4.000000
  0.000000 -0.045008  0.090016      4.000000
  0.015792  0.090016  0.045008      4.000000
  0.015792 -0.045008  0.090016      4.000000
  0.015792 -0.090016 -0.045008      4.000000
  0.015792  0.045008 -0.090016      4.000000
  0.031585  0.090016  0.045008      4.000000
  0.031585 -0.045008  0.090016      4.000000
  0.031585 -0.090016 -0.045008      4.000000
  0.031585  0.045008 -0.090016      4.000000
  0.047377  0.090016  0.045008      4.000000
  0.047377 -0.045008  0.090016      4.000000
  0.047377 -0.090016 -0.045008      4.000000
  0.047377  0.045008 -0.090016      4.000000
  0.063169  0.090016  0.045008      4.000000
  0.063169 -0.045008  0.090016      4.000000
  0.063169 -0.090016 -0.045008      4.000000
  0.063169  0.045008 -0.090016      4.000000
  0.078962  0.090016  0.045008      4.000000
  0.078962 -0.045008  0.090016      4.000000
  0.078962 -0.090016 -0.045008      4.000000
  0.078962  0.045008 -0.090016      4.000000
  0.094754  0.090016  0.045008      4.000000
  0.094754 -0.045008  0.090016      4.000000
  0.094754 -0.090016 -0.045008      4.000000
  0.094754  0.045008 -0.090016      4.000000
  0.110546  0.090016  0.045008      4.000000
  0.110546 -0.045008  0.090016      4.000000
  0.110546 -0.090016 -0.045008      4.000000
  0.110546  0.045008 -0.090016      4.000000
  0.000000  0.105019  0.045008      4.000000
  0.000000 -0.045008  0.105019      4.000000
  0.015792  0.105019  0.045008      4.000000
  0.015792 -0.045008  0.105019      4.000000
  0.015792 -0.105019 -0.045008      4.000000
  0.015792  0.045008 -0.105019      4.000000
  0.031585  0.105019  0.045008      4.000000
  0.031585 -0.045008  0.105019      4.000000
  0.031585 -0.105019 -0.045008      4.000000
  0.031585  0.045008 -0.105019      4.000000
  0.047377  0.105019  0.045008      4.000000
  0.047377 -0.045008  0.105019      4.000000
  0.047377 -0.105019 -0.045008      4.000000
  0.047377  0.045008 -0.105019      4.000000
  0.063169  0.105019  0.045008      4.000000
  0.063169 -0.045008  0.105019      4.000000
  0.063169 -0.105019 -0.045008      4.000000
  0.063169  0.045008 -0.105019      4.000000
  0.078962  0.105019  0.045008      4.000000
  0.078962 -0.045008  0.105019      4.000000
  0.078962 -0.105019 -0.045008      4.000000
  0.078962  0.045008 -0.105019      4.000000
  0.094754  0.105019  0.045008      4.000000
  0.094754 -0.045008  0.105019      4.000000
  0.094754 -0.105019 -0.045008      4.000000
  0.094754  0.045008 -0.105019      4.000000
  0.110546  0.105019  0.045008      4.000000
  0.110546 -0.045008  0.105019      4.000000
  0.110546 -0.105019 -0.045008      4.000000
  0.110546  0.045008 -0.105019      4.000000
  0.000000  0.060011  0.060011      4.000000
  0.015792  0.060011  0.060011      4.000000
  0.015792 -0.060011 -0.060011      4.000000
  0.031585  0.060011  0.060011      4.000000
  0.031585 -0.060011 -0.060011      4.000000
  0.047377  0.060011  0.060011      4.000000
  0.047377 -0.060011 -0.060011      4.000000
  0.063169  0.060011  0.060011      4.000000
  0.063169 -0.060011 -0.060011      4.000000
  0.078962  0.060011  0.060011      4.000000
  0.078962 -0.060011 -0.060011      4.000000
  0.094754  0.060011  0.060011      4.000000
  0.094754 -0.060011 -0.060011      4.000000
  0.110546  0.060011  0.060011      4.000000
  0.110546 -0.060011 -0.060011      4.000000
  0.000000  0.075013  0.060011      4.000000
  0.000000 -0.060011  0.075013      4.000000
  0.015792  0.075013  0.060011      4.000000
  0.015792 -0.060011  0.075013      4.000000
  0.015792 -0.075013 -0.060011      4.000000
  0.015792  0.060011 -0.075013      4.000000
  0.031585  0.075013  0.060011      4.000000
  0.031585 -0.060011  0.075013      4.000000
  0.031585 -0.075013 -0.060011      4.000000
  0.031585  0.060011 -0.075013      4.000000
  0.047377  0.075013  0.060011      4.000000
  0.047377 -0.060011  0.075013      4.000000
  0.047377 -0.075013 -0.060011      4.000000
  0.047377  0.060011 -0.075013      4.000000
  0.063169  0.075013  0.060011      4.000000
  0.063169 -0.060011  0.075013      4.000000
  0.063169 -0.075013 -0.060011      4.000000
  0.063169  0.060011 -0.075013      4.000000
  0.078962  0.075013  0.060011      4.000000
  0.078962 -0.060011  0.075013      4.000000
  0.078962 -0.075013 -0.060011      4.000000
  0.078962  0.060011 -0.075013      4.000000
  0.094754  0.075013  0.060011      4.000000
  0.094754 -0.060011  0.075013      4.000000
  0.094754 -0.075013 -0.060011      4.000000
  0.094754  0.060011 -0.075013      4.000000
  0.110546  0.075013  0.060011      4.000000
  0.110546 -0.060011  0.075013      4.000000
  0.110546 -0.075013 -0.060011      4.000000
  0.110546  0.060011 -0.075013      4.000000
  0.000000  0.090016  0.060011      4.000000
  0.000000 -0.060011  0.090016      4.000000
  0.015792  0.090016  0.060011      4.000000
  0.015792 -0.060011  0.090016      4.000000
  0.015792 -0.090016 -0.060011      4.000000
  0.015792  0.060011 -0.090016      4.000000
  0.031585  0.090016  0.060011      4.000000
  0.031585 -0.060011  0.090016      4.000000
  0.031585 -0.090016 -0.060011      4.000000
  0.031585  0.060011 -0.090016      4.000000
  0.047377  0.090016  0.060011      4.000000
  0.047377 -0.060011  0.090016      4.000000
  0.047377 -0.090016 -0.060011      4.000000
  0.047377  0.060011 -0.090016      4.000000
  0.063169  0.090016  0.060011      4.000000
  0.063169 -0.060011  0.090016      4.000000
  0.063169 -0.090016 -0.060011      4.000000
  0.063169  0.060011 -0.090016      4.000000
  0.078962  0.090016  0.060011      4.000000
  0.078962 -0.060011  0.090016      4.000000
  0.078962 -0.090016 -0.060011      4.000000
  0.078962  0.060011 -0.090016      4.000000
  0.094754  0.090016  0.060011      4.000000
  0.094754 -0.060011  0.090016      4.000000
  0.094754 -0.090016 -0.060011      4.000000
  0.094754  0.060011 -0.090016      4.000000
  0.110546  0.090016  0.060011      4.000000
  0.110546 -0.060011  0.090016      4.000000
  0.110546 -0.090016 -0.060011      4.000000
  0.110546  0.060011 -0.090016      4.000000
  0.000000  0.105019  0.060011      4.000000
  0.000000 -0.060011  0.105019      4.000000
  0.015792  0.105019  0.060011      4.000000
  0.015792 -0.060011  0.105019      4.000000
  0.015792 -0.105019 -0.060011      4.000000
  0.015792  0.060011 -0.105019      4.000000
  0.031585  0.105019  0.060011      4.000000
  0.031585 -0.060011  0.105019      4.000000
  0.031585 -0.105019 -0.060011      4.000000
  0.031585  0.060011 -0.105019      4.000000
  0.047377  0.105019  0.060011      4.000000
  0.047377 -0.060011  0.105019      4.000000
  0.047377 -0.105019 -0.060011      4.000000
  0.047377  0.060011 -0.105019      4.000000
  0.063169  0.105019  0.060011      4.000000
  0.063169 -0.060011  0.105019      4.000000
  0.063169 -0.105019 -0.060011      4.000000
  0.063169  0.060011 -0.105019      4.000000
  0.078962  0.105019  0.060011      4.000000
  0.078962 -0.060011  0.105019      4.000000
  0.078962 -0.105019 -0.060011      4.000000
  0.078962  0.060011 -0.105019      4.000000
  0.094754  0.105019  0.060011      4.000000
  0.094754 -0.060011  0.105019      4.000000
  0.094754 -0.105019 -0.060011      4.000000
  0.094754  0.060011 -0.105019      4.000000
  0.110546  0.105019  0.060011      4.000000
  0.110546 -0.060011  0.105019      4.000000
  0.110546 -0.105019 -0.060011      4.000000
  0.110546  0.060011 -0.105019      4.000000
  0.000000  0.075013  0.075013      4.000000
  0.015792  0.075013  0.075013      4.000000
  0.015792 -0.075013 -0.075013      4.000000
  0.031585  0.075013  0.075013      4.000000
  0.031585 -0.075013 -0.075013      4.000000
  0.047377  0.075013  0.075013      4.000000
  0.047377 -0.075013 -0.075013      4.000000
  0.063169  0.075013  0.075013      4.000000
  0.063169 -0.075013 -0.075013      4.000000
  0.078962  0.075013  0.075013      4.000000
  0.078962 -0.075013 -0.075013      4.000000
  0.094754  0.075013  0.075013      4.000000
  0.094754 -0.075013 -0.075013      4.000000
  0.110546  0.075013  0.075013      4.000000
  0.110546 -0.075013 -0.075013      4.000000
  0.000000  0.090016  0.075013      4.000000
  0.000000 -0.075013  0.090016      4.000000
  0.015792  0.090016  0.075013      4.000000
  0.015792 -0.075013  0.090016      4.000000
  0.015792 -0.090016 -0.075013      4.000000
  0.015792  0.075013 -0.090016      4.000000
  0.031585  0.090016  0.075013      4.000000
  0.031585 -0.075013  0.090016      4.000000
  0.031585 -0.090016 -0.075013      4.000000
  0.031585  0.075013 -0.090016      4.000000
  0.047377  0.090016  0.075013      4.000000
  0.047377 -0.075013  0.090016      4.000000
  0.047377 -0.090016 -0.075013      4.000000
  0.047377  0.075013 -0.090016      4.000000
  0.063169  0.090016  0.075013      4.000000
  0.063169 -0.075013  0.090016      4.000000
  0.063169 -0.090016 -0.075013      4.000000
  0.063169  0.075013 -0.090016      4.000000
  0.078962  0.090016  0.075013      4.000000
  0.078962 -0.075013  0.090016      4.000000
  0.078962 -0.090016 -0.075013      4.000000
  0.078962  0.075013 -0.090016      4.000000
  0.094754  0.090016  0.075013      4.000000
  0.094754 -0.075013  0.090016      4.000000
  0.094754 -0.090016 -0.075013      4.000000
  0.094754  0.075013 -0.090016      4.000000
  0.110546  0.090016  0.075013      4.000000
  0.110546 -0.075013  0.090016      4.000000
  0.110546 -0.090016 -0.075013      4.000000
  0.110546  0.075013 -0.090016      4.000000
  0.000000  0.105019  0.075013      4.000000
  0.000000 -0.075013  0.105019      4.000000
  0.015792  0.105019  0.075013      4.000000
  0.015792 -0.075013  0.105019      4.000000
  0.015792 -0.105019 -0.075013      4.000000
  0.015792  0.075013 -0.105019      4.000000
  0.031585  0.105019  0.075013      4.000000
  0.031585 -0.075013  0.105019      4.000000
  0.031585 -0.105019 -0.075013      4.000000
  0.031585  0.075013 -0.105019      4.000000
  0.047377  0.105019  0.075013      4.000000
  0.047377 -0.075013  0.105019      4.000000
  0.047377 -0.105019 -0.075013      4.000000
  0.047377  0.075013 -0.105019      4.000000
  0.063169  0.105019  0.075013      4.000000
  0.063169 -0.075013  0.105019      4.000000
  0.063169 -0.105019 -0.075013      4.000000
  0.063169  0.075013 -0.105019      4.000000
  0.078962  0.105019  0.075013      4.000000
  0.078962 -0.075013  0.105019      4.000000
  0.078962 -0.105019 -0.075013      4.000000
  0.078962  0.075013 -0.105019      4.000000
  0.094754  0.105019  0.075013      4.000000
  0.094754 -0.075013  0.105019      4.000000
  0.094754 -0.105019 -0.075013      4.000000
  0.094754  0.075013 -0.105019      4.000000
  0.110546  0.105019  0.075013      4.000000
  0.110546 -0.075013  0.105019      4.000000
  0.110546 -0.105019 -0.075013      4.000000
  0.110546  0.075013 -0.105019      4.000000
  0.000000  0.090016  0.090016      4.000000
  0.015792  0.090016  0.090016      4.000000
  0.015792 -0.090016 -0.090016      4.000000
  0.031585  0.090016  0.090016      4.000000
  0.031585 -0.090016 -0.090016      4.000000
  0.047377  0.090016  0.090016      4.000000
  0.047377 -0.090016 -0.090016      4.000000
  0.063169  0.090016  0.090016      4.000000
  0.063169 -0.090016 -0.090016      4.000000
  0.078962  0.090016  0.090016      4.000000
  0.078962 -0.090016 -0.090016      4.000000
  0.094754  0.090016  0.090016      4.000000
  0.094754 -0.090016 -0.090016      4.000000
  0.110546  0.090016  0.090016      4.000000
  0.110546 -0.090016 -0.090016      4.000000
  0.000000  0.105019  0.090016      4.000000
  0.000000 -0.090016  0.105019      4.000000
  0.015792  0.105019  0.090016      4.000000
  0.015792 -0.090016  0.105019      4.000000
  0.015792 -0.105019 -0.090016      4.000000
  0.015792  0.090016 -0.105019      4.000000
  0.031585  0.105019  0.090016      4.000000
  0.031585 -0.090016  0.105019      4.000000
  0.031585 -0.105019 -0.090016      4.000000
  0.031585  0.090016 -0.105019      4.000000
  0.047377  0.105019  0.090016      4.000000
  0.047377 -0.090016  0.105019      4.000000
  0.047377 -0.105019 -0.090016      4.000000
  0.047377  0.090016 -0.105019      4.000000
  0.063169  0.105019  0.090016      4.000000
  0.063169 -0.090016  0.105019      4.000000
  0.063169 -0.105019 -0.090016      4.000000
  0.063169  0.090016 -0.105019      4.000000
  0.078962  0.105019  0.090016      4.000000
  0.078962 -0.090016  0.105019      4.000000
  0.078962 -0.105019 -0.090016      4.000000
  0.078962  0.090016 -0.105019      4.000000
  0.094754  0.105019  0.090016      4.000000
  0.094754 -0.090016  0.105019      4.000000
  0.094754 -0.105019 -0.090016      4.000000
  0.094754  0.090016 -0.105019      4.000000
  0.110546  0.105019  0.090016      4.000000
  0.110546 -0.090016  0.105019      4.000000
  0.110546 -0.105019 -0.090016      4.000000
  0.110546  0.090016 -0.105019      4.000000
  0.000000  0.105019  0.105019      4.000000
  0.015792  0.105019  0.105019      4.000000
  0.015792 -0.105019 -0.105019      4.000000
  0.031585  0.105019  0.105019      4.000000
  0.031585 -0.105019 -0.105019      4.000000
  0.047377  0.105019  0.105019      4.000000
  0.047377 -0.105019 -0.105019      4.000000
  0.063169  0.105019  0.105019      4.000000
  0.063169 -0.105019 -0.105019      4.000000
  0.078962  0.105019  0.105019      4.000000
  0.078962 -0.105019 -0.105019      4.000000
  0.094754  0.105019  0.105019      4.000000
  0.094754 -0.105019 -0.105019      4.000000
  0.110546  0.105019  0.105019      4.000000
  0.110546 -0.105019 -0.105019      4.000000
 


--------------------------------------------------------------------------------------------------------




 Dimension of arrays:
   k-points           NKPTS =    904   k-points in BZ     NKDIM =    904   number of bands    NBANDS=     10
   number of dos      NEDOS =    301   number of ions     NIONS =      4
   non local maximal  LDIM  =      3   non local SUM 2l+1 LMDIM =      5
   total plane-waves  NPLWV =  46656
   max r-space proj   IRMAX =   2623   max aug-charges    IRDMAX=   7056
   dimension x,y,z NGX =    36 NGY =   36 NGZ =   36
   dimension x,y,z NGXF=    72 NGYF=   72 NGZF=   72
   support grid    NGXF=    72 NGYF=   72 NGZF=   72
   ions per type =               4
   NGX,Y,Z   is equivalent  to a cutoff of  14.18, 13.47, 13.47 a.u.
   NGXF,Y,Z  is equivalent  to a cutoff of  28.35, 26.94, 26.94 a.u.

 SYSTEM =  unknown system                          
 POSCAR =  Li                                      

 Startparameter for this run:
   NWRITE =      2    write-flag & timer
   PREC   = accura    normal or accurate (medium, high low for compatibility)
   ISTART =      0    job   : 0-new  1-cont  2-samecut
   ICHARG =      2    charge: 1-file 2-atom 10-const
   ISPIN  =      1    spin polarized calculation?
   LNONCOLLINEAR =      F non collinear calculations
   LSORBIT =      F    spin-orbit coupling
   INIWAV =      1    electr: 0-lowe 1-rand  2-diag
   LASPH  =      F    aspherical Exc in radial PAW
 Electronic Relaxation 1
   ENCUT  =  600.0 eV  44.10 Ry    6.64 a.u.   8.43  8.88  8.88*2*pi/ulx,y,z
   ENINI  =  600.0     initial cutoff
   ENAUG  =  628.9 eV  augmentation charge cutoff
   NELM   =    120;   NELMIN=  2; NELMDL= -5     # of ELM steps 
   EDIFF  = 0.1E-05   stopping-criterion for ELM
   LREAL  =      T    real-space projection
   NLSPLINE    = F    spline interpolate recip. space projectors
   LCOMPAT=      F    compatible to vasp.4.4
   GGA_COMPAT  = T    GGA compatible to vasp.4.4-vasp.4.6
   LMAXPAW     = -100 max onsite density
   LMAXMIX     =    2 max onsite mixed and CHGCAR
   VOSKOWN=      0    Vosko Wilk Nusair interpolation
   ROPT   =   -0.00025
 Ionic relaxation
   EDIFFG = 0.1E-04   stopping-criterion for IOM
   NSW    =      1    number of steps for IOM
   NBLOCK =      1;   KBLOCK =      1    inner block; outer block 
   IBRION =     -1    ionic relax: 0-MD 1-quasi-New 2-CG
   NFREE  =      0    steps in history (QN), initial steepest desc. (CG)
   ISIF   =      2    stress and relaxation
   IWAVPR =     10    prediction:  0-non 1-charg 2-wave 3-comb
   ISYM   =      2    0-nonsym 1-usesym 2-fastsym
   LCORR  =      T    Harris-Foulkes like correction to forces

   POTIM  = 0.5000    time-step for ionic-motion
   TEIN   =    0.0    initial temperature
   TEBEG  =    0.0;   TEEND  =   0.0 temperature during run
   SMASS  =  -3.00    Nose mass-parameter (am)
   estimated Nose-frequenzy (Omega)   =  0.10E-29 period in steps = 0.13E+47 mass=  -0.407E-27a.u.
   SCALEE = 1.0000    scale energy and forces
   NPACO  =    256;   APACO  = 10.0  distance and # of slots for P.C.
   PSTRESS=    0.0 pullay stress

  Mass of Ions in am
   POMASS =   7.01
  Ionic Valenz
   ZVAL   =   3.00
  Atomic Wigner-Seitz radii
   RWIGS  =  -1.00
  virtual crystal weights 
   VCA    =   1.00
   NELECT =      12.0000    total number of electrons
   NUPDOWN=      -1.0000    fix difference up-down

 DOS related values:
   EMIN   =  10.00;   EMAX   =-10.00  energy-range for DOS
   EFERMI =   0.00;   METHOD = LEGACY      
   ISMEAR =     0;   SIGMA  =   0.02  broadening in eV -4-tet -1-fermi 0-gaus
   EFERMI_NEDOS =   21; number of points for ismear=-14 and -15

 Electronic relaxation 2 (details)
   IALGO  =     38    algorithm
   LDIAG  =      T    sub-space diagonalisation (order eigenvalues)
   LSUBROT=      F    optimize rotation matrix (better conditioning)
   LROBUST=      F    robust break criterion during scf (extrapolated energy error)
   ISEARCH=      0    line search for conjugate gradient (0, 1=use gradient)
   TURBO    =      0    0=normal 1=particle mesh
   IRESTART =      0    0=no restart 2=restart with 2 vectors
   NREBOOT  =      0    no. of reboots
   NMIN     =      0    reboot dimension
   EREF     =   0.00    reference energy to select bands
   IMIX   =      4    mixing-type and parameters
     AMIX     =   0.40;   BMIX     =  1.00
     AMIX_MAG =   1.60;   BMIX_MAG =  1.00
     AMIN     =   0.10
     WC   =   100.;   INIMIX=   1;  MIXPRE=   1;  MAXMIX= -45

 Intra band minimization:
   WEIMIN = 0.0000     energy-eigenvalue tresh-hold
   EBREAK =  0.25E-07  absolut break condition
   DEPER  =   0.30     relativ break condition  

   TIME   =   0.40     timestep for ELM

  volume/ion in A,a.u.               =      20.84       140.63
  Fermi-wavevector in a.u.,A,eV,Ry     =   0.858001  1.621387 10.016144  0.736166
  Thomas-Fermi vector in A             =   1.975140
 
 Write flags
   LWAVE        =      F    write WAVECAR
   LDOWNSAMPLE  =      F    k-point downsampling of WAVECAR
   LCHARG       =      F    write CHGCAR
   LVTOT        =      F    write LOCPOT, total local potential
   LVHAR        =      F    write LOCPOT, Hartree potential only
   WRT_POTENTIAL= false  ! write potential to hdf5 file
   LELF         =      F    write electronic localiz. function (ELF)
   LORBIT       =      0    0 simple, 1 ext, 2 COOP (PROOUT), +10 PAW based schemes


 Python interface
   PLUGINS active      =      F    recompile with -DPLUGINS to activate
 
 Dipole corrections
   LMONO      =      F    monopole corrections only (constant potential shift)
   LDIPOL     =      F    correct potential (dipole corrections)
   IDIPOL     =      0    1-x, 2-y, 3-z, 4-all directions 
   EPSILON    =  1.0000000 bulk dielectric constant
   LVACPOTAV  =      F  vacuum potentials using an averaging scheme for the charge density
   VACPOTFLAT =  0.1000000 required flatness to determine vacuum potential
 
Coulomb truncation method
  LTRUNCATE          =      F  Coulomb kernel truncation to be used

 
 Exchange correlation treatment:
   GGA     = PE    functional components
   XC_C    = 1    coefficients multiplying the functional components
   LIBXC   =     F    Libxc                    
   VOSKOWN =     0    Vosko Wilk Nusair interpolation
   LHFCALC =     F    Hartree Fock is set to
   LHFONE  =     F    Hartree Fock one center treatment
   AEXX    =    0.0000 exact exchange contribution

 Parameters of functionals:
   PE:
     No parameter
 
 Van der Waals corrections
   IVDW    =     0    specifies the selected vdW correction

 Linear response parameters
   LEPSILON=     F    determine dielectric tensor
   LRPA    =     F    only Hartree local field effects (RPA)
   LNABLA  =     F    use nabla operator in PAW spheres
   LVEL    =     F    velocity operator in full k-point grid
   CSHIFT  =0.1000    complex shift for real part using Kramers Kronig
   OMEGAMAX=  -1.0    maximum frequency
   DEG_THRESHOLD= 0.2000000E-02 threshold for treating states as degnerate
   RTIME   =   -0.100 relaxation time in fs
  (WPLASMAI=    0.000 imaginary part of plasma frequency in eV, 0.658/RTIME)
   DFIELD  = 0.0000000 0.0000000 0.0000000 field for delta impulse in time
 
  Optional k-point grid parameters
   LKPOINTS_OPT  =     F    use optional k-point grid
   KPOINTS_OPT_MODE=     1    mode for optional k-point grid
 
 Orbital magnetization related:
   ORBITALMAG=     F  switch on orbital magnetization
   LCHIMAG   =     F  perturbation theory with respect to B field
   DQ        =  0.001000  dq finite difference perturbation B field
   LLRAUG    =     F  two centre corrections for induced B field
   LBONE     =     F  B-component reconstruction in AE one-centre
   LVGVCALC  =     T  calculate vGv susceptibility
   LVGVAPPL  =     F  apply vGv susceptibility instead of pGv for G=0

 Random number generation:
   RANDOM_GENERATOR = DEFAULT
   PCG_SEED         = not used


--------------------------------------------------------------------------------------------------------


 Static calculation
 charge density and potential will be updated during run
 non-spin polarized calculation
 Variant of blocked Davidson
 Davidson routine will perform the subspace rotation
 perform sub-space diagonalisation
    after iterative eigenvector-optimisation
 modified Broyden-mixing scheme, WC =      100.0
 initial mixing is a Kerker type mixing with AMIX =  0.4000 and BMIX =      1.0000
 Hartree-type preconditioning will be used
 using additional bands             4
 real space projection scheme for non local part
 calculate Harris-corrections to forces 
   (improved forces if not selfconsistent)
 use gradient corrections 
 use of overlap-Matrix (Vanderbilt PP)
 Gauss-broadening in eV      SIGMA  =   0.02


--------------------------------------------------------------------------------------------------------


  energy-cutoff  :      600.00
  volume of cell :       83.36
      direct lattice vectors                 reciprocal lattice vectors
     4.221464692  0.000000000  0.000000000     0.236884606  0.000000000  0.000000000
     0.000000000  4.443647044  0.000000000     0.000000000  0.225040376  0.000000000
     0.000000000  0.000000000  4.443647044     0.000000000  0.000000000  0.225040376

  length of vectors
     4.221464692  4.443647044  4.443647044     0.236884606  0.225040376  0.225040376


 
 k-points in units of 2pi/SCALE and weight: read from INCAR                         
   0.00000000  0.00000000  0.00000000       0.000
   0.01579231  0.00000000  0.00000000       0.001
   0.03158461  0.00000000  0.00000000       0.001
   0.04737692  0.00000000  0.00000000       0.001
   0.06316923  0.00000000  0.00000000       0.001
   0.07896154  0.00000000  0.00000000       0.001
   0.09475384  0.00000000  0.00000000       0.001
   0.11054615  0.00000000  0.00000000       0.001
   0.00000000  0.01500269  0.00000000       0.001
   0.00000000  0.00000000  0.01500269       0.001
   0.01579231  0.01500269  0.00000000       0.001
   0.01579231  0.00000000  0.01500269       0.001
   0.01579231  0.00000000 -0.01500269       0.001
   0.03158461  0.01500269  0.00000000       0.001
   0.03158461  0.00000000  0.01500269       0.001
   0.03158461  0.00000000 -0.01500269       0.001
   0.04737692  0.01500269  0.00000000       0.001
   0.04737692  0.00000000  0.01500269       0.001
   0.04737692  0.00000000 -0.01500269       0.001
   0.06316923  0.01500269  0.00000000       0.001
   0.06316923  0.00000000  0.01500269       0.001
   0.06316923  0.00000000 -0.01500269       0.001
   0.07896154  0.01500269  0.00000000       0.001
   0.07896154  0.00000000  0.01500269       0.001
   0.07896154  0.00000000 -0.01500269       0.001
   0.09475384  0.01500269  0.00000000       0.001
   0.09475384  0.00000000  0.01500269       0.001
   0.09475384  0.00000000 -0.01500269       0.001
   0.11054615  0.01500269  0.00000000       0.001
   0.11054615  0.00000000  0.01500269       0.001
   0.11054615  0.00000000 -0.01500269       0.001
   0.00000000  0.03000538  0.00000000       0.001
   0.00000000  0.00000000  0.03000538       0.001
   0.01579231  0.03000538  0.00000000       0.001
   0.01579231  0.00000000  0.03000538       0.001
   0.01579231  0.00000000 -0.03000538       0.001
   0.03158461  0.03000538  0.00000000       0.001
   0.03158461  0.00000000  0.03000538       0.001
   0.03158461  0.00000000 -0.03000538       0.001
   0.04737692  0.03000538  0.00000000       0.001
   0.04737692  0.00000000  0.03000538       0.001
   0.04737692  0.00000000 -0.03000538       0.001
   0.06316923  0.03000538  0.00000000       0.001
   0.06316923  0.00000000  0.03000538       0.001
   0.06316923  0.00000000 -0.03000538       0.001
   0.07896154  0.03000538  0.00000000       0.001
   0.07896154  0.00000000  0.03000538       0.001
   0.07896154  0.00000000 -0.03000538       0.001
   0.09475384  0.03000538  0.00000000       0.001
   0.09475384  0.00000000  0.03000538       0.001
   0.09475384  0.00000000 -0.03000538       0.001
   0.11054615  0.03000538  0.00000000       0.001
   0.11054615  0.00000000  0.03000538       0.001
   0.11054615  0.00000000 -0.03000538       0.001
   0.00000000  0.04500808  0.00000000       0.001
   0.00000000  0.00000000  0.04500808       0.001
   0.01579231  0.04500808  0.00000000       0.001
   0.01579231  0.00000000  0.04500808       0.001
   0.01579231  0.00000000 -0.04500808       0.001
   0.03158461  0.04500808  0.00000000       0.001
   0.03158461  0.00000000  0.04500808       0.001
   0.03158461  0.00000000 -0.04500808       0.001
   0.04737692  0.04500808  0.00000000       0.001
   0.04737692  0.00000000  0.04500808       0.001
   0.04737692  0.00000000 -0.04500808       0.001
   0.06316923  0.04500808  0.00000000       0.001
   0.06316923  0.00000000  0.04500808       0.001
   0.06316923  0.00000000 -0.04500808       0.001
   0.07896154  0.04500808  0.00000000       0.001
   0.07896154  0.00000000  0.04500808       0.001
   0.07896154  0.00000000 -0.04500808       0.001
   0.09475384  0.04500808  0.00000000       0.001
   0.09475384  0.00000000  0.04500808       0.001
   0.09475384  0.00000000 -0.04500808       0.001
   0.11054615  0.04500808  0.00000000       0.001
   0.11054615  0.00000000  0.04500808       0.001
   0.11054615  0.00000000 -0.04500808       0.001
   0.00000000  0.06001077  0.00000000       0.001
   0.00000000  0.00000000  0.06001077       0.001
   0.01579231  0.06001077  0.00000000       0.001
   0.01579231  0.00000000  0.06001077       0.001
   0.01579231  0.00000000 -0.06001077       0.001
   0.03158461  0.06001077  0.00000000       0.001
   0.03158461  0.00000000  0.06001077       0.001
   0.03158461  0.00000000 -0.06001077       0.001
   0.04737692  0.06001077  0.00000000       0.001
   0.04737692  0.00000000  0.06001077       0.001
   0.04737692  0.00000000 -0.06001077       0.001
   0.06316923  0.06001077  0.00000000       0.001
   0.06316923  0.00000000  0.06001077       0.001
   0.06316923  0.00000000 -0.06001077       0.001
   0.07896154  0.06001077  0.00000000       0.001
   0.07896154  0.00000000  0.06001077       0.001
   0.07896154  0.00000000 -0.06001077       0.001
   0.09475384  0.06001077  0.00000000       0.001
   0.09475384  0.00000000  0.06001077       0.001
   0.09475384  0.00000000 -0.06001077       0.001
   0.11054615  0.06001077  0.00000000       0.001
   0.11054615  0.00000000  0.06001077       0.001
   0.11054615  0.00000000 -0.06001077       0.001
   0.00000000  0.07501346  0.00000000       0.001
   0.00000000  0.00000000  0.07501346       0.001
   0.01579231  0.07501346  0.00000000       0.001
   0.01579231  0.00000000  0.07501346       0.001
   0.01579231  0.00000000 -0.07501346       0.001
   0.03158461  0.07501346  0.00000000       0.001
   0.03158461  0.00000000  0.07501346       0.001
   0.03158461  0.00000000 -0.07501346       0.001
   0.04737692  0.07501346  0.00000000       0.001
   0.04737692  0.00000000  0.07501346       0.001
   0.04737692  0.00000000 -0.07501346       0.001
   0.06316923  0.07501346  0.00000000       0.001
   0.06316923  0.00000000  0.07501346       0.001
   0.06316923  0.00000000 -0.07501346       0.001
   0.07896154  0.07501346  0.00000000       0.001
   0.07896154  0.00000000  0.07501346       0.001
   0.07896154  0.00000000 -0.07501346       0.001
   0.09475384  0.07501346  0.00000000       0.001
   0.09475384  0.00000000  0.07501346       0.001
   0.09475384  0.00000000 -0.07501346       0.001
   0.11054615  0.07501346  0.00000000       0.001
   0.11054615  0.00000000  0.07501346       0.001
   0.11054615  0.00000000 -0.07501346       0.001
   0.00000000  0.09001615  0.00000000       0.001
   0.00000000  0.00000000  0.09001615       0.001
   0.01579231  0.09001615  0.00000000       0.001
   0.01579231  0.00000000  0.09001615       0.001
   0.01579231  0.00000000 -0.09001615       0.001
   0.03158461  0.09001615  0.00000000       0.001
   0.03158461  0.00000000  0.09001615       0.001
   0.03158461  0.00000000 -0.09001615       0.001
   0.04737692  0.09001615  0.00000000       0.001
   0.04737692  0.00000000  0.09001615       0.001
   0.04737692  0.00000000 -0.09001615       0.001
   0.06316923  0.09001615  0.00000000       0.001
   0.06316923  0.00000000  0.09001615       0.001
   0.06316923  0.00000000 -0.09001615       0.001
   0.07896154  0.09001615  0.00000000       0.001
   0.07896154  0.00000000  0.09001615       0.001
   0.07896154  0.00000000 -0.09001615       0.001
   0.09475384  0.09001615  0.00000000       0.001
   0.09475384  0.00000000  0.09001615       0.001
   0.09475384  0.00000000 -0.09001615       0.001
   0.11054615  0.09001615  0.00000000       0.001
   0.11054615  0.00000000  0.09001615       0.001
   0.11054615  0.00000000 -0.09001615       0.001
   0.00000000  0.10501884  0.00000000       0.001
   0.00000000  0.00000000  0.10501884       0.001
   0.01579231  0.10501884  0.00000000       0.001
   0.01579231  0.00000000  0.10501884       0.001
   0.01579231  0.00000000 -0.10501884       0.001
   0.03158461  0.10501884  0.00000000       0.001
   0.03158461  0.00000000  0.10501884       0.001
   0.03158461  0.00000000 -0.10501884       0.001
   0.04737692  0.10501884  0.00000000       0.001
   0.04737692  0.00000000  0.10501884       0.001
   0.04737692  0.00000000 -0.10501884       0.001
   0.06316923  0.10501884  0.00000000       0.001
   0.06316923  0.00000000  0.10501884       0.001
   0.06316923  0.00000000 -0.10501884       0.001
   0.07896154  0.10501884  0.00000000       0.001
   0.07896154  0.00000000  0.10501884       0.001
   0.07896154  0.00000000 -0.10501884       0.001
   0.09475384  0.10501884  0.00000000       0.001
   0.09475384  0.00000000  0.10501884       0.001
   0.09475384  0.00000000 -0.10501884       0.001
   0.11054615  0.10501884  0.00000000       0.001
   0.11054615  0.00000000  0.10501884       0.001
   0.11054615  0.00000000 -0.10501884       0.001
   0.00000000  0.01500269  0.01500269       0.001
   0.01579231  0.01500269  0.01500269       0.001
   0.01579231 -0.01500269 -0.01500269       0.001
   0.03158461  0.01500269  0.01500269       0.001
   0.03158461 -0.01500269 -0.01500269       0.001
   0.04737692  0.01500269  0.01500269       0.001
   0.04737692 -0.01500269 -0.01500269       0.001
   0.06316923  0.01500269  0.01500269       0.001
   0.06316923 -0.01500269 -0.01500269       0.001
   0.07896154  0.01500269  0.01500269       0.001
   0.07896154 -0.01500269 -0.01500269       0.001
   0.09475384  0.01500269  0.01500269       0.001
   0.09475384 -0.01500269 -0.01500269       0.001
   0.11054615  0.01500269  0.01500269       0.001
   0.11054615 -0.01500269 -0.01500269       0.001
   0.00000000  0.03000538  0.01500269       0.001
   0.00000000 -0.01500269  0.03000538       0.001
   0.01579231  0.03000538  0.01500269       0.001
   0.01579231 -0.01500269  0.03000538       0.001
   0.01579231 -0.03000538 -0.01500269       0.001
   0.01579231  0.01500269 -0.03000538       0.001
   0.03158461  0.03000538  0.01500269       0.001
   0.03158461 -0.01500269  0.03000538       0.001
   0.03158461 -0.03000538 -0.01500269       0.001
   0.03158461  0.01500269 -0.03000538       0.001
   0.04737692  0.03000538  0.01500269       0.001
   0.04737692 -0.01500269  0.03000538       0.001
   0.04737692 -0.03000538 -0.01500269       0.001
   0.04737692  0.01500269 -0.03000538       0.001
   0.06316923  0.03000538  0.01500269       0.001
   0.06316923 -0.01500269  0.03000538       0.001
   0.06316923 -0.03000538 -0.01500269       0.001
   0.06316923  0.01500269 -0.03000538       0.001
   0.07896154  0.03000538  0.01500269       0.001
   0.07896154 -0.01500269  0.03000538       0.001
   0.07896154 -0.03000538 -0.01500269       0.001
   0.07896154  0.01500269 -0.03000538       0.001
   0.09475384  0.03000538  0.01500269       0.001
   0.09475384 -0.01500269  0.03000538       0.001
   0.09475384 -0.03000538 -0.01500269       0.001
   0.09475384  0.01500269 -0.03000538       0.001
   0.11054615  0.03000538  0.01500269       0.001
   0.11054615 -0.01500269  0.03000538       0.001
   0.11054615 -0.03000538 -0.01500269       0.001
   0.11054615  0.01500269 -0.03000538       0.001
   0.00000000  0.04500808  0.01500269       0.001
   0.00000000 -0.01500269  0.04500808       0.001
   0.01579231  0.04500808  0.01500269       0.001
   0.01579231 -0.01500269  0.04500808       0.001
   0.01579231 -0.04500808 -0.01500269       0.001
   0.01579231  0.01500269 -0.04500808       0.001
   0.03158461  0.04500808  0.01500269       0.001
   0.03158461 -0.01500269  0.04500808       0.001
   0.03158461 -0.04500808 -0.01500269       0.001
   0.03158461  0.01500269 -0.04500808       0.001
   0.04737692  0.04500808  0.01500269       0.001
   0.04737692 -0.01500269  0.04500808       0.001
   0.04737692 -0.04500808 -0.01500269       0.001
   0.04737692  0.01500269 -0.04500808       0.001
   0.06316923  0.04500808  0.01500269       0.001
   0.06316923 -0.01500269  0.04500808       0.001
   0.06316923 -0.04500808 -0.01500269       0.001
   0.06316923  0.01500269 -0.04500808       0.001
   0.07896154  0.04500808  0.01500269       0.001
   0.07896154 -0.01500269  0.04500808       0.001
   0.07896154 -0.04500808 -0.01500269       0.001
   0.07896154  0.01500269 -0.04500808       0.001
   0.09475384  0.04500808  0.01500269       0.001
   0.09475384 -0.01500269  0.04500808       0.001
   0.09475384 -0.04500808 -0.01500269       0.001
   0.09475384  0.01500269 -0.04500808       0.001
   0.11054615  0.04500808  0.01500269       0.001
   0.11054615 -0.01500269  0.04500808       0.001
   0.11054615 -0.04500808 -0.01500269       0.001
   0.11054615  0.01500269 -0.04500808       0.001
   0.00000000  0.06001077  0.01500269       0.001
   0.00000000 -0.01500269  0.06001077       0.001
   0.01579231  0.06001077  0.01500269       0.001
   0.01579231 -0.01500269  0.06001077       0.001
   0.01579231 -0.06001077 -0.01500269       0.001
   0.01579231  0.01500269 -0.06001077       0.001
   0.03158461  0.06001077  0.01500269       0.001
   0.03158461 -0.01500269  0.06001077       0.001
   0.03158461 -0.06001077 -0.01500269       0.001
   0.03158461  0.01500269 -0.06001077       0.001
   0.04737692  0.06001077  0.01500269       0.001
   0.04737692 -0.01500269  0.06001077       0.001
   0.04737692 -0.06001077 -0.01500269       0.001
   0.04737692  0.01500269 -0.06001077       0.001
   0.06316923  0.06001077  0.01500269       0.001
   0.06316923 -0.01500269  0.06001077       0.001
   0.06316923 -0.06001077 -0.01500269       0.001
   0.06316923  0.01500269 -0.06001077       0.001
   0.07896154  0.06001077  0.01500269       0.001
   0.07896154 -0.01500269  0.06001077       0.001
   0.07896154 -0.06001077 -0.01500269       0.001
   0.07896154  0.01500269 -0.06001077       0.001
   0.09475384  0.06001077  0.01500269       0.001
   0.09475384 -0.01500269  0.06001077       0.001
   0.09475384 -0.06001077 -0.01500269       0.001
   0.09475384  0.01500269 -0.06001077       0.001
   0.11054615  0.06001077  0.01500269       0.001
   0.11054615 -0.01500269  0.06001077       0.001
   0.11054615 -0.06001077 -0.01500269       0.001
   0.11054615  0.01500269 -0.06001077       0.001
   0.00000000  0.07501346  0.01500269       0.001
   0.00000000 -0.01500269  0.07501346       0.001
   0.01579231  0.07501346  0.01500269       0.001
   0.01579231 -0.01500269  0.07501346       0.001
   0.01579231 -0.07501346 -0.01500269       0.001
   0.01579231  0.01500269 -0.07501346       0.001
   0.03158461  0.07501346  0.01500269       0.001
   0.03158461 -0.01500269  0.07501346       0.001
   0.03158461 -0.07501346 -0.01500269       0.001
   0.03158461  0.01500269 -0.07501346       0.001
   0.04737692  0.07501346  0.01500269       0.001
   0.04737692 -0.01500269  0.07501346       0.001
   0.04737692 -0.07501346 -0.01500269       0.001
   0.04737692  0.01500269 -0.07501346       0.001
   0.06316923  0.07501346  0.01500269       0.001
   0.06316923 -0.01500269  0.07501346       0.001
   0.06316923 -0.07501346 -0.01500269       0.001
   0.06316923  0.01500269 -0.07501346       0.001
   0.07896154  0.07501346  0.01500269       0.001
   0.07896154 -0.01500269  0.07501346       0.001
   0.07896154 -0.07501346 -0.01500269       0.001
   0.07896154  0.01500269 -0.07501346       0.001
   0.09475384  0.07501346  0.01500269       0.001
   0.09475384 -0.01500269  0.07501346       0.001
   0.09475384 -0.07501346 -0.01500269       0.001
   0.09475384  0.01500269 -0.07501346       0.001
   0.11054615  0.07501346  0.01500269       0.001
   0.11054615 -0.01500269  0.07501346       0.001
   0.11054615 -0.07501346 -0.01500269       0.001
   0.11054615  0.01500269 -0.07501346       0.001
   0.00000000  0.09001615  0.01500269       0.001
   0.00000000 -0.01500269  0.09001615       0.001
   0.01579231  0.09001615  0.01500269       0.001
   0.01579231 -0.01500269  0.09001615       0.001
   0.01579231 -0.09001615 -0.01500269       0.001
   0.01579231  0.01500269 -0.09001615       0.001
   0.03158461  0.09001615  0.01500269       0.001
   0.03158461 -0.01500269  0.09001615       0.001
   0.03158461 -0.09001615 -0.01500269       0.001
   0.03158461  0.01500269 -0.09001615       0.001
   0.04737692  0.09001615  0.01500269       0.001
   0.04737692 -0.01500269  0.09001615       0.001
   0.04737692 -0.09001615 -0.01500269       0.001
   0.04737692  0.01500269 -0.09001615       0.001
   0.06316923  0.09001615  0.01500269       0.001
   0.06316923 -0.01500269  0.09001615       0.001
   0.06316923 -0.09001615 -0.01500269       0.001
   0.06316923  0.01500269 -0.09001615       0.001
   0.07896154  0.09001615  0.01500269       0.001
   0.07896154 -0.01500269  0.09001615       0.001
   0.07896154 -0.09001615 -0.01500269       0.001
   0.07896154  0.01500269 -0.09001615       0.001
   0.09475384  0.09001615  0.01500269       0.001
   0.09475384 -0.01500269  0.09001615       0.001
   0.09475384 -0.09001615 -0.01500269       0.001
   0.09475384  0.01500269 -0.09001615       0.001
   0.11054615  0.09001615  0.01500269       0.001
   0.11054615 -0.01500269  0.09001615       0.001
   0.11054615 -0.09001615 -0.01500269       0.001
   0.11054615  0.01500269 -0.09001615       0.001
   0.00000000  0.10501884  0.01500269       0.001
   0.00000000 -0.01500269  0.10501884       0.001
   0.01579231  0.10501884  0.01500269       0.001
   0.01579231 -0.01500269  0.10501884       0.001
   0.01579231 -0.10501884 -0.01500269       0.001
   0.01579231  0.01500269 -0.10501884       0.001
   0.03158461  0.10501884  0.01500269       0.001
   0.03158461 -0.01500269  0.10501884       0.001
   0.03158461 -0.10501884 -0.01500269       0.001
   0.03158461  0.01500269 -0.10501884       0.001
   0.04737692  0.10501884  0.01500269       0.001
   0.04737692 -0.01500269  0.10501884       0.001
   0.04737692 -0.10501884 -0.01500269       0.001
   0.04737692  0.01500269 -0.10501884       0.001
   0.06316923  0.10501884  0.01500269       0.001
   0.06316923 -0.01500269  0.10501884       0.001
   0.06316923 -0.10501884 -0.01500269       0.001
   0.06316923  0.01500269 -0.10501884       0.001
   0.07896154  0.10501884  0.01500269       0.001
   0.07896154 -0.01500269  0.10501884       0.001
   0.07896154 -0.10501884 -0.01500269       0.001
   0.07896154  0.01500269 -0.10501884       0.001
   0.09475384  0.10501884  0.01500269       0.001
   0.09475384 -0.01500269  0.10501884       0.001
   0.09475384 -0.10501884 -0.01500269       0.001
   0.09475384  0.01500269 -0.10501884       0.001
   0.11054615  0.10501884  0.01500269       0.001
   0.11054615 -0.01500269  0.10501884       0.001
   0.11054615 -0.10501884 -0.01500269       0.001
   0.11054615  0.01500269 -0.10501884       0.001
   0.00000000  0.03000538  0.03000538       0.001
   0.01579231  0.03000538  0.03000538       0.001
   0.01579231 -0.03000538 -0.03000538       0.001
   0.03158461  0.03000538  0.03000538       0.001
   0.03158461 -0.03000538 -0.03000538       0.001
   0.04737692  0.03000538  0.03000538       0.001
   0.04737692 -0.03000538 -0.03000538       0.001
   0.06316923  0.03000538  0.03000538       0.001
   0.06316923 -0.03000538 -0.03000538       0.001
   0.07896154  0.03000538  0.03000538       0.001
   0.07896154 -0.03000538 -0.03000538       0.001
   0.09475384  0.03000538  0.03000538       0.001
   0.09475384 -0.03000538 -0.03000538       0.001
   0.11054615  0.03000538  0.03000538       0.001
   0.11054615 -0.03000538 -0.03000538       0.001
   0.00000000  0.04500808  0.03000538       0.001
   0.00000000 -0.03000538  0.04500808       0.001
   0.01579231  0.04500808  0.03000538       0.001
   0.01579231 -0.03000538  0.04500808       0.001
   0.01579231 -0.04500808 -0.03000538       0.001
   0.01579231  0.03000538 -0.04500808       0.001
   0.03158461  0.04500808  0.03000538       0.001
   0.03158461 -0.03000538  0.04500808       0.001
   0.03158461 -0.04500808 -0.03000538       0.001
   0.03158461  0.03000538 -0.04500808       0.001
   0.04737692  0.04500808  0.03000538       0.001
   0.04737692 -0.03000538  0.04500808       0.001
   0.04737692 -0.04500808 -0.03000538       0.001
   0.04737692  0.03000538 -0.04500808       0.001
   0.06316923  0.04500808  0.03000538       0.001
   0.06316923 -0.03000538  0.04500808       0.001
   0.06316923 -0.04500808 -0.03000538       0.001
   0.06316923  0.03000538 -0.04500808       0.001
   0.07896154  0.04500808  0.03000538       0.001
   0.07896154 -0.03000538  0.04500808       0.001
   0.07896154 -0.04500808 -0.03000538       0.001
   0.07896154  0.03000538 -0.04500808       0.001
   0.09475384  0.04500808  0.03000538       0.001
   0.09475384 -0.03000538  0.04500808       0.001
   0.09475384 -0.04500808 -0.03000538       0.001
   0.09475384  0.03000538 -0.04500808       0.001
   0.11054615  0.04500808  0.03000538       0.001
   0.11054615 -0.03000538  0.04500808       0.001
   0.11054615 -0.04500808 -0.03000538       0.001
   0.11054615  0.03000538 -0.04500808       0.001
   0.00000000  0.06001077  0.03000538       0.001
   0.00000000 -0.03000538  0.06001077       0.001
   0.01579231  0.06001077  0.03000538       0.001
   0.01579231 -0.03000538  0.06001077       0.001
   0.01579231 -0.06001077 -0.03000538       0.001
   0.01579231  0.03000538 -0.06001077       0.001
   0.03158461  0.06001077  0.03000538       0.001
   0.03158461 -0.03000538  0.06001077       0.001
   0.03158461 -0.06001077 -0.03000538       0.001
   0.03158461  0.03000538 -0.06001077       0.001
   0.04737692  0.06001077  0.03000538       0.001
   0.04737692 -0.03000538  0.06001077       0.001
   0.04737692 -0.06001077 -0.03000538       0.001
   0.04737692  0.03000538 -0.06001077       0.001
   0.06316923  0.06001077  0.03000538       0.001
   0.06316923 -0.03000538  0.06001077       0.001
   0.06316923 -0.06001077 -0.03000538       0.001
   0.06316923  0.03000538 -0.06001077       0.001
   0.07896154  0.06001077  0.03000538       0.001
   0.07896154 -0.03000538  0.06001077       0.001
   0.07896154 -0.06001077 -0.03000538       0.001
   0.07896154  0.03000538 -0.06001077       0.001
   0.09475384  0.06001077  0.03000538       0.001
   0.09475384 -0.03000538  0.06001077       0.001
   0.09475384 -0.06001077 -0.03000538       0.001
   0.09475384  0.03000538 -0.06001077       0.001
   0.11054615  0.06001077  0.03000538       0.001
   0.11054615 -0.03000538  0.06001077       0.001
   0.11054615 -0.06001077 -0.03000538       0.001
   0.11054615  0.03000538 -0.06001077       0.001
   0.00000000  0.07501346  0.03000538       0.001
   0.00000000 -0.03000538  0.07501346       0.001
   0.01579231  0.07501346  0.03000538       0.001
   0.01579231 -0.03000538  0.07501346       0.001
   0.01579231 -0.07501346 -0.03000538       0.001
   0.01579231  0.03000538 -0.07501346       0.001
   0.03158461  0.07501346  0.03000538       0.001
   0.03158461 -0.03000538  0.07501346       0.001
   0.03158461 -0.07501346 -0.03000538       0.001
   0.03158461  0.03000538 -0.07501346       0.001
   0.04737692  0.07501346  0.03000538       0.001
   0.04737692 -0.03000538  0.07501346       0.001
   0.04737692 -0.07501346 -0.03000538       0.001
   0.04737692  0.03000538 -0.07501346       0.001
   0.06316923  0.07501346  0.03000538       0.001
   0.06316923 -0.03000538  0.07501346       0.001
   0.06316923 -0.07501346 -0.03000538       0.001
   0.06316923  0.03000538 -0.07501346       0.001
   0.07896154  0.07501346  0.03000538       0.001
   0.07896154 -0.03000538  0.07501346       0.001
   0.07896154 -0.07501346 -0.03000538       0.001
   0.07896154  0.03000538 -0.07501346       0.001
   0.09475384  0.07501346  0.03000538       0.001
   0.09475384 -0.03000538  0.07501346       0.001
   0.09475384 -0.07501346 -0.03000538       0.001
   0.09475384  0.03000538 -0.07501346       0.001
   0.11054615  0.07501346  0.03000538       0.001
   0.11054615 -0.03000538  0.07501346       0.001
   0.11054615 -0.07501346 -0.03000538       0.001
   0.11054615  0.03000538 -0.07501346       0.001
   0.00000000  0.09001615  0.03000538       0.001
   0.00000000 -0.03000538  0.09001615       0.001
   0.01579231  0.09001615  0.03000538       0.001
   0.01579231 -0.03000538  0.09001615       0.001
   0.01579231 -0.09001615 -0.03000538       0.001
   0.01579231  0.03000538 -0.09001615       0.001
   0.03158461  0.09001615  0.03000538       0.001
   0.03158461 -0.03000538  0.09001615       0.001
   0.03158461 -0.09001615 -0.03000538       0.001
   0.03158461  0.03000538 -0.09001615       0.001
   0.04737692  0.09001615  0.03000538       0.001
   0.04737692 -0.03000538  0.09001615       0.001
   0.04737692 -0.09001615 -0.03000538       0.001
   0.04737692  0.03000538 -0.09001615       0.001
   0.06316923  0.09001615  0.03000538       0.001
   0.06316923 -0.03000538  0.09001615       0.001
   0.06316923 -0.09001615 -0.03000538       0.001
   0.06316923  0.03000538 -0.09001615       0.001
   0.07896154  0.09001615  0.03000538       0.001
   0.07896154 -0.03000538  0.09001615       0.001
   0.07896154 -0.09001615 -0.03000538       0.001
   0.07896154  0.03000538 -0.09001615       0.001
   0.09475384  0.09001615  0.03000538       0.001
   0.09475384 -0.03000538  0.09001615       0.001
   0.09475384 -0.09001615 -0.03000538       0.001
   0.09475384  0.03000538 -0.09001615       0.001
   0.11054615  0.09001615  0.03000538       0.001
   0.11054615 -0.03000538  0.09001615       0.001
   0.11054615 -0.09001615 -0.03000538       0.001
   0.11054615  0.03000538 -0.09001615       0.001
   0.00000000  0.10501884  0.03000538       0.001
   0.00000000 -0.03000538  0.10501884       0.001
   0.01579231  0.10501884  0.03000538       0.001
   0.01579231 -0.03000538  0.10501884       0.001
   0.01579231 -0.10501884 -0.03000538       0.001
   0.01579231  0.03000538 -0.10501884       0.001
   0.03158461  0.10501884  0.03000538       0.001
   0.03158461 -0.03000538  0.10501884       0.001
   0.03158461 -0.10501884 -0.03000538       0.001
   0.03158461  0.03000538 -0.10501884       0.001
   0.04737692  0.10501884  0.03000538       0.001
   0.04737692 -0.03000538  0.10501884       0.001
   0.04737692 -0.10501884 -0.03000538       0.001
   0.04737692  0.03000538 -0.10501884       0.001
   0.06316923  0.10501884  0.03000538       0.001
   0.06316923 -0.03000538  0.10501884       0.001
   0.06316923 -0.10501884 -0.03000538       0.001
   0.06316923  0.03000538 -0.10501884       0.001
   0.07896154  0.10501884  0.03000538       0.001
   0.07896154 -0.03000538  0.10501884       0.001
   0.07896154 -0.10501884 -0.03000538       0.001
   0.07896154  0.03000538 -0.10501884       0.001
   0.09475384  0.10501884  0.03000538       0.001
   0.09475384 -0.03000538  0.10501884       0.001
   0.09475384 -0.10501884 -0.03000538       0.001
   0.09475384  0.03000538 -0.10501884       0.001
   0.11054615  0.10501884  0.03000538       0.001
   0.11054615 -0.03000538  0.10501884       0.001
   0.11054615 -0.10501884 -0.03000538       0.001
   0.11054615  0.03000538 -0.10501884       0.001
   0.00000000  0.04500808  0.04500808       0.001
   0.01579231  0.04500808  0.04500808       0.001
   0.01579231 -0.04500808 -0.04500808       0.001
   0.03158461  0.04500808  0.04500808       0.001
   0.03158461 -0.04500808 -0.04500808       0.001
   0.04737692  0.04500808  0.04500808       0.001
   0.04737692 -0.04500808 -0.04500808       0.001
   0.06316923  0.04500808  0.04500808       0.001
   0.06316923 -0.04500808 -0.04500808       0.001
   0.07896154  0.04500808  0.04500808       0.001
   0.07896154 -0.04500808 -0.04500808       0.001
   0.09475384  0.04500808  0.04500808       0.001
   0.09475384 -0.04500808 -0.04500808       0.001
   0.11054615  0.04500808  0.04500808       0.001
   0.11054615 -0.04500808 -0.04500808       0.001
   0.00000000  0.06001077  0.04500808       0.001
   0.00000000 -0.04500808  0.06001077       0.001
   0.01579231  0.06001077  0.04500808       0.001
   0.01579231 -0.04500808  0.06001077       0.001
   0.01579231 -0.06001077 -0.04500808       0.001
   0.01579231  0.04500808 -0.06001077       0.001
   0.03158461  0.06001077  0.04500808       0.001
   0.03158461 -0.04500808  0.06001077       0.001
   0.03158461 -0.06001077 -0.04500808       0.001
   0.03158461  0.04500808 -0.06001077       0.001
   0.04737692  0.06001077  0.04500808       0.001
   0.04737692 -0.04500808  0.06001077       0.001
   0.04737692 -0.06001077 -0.04500808       0.001
   0.04737692  0.04500808 -0.06001077       0.001
   0.06316923  0.06001077  0.04500808       0.001
   0.06316923 -0.04500808  0.06001077       0.001
   0.06316923 -0.06001077 -0.04500808       0.001
   0.06316923  0.04500808 -0.06001077       0.001
   0.07896154  0.06001077  0.04500808       0.001
   0.07896154 -0.04500808  0.06001077       0.001
   0.07896154 -0.06001077 -0.04500808       0.001
   0.07896154  0.04500808 -0.06001077       0.001
   0.09475384  0.06001077  0.04500808       0.001
   0.09475384 -0.04500808  0.06001077       0.001
   0.09475384 -0.06001077 -0.04500808       0.001
   0.09475384  0.04500808 -0.06001077       0.001
   0.11054615  0.06001077  0.04500808       0.001
   0.11054615 -0.04500808  0.06001077       0.001
   0.11054615 -0.06001077 -0.04500808       0.001
   0.11054615  0.04500808 -0.06001077       0.001
   0.00000000  0.07501346  0.04500808       0.001
   0.00000000 -0.04500808  0.07501346       0.001
   0.01579231  0.07501346  0.04500808       0.001
   0.01579231 -0.04500808  0.07501346       0.001
   0.01579231 -0.07501346 -0.04500808       0.001
   0.01579231  0.04500808 -0.07501346       0.001
   0.03158461  0.07501346  0.04500808       0.001
   0.03158461 -0.04500808  0.07501346       0.001
   0.03158461 -0.07501346 -0.04500808       0.001
   0.03158461  0.04500808 -0.07501346       0.001
   0.04737692  0.07501346  0.04500808       0.001
   0.04737692 -0.04500808  0.07501346       0.001
   0.04737692 -0.07501346 -0.04500808       0.001
   0.04737692  0.04500808 -0.07501346       0.001
   0.06316923  0.07501346  0.04500808       0.001
   0.06316923 -0.04500808  0.07501346       0.001
   0.06316923 -0.07501346 -0.04500808       0.001
   0.06316923  0.04500808 -0.07501346       0.001
   0.07896154  0.07501346  0.04500808       0.001
   0.07896154 -0.04500808  0.07501346       0.001
   0.07896154 -0.07501346 -0.04500808       0.001
   0.07896154  0.04500808 -0.07501346       0.001
   0.09475384  0.07501346  0.04500808       0.001
   0.09475384 -0.04500808  0.07501346       0.001
   0.09475384 -0.07501346 -0.04500808       0.001
   0.09475384  0.04500808 -0.07501346       0.001
   0.11054615  0.07501346  0.04500808       0.001
   0.11054615 -0.04500808  0.07501346       0.001
   0.11054615 -0.07501346 -0.04500808       0.001
   0.11054615  0.04500808 -0.07501346       0.001
   0.00000000  0.09001615  0.04500808       0.001
   0.00000000 -0.04500808  0.09001615       0.001
   0.01579231  0.09001615  0.04500808       0.001
   0.01579231 -0.04500808  0.09001615       0.001
   0.01579231 -0.09001615 -0.04500808       0.001
   0.01579231  0.04500808 -0.09001615       0.001
   0.03158461  0.09001615  0.04500808       0.001
   0.03158461 -0.04500808  0.09001615       0.001
   0.03158461 -0.09001615 -0.04500808       0.001
   0.03158461  0.04500808 -0.09001615       0.001
   0.04737692  0.09001615  0.04500808       0.001
   0.04737692 -0.04500808  0.09001615       0.001
   0.04737692 -0.09001615 -0.04500808       0.001
   0.04737692  0.04500808 -0.09001615       0.001
   0.06316923  0.09001615  0.04500808       0.001
   0.06316923 -0.04500808  0.09001615       0.001
   0.06316923 -0.09001615 -0.04500808       0.001
   0.06316923  0.04500808 -0.09001615       0.001
   0.07896154  0.09001615  0.04500808       0.001
   0.07896154 -0.04500808  0.09001615       0.001
   0.07896154 -0.09001615 -0.04500808       0.001
   0.07896154  0.04500808 -0.09001615       0.001
   0.09475384  0.09001615  0.04500808       0.001
   0.09475384 -0.04500808  0.09001615       0.001
   0.09475384 -0.09001615 -0.04500808       0.001
   0.09475384  0.04500808 -0.09001615       0.001
   0.11054615  0.09001615  0.04500808       0.001
   0.11054615 -0.04500808  0.09001615       0.001
   0.11054615 -0.09001615 -0.04500808       0.001
   0.11054615  0.04500808 -0.09001615       0.001
   0.00000000  0.10501884  0.04500808       0.001
   0.00000000 -0.04500808  0.10501884       0.001
   0.01579231  0.10501884  0.04500808       0.001
   0.01579231 -0.04500808  0.10501884       0.001
   0.01579231 -0.10501884 -0.04500808       0.001
   0.01579231  0.04500808 -0.10501884       0.001
   0.03158461  0.10501884  0.04500808       0.001
   0.03158461 -0.04500808  0.10501884       0.001
   0.03158461 -0.10501884 -0.04500808       0.001
   0.03158461  0.04500808 -0.10501884       0.001
   0.04737692  0.10501884  0.04500808       0.001
   0.04737692 -0.04500808  0.10501884       0.001
   0.04737692 -0.10501884 -0.04500808       0.001
   0.04737692  0.04500808 -0.10501884       0.001
   0.06316923  0.10501884  0.04500808       0.001
   0.06316923 -0.04500808  0.10501884       0.001
   0.06316923 -0.10501884 -0.04500808       0.001
   0.06316923  0.04500808 -0.10501884       0.001
   0.07896154  0.10501884  0.04500808       0.001
   0.07896154 -0.04500808  0.10501884       0.001
   0.07896154 -0.10501884 -0.04500808       0.001
   0.07896154  0.04500808 -0.10501884       0.001
   0.09475384  0.10501884  0.04500808       0.001
   0.09475384 -0.04500808  0.10501884       0.001
   0.09475384 -0.10501884 -0.04500808       0.001
   0.09475384  0.04500808 -0.10501884       0.001
   0.11054615  0.10501884  0.04500808       0.001
   0.11054615 -0.04500808  0.10501884       0.001
   0.11054615 -0.10501884 -0.04500808       0.001
   0.11054615  0.04500808 -0.10501884       0.001
   0.00000000  0.06001077  0.06001077       0.001
   0.01579231  0.06001077  0.06001077       0.001
   0.01579231 -0.06001077 -0.06001077       0.001
   0.03158461  0.06001077  0.06001077       0.001
   0.03158461 -0.06001077 -0.06001077       0.001
   0.04737692  0.06001077  0.06001077       0.001
   0.04737692 -0.06001077 -0.06001077       0.001
   0.06316923  0.06001077  0.06001077       0.001
   0.06316923 -0.06001077 -0.06001077       0.001
   0.07896154  0.06001077  0.06001077       0.001
   0.07896154 -0.06001077 -0.06001077       0.001
   0.09475384  0.06001077  0.06001077       0.001
   0.09475384 -0.06001077 -0.06001077       0.001
   0.11054615  0.06001077  0.06001077       0.001
   0.11054615 -0.06001077 -0.06001077       0.001
   0.00000000  0.07501346  0.06001077       0.001
   0.00000000 -0.06001077  0.07501346       0.001
   0.01579231  0.07501346  0.06001077       0.001
   0.01579231 -0.06001077  0.07501346       0.001
   0.01579231 -0.07501346 -0.06001077       0.001
   0.01579231  0.06001077 -0.07501346       0.001
   0.03158461  0.07501346  0.06001077       0.001
   0.03158461 -0.06001077  0.07501346       0.001
   0.03158461 -0.07501346 -0.06001077       0.001
   0.03158461  0.06001077 -0.07501346       0.001
   0.04737692  0.07501346  0.06001077       0.001
   0.04737692 -0.06001077  0.07501346       0.001
   0.04737692 -0.07501346 -0.06001077       0.001
   0.04737692  0.06001077 -0.07501346       0.001
   0.06316923  0.07501346  0.06001077       0.001
   0.06316923 -0.06001077  0.07501346       0.001
   0.06316923 -0.07501346 -0.06001077       0.001
   0.06316923  0.06001077 -0.07501346       0.001
   0.07896154  0.07501346  0.06001077       0.001
   0.07896154 -0.06001077  0.07501346       0.001
   0.07896154 -0.07501346 -0.06001077       0.001
   0.07896154  0.06001077 -0.07501346       0.001
   0.09475384  0.07501346  0.06001077       0.001
   0.09475384 -0.06001077  0.07501346       0.001
   0.09475384 -0.07501346 -0.06001077       0.001
   0.09475384  0.06001077 -0.07501346       0.001
   0.11054615  0.07501346  0.06001077       0.001
   0.11054615 -0.06001077  0.07501346       0.001
   0.11054615 -0.07501346 -0.06001077       0.001
   0.11054615  0.06001077 -0.07501346       0.001
   0.00000000  0.09001615  0.06001077       0.001
   0.00000000 -0.06001077  0.09001615       0.001
   0.01579231  0.09001615  0.06001077       0.001
   0.01579231 -0.06001077  0.09001615       0.001
   0.01579231 -0.09001615 -0.06001077       0.001
   0.01579231  0.06001077 -0.09001615       0.001
   0.03158461  0.09001615  0.06001077       0.001
   0.03158461 -0.06001077  0.09001615       0.001
   0.03158461 -0.09001615 -0.06001077       0.001
   0.03158461  0.06001077 -0.09001615       0.001
   0.04737692  0.09001615  0.06001077       0.001
   0.04737692 -0.06001077  0.09001615       0.001
   0.04737692 -0.09001615 -0.06001077       0.001
   0.04737692  0.06001077 -0.09001615       0.001
   0.06316923  0.09001615  0.06001077       0.001
   0.06316923 -0.06001077  0.09001615       0.001
   0.06316923 -0.09001615 -0.06001077       0.001
   0.06316923  0.06001077 -0.09001615       0.001
   0.07896154  0.09001615  0.06001077       0.001
   0.07896154 -0.06001077  0.09001615       0.001
   0.07896154 -0.09001615 -0.06001077       0.001
   0.07896154  0.06001077 -0.09001615       0.001
   0.09475384  0.09001615  0.06001077       0.001
   0.09475384 -0.06001077  0.09001615       0.001
   0.09475384 -0.09001615 -0.06001077       0.001
   0.09475384  0.06001077 -0.09001615       0.001
   0.11054615  0.09001615  0.06001077       0.001
   0.11054615 -0.06001077  0.09001615       0.001
   0.11054615 -0.09001615 -0.06001077       0.001
   0.11054615  0.06001077 -0.09001615       0.001
   0.00000000  0.10501884  0.06001077       0.001
   0.00000000 -0.06001077  0.10501884       0.001
   0.01579231  0.10501884  0.06001077       0.001
   0.01579231 -0.06001077  0.10501884       0.001
   0.01579231 -0.10501884 -0.06001077       0.001
   0.01579231  0.06001077 -0.10501884       0.001
   0.03158461  0.10501884  0.06001077       0.001
   0.03158461 -0.06001077  0.10501884       0.001
   0.03158461 -0.10501884 -0.06001077       0.001
   0.03158461  0.06001077 -0.10501884       0.001
   0.04737692  0.10501884  0.06001077       0.001
   0.04737692 -0.06001077  0.10501884       0.001
   0.04737692 -0.10501884 -0.06001077       0.001
   0.04737692  0.06001077 -0.10501884       0.001
   0.06316923  0.10501884  0.06001077       0.001
   0.06316923 -0.06001077  0.10501884       0.001
   0.06316923 -0.10501884 -0.06001077       0.001
   0.06316923  0.06001077 -0.10501884       0.001
   0.07896154  0.10501884  0.06001077       0.001
   0.07896154 -0.06001077  0.10501884       0.001
   0.07896154 -0.10501884 -0.06001077       0.001
   0.07896154  0.06001077 -0.10501884       0.001
   0.09475384  0.10501884  0.06001077       0.001
   0.09475384 -0.06001077  0.10501884       0.001
   0.09475384 -0.10501884 -0.06001077       0.001
   0.09475384  0.06001077 -0.10501884       0.001
   0.11054615  0.10501884  0.06001077       0.001
   0.11054615 -0.06001077  0.10501884       0.001
   0.11054615 -0.10501884 -0.06001077       0.001
   0.11054615  0.06001077 -0.10501884       0.001
   0.00000000  0.07501346  0.07501346       0.001
   0.01579231  0.07501346  0.07501346       0.001
   0.01579231 -0.07501346 -0.07501346       0.001
   0.03158461  0.07501346  0.07501346       0.001
   0.03158461 -0.07501346 -0.07501346       0.001
   0.04737692  0.07501346  0.07501346       0.001
   0.04737692 -0.07501346 -0.07501346       0.001
   0.06316923  0.07501346  0.07501346       0.001
   0.06316923 -0.07501346 -0.07501346       0.001
   0.07896154  0.07501346  0.07501346       0.001
   0.07896154 -0.07501346 -0.07501346       0.001
   0.09475384  0.07501346  0.07501346       0.001
   0.09475384 -0.07501346 -0.07501346       0.001
   0.11054615  0.07501346  0.07501346       0.001
   0.11054615 -0.07501346 -0.07501346       0.001
   0.00000000  0.09001615  0.07501346       0.001
   0.00000000 -0.07501346  0.09001615       0.001
   0.01579231  0.09001615  0.07501346       0.001
   0.01579231 -0.07501346  0.09001615       0.001
   0.01579231 -0.09001615 -0.07501346       0.001
   0.01579231  0.07501346 -0.09001615       0.001
   0.03158461  0.09001615  0.07501346       0.001
   0.03158461 -0.07501346  0.09001615       0.001
   0.03158461 -0.09001615 -0.07501346       0.001
   0.03158461  0.07501346 -0.09001615       0.001
   0.04737692  0.09001615  0.07501346       0.001
   0.04737692 -0.07501346  0.09001615       0.001
   0.04737692 -0.09001615 -0.07501346       0.001
   0.04737692  0.07501346 -0.09001615       0.001
   0.06316923  0.09001615  0.07501346       0.001
   0.06316923 -0.07501346  0.09001615       0.001
   0.06316923 -0.09001615 -0.07501346       0.001
   0.06316923  0.07501346 -0.09001615       0.001
   0.07896154  0.09001615  0.07501346       0.001
   0.07896154 -0.07501346  0.09001615       0.001
   0.07896154 -0.09001615 -0.07501346       0.001
   0.07896154  0.07501346 -0.09001615       0.001
   0.09475384  0.09001615  0.07501346       0.001
   0.09475384 -0.07501346  0.09001615       0.001
   0.09475384 -0.09001615 -0.07501346       0.001
   0.09475384  0.07501346 -0.09001615       0.001
   0.11054615  0.09001615  0.07501346       0.001
   0.11054615 -0.07501346  0.09001615       0.001
   0.11054615 -0.09001615 -0.07501346       0.001
   0.11054615  0.07501346 -0.09001615       0.001
   0.00000000  0.10501884  0.07501346       0.001
   0.00000000 -0.07501346  0.10501884       0.001
   0.01579231  0.10501884  0.07501346       0.001
   0.01579231 -0.07501346  0.10501884       0.001
   0.01579231 -0.10501884 -0.07501346       0.001
   0.01579231  0.07501346 -0.10501884       0.001
   0.03158461  0.10501884  0.07501346       0.001
   0.03158461 -0.07501346  0.10501884       0.001
   0.03158461 -0.10501884 -0.07501346       0.001
   0.03158461  0.07501346 -0.10501884       0.001
   0.04737692  0.10501884  0.07501346       0.001
   0.04737692 -0.07501346  0.10501884       0.001
   0.04737692 -0.10501884 -0.07501346       0.001
   0.04737692  0.07501346 -0.10501884       0.001
   0.06316923  0.10501884  0.07501346       0.001
   0.06316923 -0.07501346  0.10501884       0.001
   0.06316923 -0.10501884 -0.07501346       0.001
   0.06316923  0.07501346 -0.10501884       0.001
   0.07896154  0.10501884  0.07501346       0.001
   0.07896154 -0.07501346  0.10501884       0.001
   0.07896154 -0.10501884 -0.07501346       0.001
   0.07896154  0.07501346 -0.10501884       0.001
   0.09475384  0.10501884  0.07501346       0.001
   0.09475384 -0.07501346  0.10501884       0.001
   0.09475384 -0.10501884 -0.07501346       0.001
   0.09475384  0.07501346 -0.10501884       0.001
   0.11054615  0.10501884  0.07501346       0.001
   0.11054615 -0.07501346  0.10501884       0.001
   0.11054615 -0.10501884 -0.07501346       0.001
   0.11054615  0.07501346 -0.10501884       0.001
   0.00000000  0.09001615  0.09001615       0.001
   0.01579231  0.09001615  0.09001615       0.001
   0.01579231 -0.09001615 -0.09001615       0.001
   0.03158461  0.09001615  0.09001615       0.001
   0.03158461 -0.09001615 -0.09001615       0.001
   0.04737692  0.09001615  0.09001615       0.001
   0.04737692 -0.09001615 -0.09001615       0.001
   0.06316923  0.09001615  0.09001615       0.001
   0.06316923 -0.09001615 -0.09001615       0.001
   0.07896154  0.09001615  0.09001615       0.001
   0.07896154 -0.09001615 -0.09001615       0.001
   0.09475384  0.09001615  0.09001615       0.001
   0.09475384 -0.09001615 -0.09001615       0.001
   0.11054615  0.09001615  0.09001615       0.001
   0.11054615 -0.09001615 -0.09001615       0.001
   0.00000000  0.10501884  0.09001615       0.001
   0.00000000 -0.09001615  0.10501884       0.001
   0.01579231  0.10501884  0.09001615       0.001
   0.01579231 -0.09001615  0.10501884       0.001
   0.01579231 -0.10501884 -0.09001615       0.001
   0.01579231  0.09001615 -0.10501884       0.001
   0.03158461  0.10501884  0.09001615       0.001
   0.03158461 -0.09001615  0.10501884       0.001
   0.03158461 -0.10501884 -0.09001615       0.001
   0.03158461  0.09001615 -0.10501884       0.001
   0.04737692  0.10501884  0.09001615       0.001
   0.04737692 -0.09001615  0.10501884       0.001
   0.04737692 -0.10501884 -0.09001615       0.001
   0.04737692  0.09001615 -0.10501884       0.001
   0.06316923  0.10501884  0.09001615       0.001
   0.06316923 -0.09001615  0.10501884       0.001
   0.06316923 -0.10501884 -0.09001615       0.001
   0.06316923  0.09001615 -0.10501884       0.001
   0.07896154  0.10501884  0.09001615       0.001
   0.07896154 -0.09001615  0.10501884       0.001
   0.07896154 -0.10501884 -0.09001615       0.001
   0.07896154  0.09001615 -0.10501884       0.001
   0.09475384  0.10501884  0.09001615       0.001
   0.09475384 -0.09001615  0.10501884       0.001
   0.09475384 -0.10501884 -0.09001615       0.001
   0.09475384  0.09001615 -0.10501884       0.001
   0.11054615  0.10501884  0.09001615       0.001
   0.11054615 -0.09001615  0.10501884       0.001
   0.11054615 -0.10501884 -0.09001615       0.001
   0.11054615  0.09001615 -0.10501884       0.001
   0.00000000  0.10501884  0.10501884       0.001
   0.01579231  0.10501884  0.10501884       0.001
   0.01579231 -0.10501884 -0.10501884       0.001
   0.03158461  0.10501884  0.10501884       0.001
   0.03158461 -0.10501884 -0.10501884       0.001
   0.04737692  0.10501884  0.10501884       0.001
   0.04737692 -0.10501884 -0.10501884       0.001
   0.06316923  0.10501884  0.10501884       0.001
   0.06316923 -0.10501884 -0.10501884       0.001
   0.07896154  0.10501884  0.10501884       0.001
   0.07896154 -0.10501884 -0.10501884       0.001
   0.09475384  0.10501884  0.10501884       0.001
   0.09475384 -0.10501884 -0.10501884       0.001
   0.11054615  0.10501884  0.10501884       0.001
   0.11054615 -0.10501884 -0.10501884       0.001
 
 k-points in reciprocal lattice and weights: read from INCAR                         
   0.00000000  0.00000000  0.00000000       0.000
   0.06666667  0.00000000  0.00000000       0.001
   0.13333333  0.00000000  0.00000000       0.001
   0.20000000  0.00000000  0.00000000       0.001
   0.26666667  0.00000000  0.00000000       0.001
   0.33333333  0.00000000  0.00000000       0.001
   0.40000000  0.00000000  0.00000000       0.001
   0.46666667  0.00000000  0.00000000       0.001
   0.00000000  0.06666667  0.00000000       0.001
   0.00000000  0.00000000  0.06666667       0.001
   0.06666667  0.06666667  0.00000000       0.001
   0.06666667  0.00000000  0.06666667       0.001
   0.06666667  0.00000000 -0.06666667       0.001
   0.13333333  0.06666667  0.00000000       0.001
   0.13333333  0.00000000  0.06666667       0.001
   0.13333333  0.00000000 -0.06666667       0.001
   0.20000000  0.06666667  0.00000000       0.001
   0.20000000  0.00000000  0.06666667       0.001
   0.20000000  0.00000000 -0.06666667       0.001
   0.26666667  0.06666667  0.00000000       0.001
   0.26666667  0.00000000  0.06666667       0.001
   0.26666667  0.00000000 -0.06666667       0.001
   0.33333333  0.06666667  0.00000000       0.001
   0.33333333  0.00000000  0.06666667       0.001
   0.33333333  0.00000000 -0.06666667       0.001
   0.40000000  0.06666667  0.00000000       0.001
   0.40000000  0.00000000  0.06666667       0.001
   0.40000000  0.00000000 -0.06666667       0.001
   0.46666667  0.06666667  0.00000000       0.001
   0.46666667  0.00000000  0.06666667       0.001
   0.46666667  0.00000000 -0.06666667       0.001
   0.00000000  0.13333333  0.00000000       0.001
   0.00000000  0.00000000  0.13333333       0.001
   0.06666667  0.13333333  0.00000000       0.001
   0.06666667  0.00000000  0.13333333       0.001
   0.06666667  0.00000000 -0.13333333       0.001
   0.13333333  0.13333333  0.00000000       0.001
   0.13333333  0.00000000  0.13333333       0.001
   0.13333333  0.00000000 -0.13333333       0.001
   0.20000000  0.13333333  0.00000000       0.001
   0.20000000  0.00000000  0.13333333       0.001
   0.20000000  0.00000000 -0.13333333       0.001
   0.26666667  0.13333333  0.00000000       0.001
   0.26666667  0.00000000  0.13333333       0.001
   0.26666667  0.00000000 -0.13333333       0.001
   0.33333333  0.13333333  0.00000000       0.001
   0.33333333  0.00000000  0.13333333       0.001
   0.33333333  0.00000000 -0.13333333       0.001
   0.40000000  0.13333333  0.00000000       0.001
   0.40000000  0.00000000  0.13333333       0.001
   0.40000000  0.00000000 -0.13333333       0.001
   0.46666667  0.13333333  0.00000000       0.001
   0.46666667  0.00000000  0.13333333       0.001
   0.46666667  0.00000000 -0.13333333       0.001
   0.00000000  0.20000000  0.00000000       0.001
   0.00000000  0.00000000  0.20000000       0.001
   0.06666667  0.20000000  0.00000000       0.001
   0.06666667  0.00000000  0.20000000       0.001
   0.06666667  0.00000000 -0.20000000       0.001
   0.13333333  0.20000000  0.00000000       0.001
   0.13333333  0.00000000  0.20000000       0.001
   0.13333333  0.00000000 -0.20000000       0.001
   0.20000000  0.20000000  0.00000000       0.001
   0.20000000  0.00000000  0.20000000       0.001
   0.20000000  0.00000000 -0.20000000       0.001
   0.26666667  0.20000000  0.00000000       0.001
   0.26666667  0.00000000  0.20000000       0.001
   0.26666667  0.00000000 -0.20000000       0.001
   0.33333333  0.20000000  0.00000000       0.001
   0.33333333  0.00000000  0.20000000       0.001
   0.33333333  0.00000000 -0.20000000       0.001
   0.40000000  0.20000000  0.00000000       0.001
   0.40000000  0.00000000  0.20000000       0.001
   0.40000000  0.00000000 -0.20000000       0.001
   0.46666667  0.20000000  0.00000000       0.001
   0.46666667  0.00000000  0.20000000       0.001
   0.46666667  0.00000000 -0.20000000       0.001
   0.00000000  0.26666667  0.00000000       0.001
   0.00000000  0.00000000  0.26666667       0.001
   0.06666667  0.26666667  0.00000000       0.001
   0.06666667  0.00000000  0.26666667       0.001
   0.06666667  0.00000000 -0.26666667       0.001
   0.13333333  0.26666667  0.00000000       0.001
   0.13333333  0.00000000  0.26666667       0.001
   0.13333333  0.00000000 -0.26666667       0.001
   0.20000000  0.26666667  0.00000000       0.001
   0.20000000  0.00000000  0.26666667       0.001
   0.20000000  0.00000000 -0.26666667       0.001
   0.26666667  0.26666667  0.00000000       0.001
   0.26666667  0.00000000  0.26666667       0.001
   0.26666667  0.00000000 -0.26666667       0.001
   0.33333333  0.26666667  0.00000000       0.001
   0.33333333  0.00000000  0.26666667       0.001
   0.33333333  0.00000000 -0.26666667       0.001
   0.40000000  0.26666667  0.00000000       0.001
   0.40000000  0.00000000  0.26666667       0.001
   0.40000000  0.00000000 -0.26666667       0.001
   0.46666667  0.26666667  0.00000000       0.001
   0.46666667  0.00000000  0.26666667       0.001
   0.46666667  0.00000000 -0.26666667       0.001
   0.00000000  0.33333333  0.00000000       0.001
   0.00000000  0.00000000  0.33333333       0.001
   0.06666667  0.33333333  0.00000000       0.001
   0.06666667  0.00000000  0.33333333       0.001
   0.06666667  0.00000000 -0.33333333       0.001
   0.13333333  0.33333333  0.00000000       0.001
   0.13333333  0.00000000  0.33333333       0.001
   0.13333333  0.00000000 -0.33333333       0.001
   0.20000000  0.33333333  0.00000000       0.001
   0.20000000  0.00000000  0.33333333       0.001
   0.20000000  0.00000000 -0.33333333       0.001
   0.26666667  0.33333333  0.00000000       0.001
   0.26666667  0.00000000  0.33333333       0.001
   0.26666667  0.00000000 -0.33333333       0.001
   0.33333333  0.33333333  0.00000000       0.001
   0.33333333  0.00000000  0.33333333       0.001
   0.33333333  0.00000000 -0.33333333       0.001
   0.40000000  0.33333333  0.00000000       0.001
   0.40000000  0.00000000  0.33333333       0.001
   0.40000000  0.00000000 -0.33333333       0.001
   0.46666667  0.33333333  0.00000000       0.001
   0.46666667  0.00000000  0.33333333       0.001
   0.46666667  0.00000000 -0.33333333       0.001
   0.00000000  0.40000000  0.00000000       0.001
   0.00000000  0.00000000  0.40000000       0.001
   0.06666667  0.40000000  0.00000000       0.001
   0.06666667  0.00000000  0.40000000       0.001
   0.06666667  0.00000000 -0.40000000       0.001
   0.13333333  0.40000000  0.00000000       0.001
   0.13333333  0.00000000  0.40000000       0.001
   0.13333333  0.00000000 -0.40000000       0.001
   0.20000000  0.40000000  0.00000000       0.001
   0.20000000  0.00000000  0.40000000       0.001
   0.20000000  0.00000000 -0.40000000       0.001
   0.26666667  0.40000000  0.00000000       0.001
   0.26666667  0.00000000  0.40000000       0.001
   0.26666667  0.00000000 -0.40000000       0.001
   0.33333333  0.40000000  0.00000000       0.001
   0.33333333  0.00000000  0.40000000       0.001
   0.33333333  0.00000000 -0.40000000       0.001
   0.40000000  0.40000000  0.00000000       0.001
   0.40000000  0.00000000  0.40000000       0.001
   0.40000000  0.00000000 -0.40000000       0.001
   0.46666667  0.40000000  0.00000000       0.001
   0.46666667  0.00000000  0.40000000       0.001
   0.46666667  0.00000000 -0.40000000       0.001
   0.00000000  0.46666667  0.00000000       0.001
   0.00000000  0.00000000  0.46666667       0.001
   0.06666667  0.46666667  0.00000000       0.001
   0.06666667  0.00000000  0.46666667       0.001
   0.06666667  0.00000000 -0.46666667       0.001
   0.13333333  0.46666667  0.00000000       0.001
   0.13333333  0.00000000  0.46666667       0.001
   0.13333333  0.00000000 -0.46666667       0.001
   0.20000000  0.46666667  0.00000000       0.001
   0.20000000  0.00000000  0.46666667       0.001
   0.20000000  0.00000000 -0.46666667       0.001
   0.26666667  0.46666667  0.00000000       0.001
   0.26666667  0.00000000  0.46666667       0.001
   0.26666667  0.00000000 -0.46666667       0.001
   0.33333333  0.46666667  0.00000000       0.001
   0.33333333  0.00000000  0.46666667       0.001
   0.33333333  0.00000000 -0.46666667       0.001
   0.40000000  0.46666667  0.00000000       0.001
   0.40000000  0.00000000  0.46666667       0.001
   0.40000000  0.00000000 -0.46666667       0.001
   0.46666667  0.46666667  0.00000000       0.001
   0.46666667  0.00000000  0.46666667       0.001
   0.46666667  0.00000000 -0.46666667       0.001
   0.00000000  0.06666667  0.06666667       0.001
   0.06666667  0.06666667  0.06666667       0.001
   0.06666667 -0.06666667 -0.06666667       0.001
   0.13333333  0.06666667  0.06666667       0.001
   0.13333333 -0.06666667 -0.06666667       0.001
   0.20000000  0.06666667  0.06666667       0.001
   0.20000000 -0.06666667 -0.06666667       0.001
   0.26666667  0.06666667  0.06666667       0.001
   0.26666667 -0.06666667 -0.06666667       0.001
   0.33333333  0.06666667  0.06666667       0.001
   0.33333333 -0.06666667 -0.06666667       0.001
   0.40000000  0.06666667  0.06666667       0.001
   0.40000000 -0.06666667 -0.06666667       0.001
   0.46666667  0.06666667  0.06666667       0.001
   0.46666667 -0.06666667 -0.06666667       0.001
   0.00000000  0.13333333  0.06666667       0.001
   0.00000000 -0.06666667  0.13333333       0.001
   0.06666667  0.13333333  0.06666667       0.001
   0.06666667 -0.06666667  0.13333333       0.001
   0.06666667 -0.13333333 -0.06666667       0.001
   0.06666667  0.06666667 -0.13333333       0.001
   0.13333333  0.13333333  0.06666667       0.001
   0.13333333 -0.06666667  0.13333333       0.001
   0.13333333 -0.13333333 -0.06666667       0.001
   0.13333333  0.06666667 -0.13333333       0.001
   0.20000000  0.13333333  0.06666667       0.001
   0.20000000 -0.06666667  0.13333333       0.001
   0.20000000 -0.13333333 -0.06666667       0.001
   0.20000000  0.06666667 -0.13333333       0.001
   0.26666667  0.13333333  0.06666667       0.001
   0.26666667 -0.06666667  0.13333333       0.001
   0.26666667 -0.13333333 -0.06666667       0.001
   0.26666667  0.06666667 -0.13333333       0.001
   0.33333333  0.13333333  0.06666667       0.001
   0.33333333 -0.06666667  0.13333333       0.001
   0.33333333 -0.13333333 -0.06666667       0.001
   0.33333333  0.06666667 -0.13333333       0.001
   0.40000000  0.13333333  0.06666667       0.001
   0.40000000 -0.06666667  0.13333333       0.001
   0.40000000 -0.13333333 -0.06666667       0.001
   0.40000000  0.06666667 -0.13333333       0.001
   0.46666667  0.13333333  0.06666667       0.001
   0.46666667 -0.06666667  0.13333333       0.001
   0.46666667 -0.13333333 -0.06666667       0.001
   0.46666667  0.06666667 -0.13333333       0.001
   0.00000000  0.20000000  0.06666667       0.001
   0.00000000 -0.06666667  0.20000000       0.001
   0.06666667  0.20000000  0.06666667       0.001
   0.06666667 -0.06666667  0.20000000       0.001
   0.06666667 -0.20000000 -0.06666667       0.001
   0.06666667  0.06666667 -0.20000000       0.001
   0.13333333  0.20000000  0.06666667       0.001
   0.13333333 -0.06666667  0.20000000       0.001
   0.13333333 -0.20000000 -0.06666667       0.001
   0.13333333  0.06666667 -0.20000000       0.001
   0.20000000  0.20000000  0.06666667       0.001
   0.20000000 -0.06666667  0.20000000       0.001
   0.20000000 -0.20000000 -0.06666667       0.001
   0.20000000  0.06666667 -0.20000000       0.001
   0.26666667  0.20000000  0.06666667       0.001
   0.26666667 -0.06666667  0.20000000       0.001
   0.26666667 -0.20000000 -0.06666667       0.001
   0.26666667  0.06666667 -0.20000000       0.001
   0.33333333  0.20000000  0.06666667       0.001
   0.33333333 -0.06666667  0.20000000       0.001
   0.33333333 -0.20000000 -0.06666667       0.001
   0.33333333  0.06666667 -0.20000000       0.001
   0.40000000  0.20000000  0.06666667       0.001
   0.40000000 -0.06666667  0.20000000       0.001
   0.40000000 -0.20000000 -0.06666667       0.001
   0.40000000  0.06666667 -0.20000000       0.001
   0.46666667  0.20000000  0.06666667       0.001
   0.46666667 -0.06666667  0.20000000       0.001
   0.46666667 -0.20000000 -0.06666667       0.001
   0.46666667  0.06666667 -0.20000000       0.001
   0.00000000  0.26666667  0.06666667       0.001
   0.00000000 -0.06666667  0.26666667       0.001
   0.06666667  0.26666667  0.06666667       0.001
   0.06666667 -0.06666667  0.26666667       0.001
   0.06666667 -0.26666667 -0.06666667       0.001
   0.06666667  0.06666667 -0.26666667       0.001
   0.13333333  0.26666667  0.06666667       0.001
   0.13333333 -0.06666667  0.26666667       0.001
   0.13333333 -0.26666667 -0.06666667       0.001
   0.13333333  0.06666667 -0.26666667       0.001
   0.20000000  0.26666667  0.06666667       0.001
   0.20000000 -0.06666667  0.26666667       0.001
   0.20000000 -0.26666667 -0.06666667       0.001
   0.20000000  0.06666667 -0.26666667       0.001
   0.26666667  0.26666667  0.06666667       0.001
   0.26666667 -0.06666667  0.26666667       0.001
   0.26666667 -0.26666667 -0.06666667       0.001
   0.26666667  0.06666667 -0.26666667       0.001
   0.33333333  0.26666667  0.06666667       0.001
   0.33333333 -0.06666667  0.26666667       0.001
   0.33333333 -0.26666667 -0.06666667       0.001
   0.33333333  0.06666667 -0.26666667       0.001
   0.40000000  0.26666667  0.06666667       0.001
   0.40000000 -0.06666667  0.26666667       0.001
   0.40000000 -0.26666667 -0.06666667       0.001
   0.40000000  0.06666667 -0.26666667       0.001
   0.46666667  0.26666667  0.06666667       0.001
   0.46666667 -0.06666667  0.26666667       0.001
   0.46666667 -0.26666667 -0.06666667       0.001
   0.46666667  0.06666667 -0.26666667       0.001
   0.00000000  0.33333333  0.06666667       0.001
   0.00000000 -0.06666667  0.33333333       0.001
   0.06666667  0.33333333  0.06666667       0.001
   0.06666667 -0.06666667  0.33333333       0.001
   0.06666667 -0.33333333 -0.06666667       0.001
   0.06666667  0.06666667 -0.33333333       0.001
   0.13333333  0.33333333  0.06666667       0.001
   0.13333333 -0.06666667  0.33333333       0.001
   0.13333333 -0.33333333 -0.06666667       0.001
   0.13333333  0.06666667 -0.33333333       0.001
   0.20000000  0.33333333  0.06666667       0.001
   0.20000000 -0.06666667  0.33333333       0.001
   0.20000000 -0.33333333 -0.06666667       0.001
   0.20000000  0.06666667 -0.33333333       0.001
   0.26666667  0.33333333  0.06666667       0.001
   0.26666667 -0.06666667  0.33333333       0.001
   0.26666667 -0.33333333 -0.06666667       0.001
   0.26666667  0.06666667 -0.33333333       0.001
   0.33333333  0.33333333  0.06666667       0.001
   0.33333333 -0.06666667  0.33333333       0.001
   0.33333333 -0.33333333 -0.06666667       0.001
   0.33333333  0.06666667 -0.33333333       0.001
   0.40000000  0.33333333  0.06666667       0.001
   0.40000000 -0.06666667  0.33333333       0.001
   0.40000000 -0.33333333 -0.06666667       0.001
   0.40000000  0.06666667 -0.33333333       0.001
   0.46666667  0.33333333  0.06666667       0.001
   0.46666667 -0.06666667  0.33333333       0.001
   0.46666667 -0.33333333 -0.06666667       0.001
   0.46666667  0.06666667 -0.33333333       0.001
   0.00000000  0.40000000  0.06666667       0.001
   0.00000000 -0.06666667  0.40000000       0.001
   0.06666667  0.40000000  0.06666667       0.001
   0.06666667 -0.06666667  0.40000000       0.001
   0.06666667 -0.40000000 -0.06666667       0.001
   0.06666667  0.06666667 -0.40000000       0.001
   0.13333333  0.40000000  0.06666667       0.001
   0.13333333 -0.06666667  0.40000000       0.001
   0.13333333 -0.40000000 -0.06666667       0.001
   0.13333333  0.06666667 -0.40000000       0.001
   0.20000000  0.40000000  0.06666667       0.001
   0.20000000 -0.06666667  0.40000000       0.001
   0.20000000 -0.40000000 -0.06666667       0.001
   0.20000000  0.06666667 -0.40000000       0.001
   0.26666667  0.40000000  0.06666667       0.001
   0.26666667 -0.06666667  0.40000000       0.001
   0.26666667 -0.40000000 -0.06666667       0.001
   0.26666667  0.06666667 -0.40000000       0.001
   0.33333333  0.40000000  0.06666667       0.001
   0.33333333 -0.06666667  0.40000000       0.001
   0.33333333 -0.40000000 -0.06666667       0.001
   0.33333333  0.06666667 -0.40000000       0.001
   0.40000000  0.40000000  0.06666667       0.001
   0.40000000 -0.06666667  0.40000000       0.001
   0.40000000 -0.40000000 -0.06666667       0.001
   0.40000000  0.06666667 -0.40000000       0.001
   0.46666667  0.40000000  0.06666667       0.001
   0.46666667 -0.06666667  0.40000000       0.001
   0.46666667 -0.40000000 -0.06666667       0.001
   0.46666667  0.06666667 -0.40000000       0.001
   0.00000000  0.46666667  0.06666667       0.001
   0.00000000 -0.06666667  0.46666667       0.001
   0.06666667  0.46666667  0.06666667       0.001
   0.06666667 -0.06666667  0.46666667       0.001
   0.06666667 -0.46666667 -0.06666667       0.001
   0.06666667  0.06666667 -0.46666667       0.001
   0.13333333  0.46666667  0.06666667       0.001
   0.13333333 -0.06666667  0.46666667       0.001
   0.13333333 -0.46666667 -0.06666667       0.001
   0.13333333  0.06666667 -0.46666667       0.001
   0.20000000  0.46666667  0.06666667       0.001
   0.20000000 -0.06666667  0.46666667       0.001
   0.20000000 -0.46666667 -0.06666667       0.001
   0.20000000  0.06666667 -0.46666667       0.001
   0.26666667  0.46666667  0.06666667       0.001
   0.26666667 -0.06666667  0.46666667       0.001
   0.26666667 -0.46666667 -0.06666667       0.001
   0.26666667  0.06666667 -0.46666667       0.001
   0.33333333  0.46666667  0.06666667       0.001
   0.33333333 -0.06666667  0.46666667       0.001
   0.33333333 -0.46666667 -0.06666667       0.001
   0.33333333  0.06666667 -0.46666667       0.001
   0.40000000  0.46666667  0.06666667       0.001
   0.40000000 -0.06666667  0.46666667       0.001
   0.40000000 -0.46666667 -0.06666667       0.001
   0.40000000  0.06666667 -0.46666667       0.001
   0.46666667  0.46666667  0.06666667       0.001
   0.46666667 -0.06666667  0.46666667       0.001
   0.46666667 -0.46666667 -0.06666667       0.001
   0.46666667  0.06666667 -0.46666667       0.001
   0.00000000  0.13333333  0.13333333       0.001
   0.06666667  0.13333333  0.13333333       0.001
   0.06666667 -0.13333333 -0.13333333       0.001
   0.13333333  0.13333333  0.13333333       0.001
   0.13333333 -0.13333333 -0.13333333       0.001
   0.20000000  0.13333333  0.13333333       0.001
   0.20000000 -0.13333333 -0.13333333       0.001
   0.26666667  0.13333333  0.13333333       0.001
   0.26666667 -0.13333333 -0.13333333       0.001
   0.33333333  0.13333333  0.13333333       0.001
   0.33333333 -0.13333333 -0.13333333       0.001
   0.40000000  0.13333333  0.13333333       0.001
   0.40000000 -0.13333333 -0.13333333       0.001
   0.46666667  0.13333333  0.13333333       0.001
   0.46666667 -0.13333333 -0.13333333       0.001
   0.00000000  0.20000000  0.13333333       0.001
   0.00000000 -0.13333333  0.20000000       0.001
   0.06666667  0.20000000  0.13333333       0.001
   0.06666667 -0.13333333  0.20000000       0.001
   0.06666667 -0.20000000 -0.13333333       0.001
   0.06666667  0.13333333 -0.20000000       0.001
   0.13333333  0.20000000  0.13333333       0.001
   0.13333333 -0.13333333  0.20000000       0.001
   0.13333333 -0.20000000 -0.13333333       0.001
   0.13333333  0.13333333 -0.20000000       0.001
   0.20000000  0.20000000  0.13333333       0.001
   0.20000000 -0.13333333  0.20000000       0.001
   0.20000000 -0.20000000 -0.13333333       0.001
   0.20000000  0.13333333 -0.20000000       0.001
   0.26666667  0.20000000  0.13333333       0.001
   0.26666667 -0.13333333  0.20000000       0.001
   0.26666667 -0.20000000 -0.13333333       0.001
   0.26666667  0.13333333 -0.20000000       0.001
   0.33333333  0.20000000  0.13333333       0.001
   0.33333333 -0.13333333  0.20000000       0.001
   0.33333333 -0.20000000 -0.13333333       0.001
   0.33333333  0.13333333 -0.20000000       0.001
   0.40000000  0.20000000  0.13333333       0.001
   0.40000000 -0.13333333  0.20000000       0.001
   0.40000000 -0.20000000 -0.13333333       0.001
   0.40000000  0.13333333 -0.20000000       0.001
   0.46666667  0.20000000  0.13333333       0.001
   0.46666667 -0.13333333  0.20000000       0.001
   0.46666667 -0.20000000 -0.13333333       0.001
   0.46666667  0.13333333 -0.20000000       0.001
   0.00000000  0.26666667  0.13333333       0.001
   0.00000000 -0.13333333  0.26666667       0.001
   0.06666667  0.26666667  0.13333333       0.001
   0.06666667 -0.13333333  0.26666667       0.001
   0.06666667 -0.26666667 -0.13333333       0.001
   0.06666667  0.13333333 -0.26666667       0.001
   0.13333333  0.26666667  0.13333333       0.001
   0.13333333 -0.13333333  0.26666667       0.001
   0.13333333 -0.26666667 -0.13333333       0.001
   0.13333333  0.13333333 -0.26666667       0.001
   0.20000000  0.26666667  0.13333333       0.001
   0.20000000 -0.13333333  0.26666667       0.001
   0.20000000 -0.26666667 -0.13333333       0.001
   0.20000000  0.13333333 -0.26666667       0.001
   0.26666667  0.26666667  0.13333333       0.001
   0.26666667 -0.13333333  0.26666667       0.001
   0.26666667 -0.26666667 -0.13333333       0.001
   0.26666667  0.13333333 -0.26666667       0.001
   0.33333333  0.26666667  0.13333333       0.001
   0.33333333 -0.13333333  0.26666667       0.001
   0.33333333 -0.26666667 -0.13333333       0.001
   0.33333333  0.13333333 -0.26666667       0.001
   0.40000000  0.26666667  0.13333333       0.001
   0.40000000 -0.13333333  0.26666667       0.001
   0.40000000 -0.26666667 -0.13333333       0.001
   0.40000000  0.13333333 -0.26666667       0.001
   0.46666667  0.26666667  0.13333333       0.001
   0.46666667 -0.13333333  0.26666667       0.001
   0.46666667 -0.26666667 -0.13333333       0.001
   0.46666667  0.13333333 -0.26666667       0.001
   0.00000000  0.33333333  0.13333333       0.001
   0.00000000 -0.13333333  0.33333333       0.001
   0.06666667  0.33333333  0.13333333       0.001
   0.06666667 -0.13333333  0.33333333       0.001
   0.06666667 -0.33333333 -0.13333333       0.001
   0.06666667  0.13333333 -0.33333333       0.001
   0.13333333  0.33333333  0.13333333       0.001
   0.13333333 -0.13333333  0.33333333       0.001
   0.13333333 -0.33333333 -0.13333333       0.001
   0.13333333  0.13333333 -0.33333333       0.001
   0.20000000  0.33333333  0.13333333       0.001
   0.20000000 -0.13333333  0.33333333       0.001
   0.20000000 -0.33333333 -0.13333333       0.001
   0.20000000  0.13333333 -0.33333333       0.001
   0.26666667  0.33333333  0.13333333       0.001
   0.26666667 -0.13333333  0.33333333       0.001
   0.26666667 -0.33333333 -0.13333333       0.001
   0.26666667  0.13333333 -0.33333333       0.001
   0.33333333  0.33333333  0.13333333       0.001
   0.33333333 -0.13333333  0.33333333       0.001
   0.33333333 -0.33333333 -0.13333333       0.001
   0.33333333  0.13333333 -0.33333333       0.001
   0.40000000  0.33333333  0.13333333       0.001
   0.40000000 -0.13333333  0.33333333       0.001
   0.40000000 -0.33333333 -0.13333333       0.001
   0.40000000  0.13333333 -0.33333333       0.001
   0.46666667  0.33333333  0.13333333       0.001
   0.46666667 -0.13333333  0.33333333       0.001
   0.46666667 -0.33333333 -0.13333333       0.001
   0.46666667  0.13333333 -0.33333333       0.001
   0.00000000  0.40000000  0.13333333       0.001
   0.00000000 -0.13333333  0.40000000       0.001
   0.06666667  0.40000000  0.13333333       0.001
   0.06666667 -0.13333333  0.40000000       0.001
   0.06666667 -0.40000000 -0.13333333       0.001
   0.06666667  0.13333333 -0.40000000       0.001
   0.13333333  0.40000000  0.13333333       0.001
   0.13333333 -0.13333333  0.40000000       0.001
   0.13333333 -0.40000000 -0.13333333       0.001
   0.13333333  0.13333333 -0.40000000       0.001
   0.20000000  0.40000000  0.13333333       0.001
   0.20000000 -0.13333333  0.40000000       0.001
   0.20000000 -0.40000000 -0.13333333       0.001
   0.20000000  0.13333333 -0.40000000       0.001
   0.26666667  0.40000000  0.13333333       0.001
   0.26666667 -0.13333333  0.40000000       0.001
   0.26666667 -0.40000000 -0.13333333       0.001
   0.26666667  0.13333333 -0.40000000       0.001
   0.33333333  0.40000000  0.13333333       0.001
   0.33333333 -0.13333333  0.40000000       0.001
   0.33333333 -0.40000000 -0.13333333       0.001
   0.33333333  0.13333333 -0.40000000       0.001
   0.40000000  0.40000000  0.13333333       0.001
   0.40000000 -0.13333333  0.40000000       0.001
   0.40000000 -0.40000000 -0.13333333       0.001
   0.40000000  0.13333333 -0.40000000       0.001
   0.46666667  0.40000000  0.13333333       0.001
   0.46666667 -0.13333333  0.40000000       0.001
   0.46666667 -0.40000000 -0.13333333       0.001
   0.46666667  0.13333333 -0.40000000       0.001
   0.00000000  0.46666667  0.13333333       0.001
   0.00000000 -0.13333333  0.46666667       0.001
   0.06666667  0.46666667  0.13333333       0.001
   0.06666667 -0.13333333  0.46666667       0.001
   0.06666667 -0.46666667 -0.13333333       0.001
   0.06666667  0.13333333 -0.46666667       0.001
   0.13333333  0.46666667  0.13333333       0.001
   0.13333333 -0.13333333  0.46666667       0.001
   0.13333333 -0.46666667 -0.13333333       0.001
   0.13333333  0.13333333 -0.46666667       0.001
   0.20000000  0.46666667  0.13333333       0.001
   0.20000000 -0.13333333  0.46666667       0.001
   0.20000000 -0.46666667 -0.13333333       0.001
   0.20000000  0.13333333 -0.46666667       0.001
   0.26666667  0.46666667  0.13333333       0.001
   0.26666667 -0.13333333  0.46666667       0.001
   0.26666667 -0.46666667 -0.13333333       0.001
   0.26666667  0.13333333 -0.46666667       0.001
   0.33333333  0.46666667  0.13333333       0.001
   0.33333333 -0.13333333  0.46666667       0.001
   0.33333333 -0.46666667 -0.13333333       0.001
   0.33333333  0.13333333 -0.46666667       0.001
   0.40000000  0.46666667  0.13333333       0.001
   0.40000000 -0.13333333  0.46666667       0.001
   0.40000000 -0.46666667 -0.13333333       0.001
   0.40000000  0.13333333 -0.46666667       0.001
   0.46666667  0.46666667  0.13333333       0.001
   0.46666667 -0.13333333  0.46666667       0.001
   0.46666667 -0.46666667 -0.13333333       0.001
   0.46666667  0.13333333 -0.46666667       0.001
   0.00000000  0.20000000  0.20000000       0.001
   0.06666667  0.20000000  0.20000000       0.001
   0.06666667 -0.20000000 -0.20000000       0.001
   0.13333333  0.20000000  0.20000000       0.001
   0.13333333 -0.20000000 -0.20000000       0.001
   0.20000000  0.20000000  0.20000000       0.001
   0.20000000 -0.20000000 -0.20000000       0.001
   0.26666667  0.20000000  0.20000000       0.001
   0.26666667 -0.20000000 -0.20000000       0.001
   0.33333333  0.20000000  0.20000000       0.001
   0.33333333 -0.20000000 -0.20000000       0.001
   0.40000000  0.20000000  0.20000000       0.001
   0.40000000 -0.20000000 -0.20000000       0.001
   0.46666667  0.20000000  0.20000000       0.001
   0.46666667 -0.20000000 -0.20000000       0.001
   0.00000000  0.26666667  0.20000000       0.001
   0.00000000 -0.20000000  0.26666667       0.001
   0.06666667  0.26666667  0.20000000       0.001
   0.06666667 -0.20000000  0.26666667       0.001
   0.06666667 -0.26666667 -0.20000000       0.001
   0.06666667  0.20000000 -0.26666667       0.001
   0.13333333  0.26666667  0.20000000       0.001
   0.13333333 -0.20000000  0.26666667       0.001
   0.13333333 -0.26666667 -0.20000000       0.001
   0.13333333  0.20000000 -0.26666667       0.001
   0.20000000  0.26666667  0.20000000       0.001
   0.20000000 -0.20000000  0.26666667       0.001
   0.20000000 -0.26666667 -0.20000000       0.001
   0.20000000  0.20000000 -0.26666667       0.001
   0.26666667  0.26666667  0.20000000       0.001
   0.26666667 -0.20000000  0.26666667       0.001
   0.26666667 -0.26666667 -0.20000000       0.001
   0.26666667  0.20000000 -0.26666667       0.001
   0.33333333  0.26666667  0.20000000       0.001
   0.33333333 -0.20000000  0.26666667       0.001
   0.33333333 -0.26666667 -0.20000000       0.001
   0.33333333  0.20000000 -0.26666667       0.001
   0.40000000  0.26666667  0.20000000       0.001
   0.40000000 -0.20000000  0.26666667       0.001
   0.40000000 -0.26666667 -0.20000000       0.001
   0.40000000  0.20000000 -0.26666667       0.001
   0.46666667  0.26666667  0.20000000       0.001
   0.46666667 -0.20000000  0.26666667       0.001
   0.46666667 -0.26666667 -0.20000000       0.001
   0.46666667  0.20000000 -0.26666667       0.001
   0.00000000  0.33333333  0.20000000       0.001
   0.00000000 -0.20000000  0.33333333       0.001
   0.06666667  0.33333333  0.20000000       0.001
   0.06666667 -0.20000000  0.33333333       0.001
   0.06666667 -0.33333333 -0.20000000       0.001
   0.06666667  0.20000000 -0.33333333       0.001
   0.13333333  0.33333333  0.20000000       0.001
   0.13333333 -0.20000000  0.33333333       0.001
   0.13333333 -0.33333333 -0.20000000       0.001
   0.13333333  0.20000000 -0.33333333       0.001
   0.20000000  0.33333333  0.20000000       0.001
   0.20000000 -0.20000000  0.33333333       0.001
   0.20000000 -0.33333333 -0.20000000       0.001
   0.20000000  0.20000000 -0.33333333       0.001
   0.26666667  0.33333333  0.20000000       0.001
   0.26666667 -0.20000000  0.33333333       0.001
   0.26666667 -0.33333333 -0.20000000       0.001
   0.26666667  0.20000000 -0.33333333       0.001
   0.33333333  0.33333333  0.20000000       0.001
   0.33333333 -0.20000000  0.33333333       0.001
   0.33333333 -0.33333333 -0.20000000       0.001
   0.33333333  0.20000000 -0.33333333       0.001
   0.40000000  0.33333333  0.20000000       0.001
   0.40000000 -0.20000000  0.33333333       0.001
   0.40000000 -0.33333333 -0.20000000       0.001
   0.40000000  0.20000000 -0.33333333       0.001
   0.46666667  0.33333333  0.20000000       0.001
   0.46666667 -0.20000000  0.33333333       0.001
   0.46666667 -0.33333333 -0.20000000       0.001
   0.46666667  0.20000000 -0.33333333       0.001
   0.00000000  0.40000000  0.20000000       0.001
   0.00000000 -0.20000000  0.40000000       0.001
   0.06666667  0.40000000  0.20000000       0.001
   0.06666667 -0.20000000  0.40000000       0.001
   0.06666667 -0.40000000 -0.20000000       0.001
   0.06666667  0.20000000 -0.40000000       0.001
   0.13333333  0.40000000  0.20000000       0.001
   0.13333333 -0.20000000  0.40000000       0.001
   0.13333333 -0.40000000 -0.20000000       0.001
   0.13333333  0.20000000 -0.40000000       0.001
   0.20000000  0.40000000  0.20000000       0.001
   0.20000000 -0.20000000  0.40000000       0.001
   0.20000000 -0.40000000 -0.20000000       0.001
   0.20000000  0.20000000 -0.40000000       0.001
   0.26666667  0.40000000  0.20000000       0.001
   0.26666667 -0.20000000  0.40000000       0.001
   0.26666667 -0.40000000 -0.20000000       0.001
   0.26666667  0.20000000 -0.40000000       0.001
   0.33333333  0.40000000  0.20000000       0.001
   0.33333333 -0.20000000  0.40000000       0.001
   0.33333333 -0.40000000 -0.20000000       0.001
   0.33333333  0.20000000 -0.40000000       0.001
   0.40000000  0.40000000  0.20000000       0.001
   0.40000000 -0.20000000  0.40000000       0.001
   0.40000000 -0.40000000 -0.20000000       0.001
   0.40000000  0.20000000 -0.40000000       0.001
   0.46666667  0.40000000  0.20000000       0.001
   0.46666667 -0.20000000  0.40000000       0.001
   0.46666667 -0.40000000 -0.20000000       0.001
   0.46666667  0.20000000 -0.40000000       0.001
   0.00000000  0.46666667  0.20000000       0.001
   0.00000000 -0.20000000  0.46666667       0.001
   0.06666667  0.46666667  0.20000000       0.001
   0.06666667 -0.20000000  0.46666667       0.001
   0.06666667 -0.46666667 -0.20000000       0.001
   0.06666667  0.20000000 -0.46666667       0.001
   0.13333333  0.46666667  0.20000000       0.001
   0.13333333 -0.20000000  0.46666667       0.001
   0.13333333 -0.46666667 -0.20000000       0.001
   0.13333333  0.20000000 -0.46666667       0.001
   0.20000000  0.46666667  0.20000000       0.001
   0.20000000 -0.20000000  0.46666667       0.001
   0.20000000 -0.46666667 -0.20000000       0.001
   0.20000000  0.20000000 -0.46666667       0.001
   0.26666667  0.46666667  0.20000000       0.001
   0.26666667 -0.20000000  0.46666667       0.001
   0.26666667 -0.46666667 -0.20000000       0.001
   0.26666667  0.20000000 -0.46666667       0.001
   0.33333333  0.46666667  0.20000000       0.001
   0.33333333 -0.20000000  0.46666667       0.001
   0.33333333 -0.46666667 -0.20000000       0.001
   0.33333333  0.20000000 -0.46666667       0.001
   0.40000000  0.46666667  0.20000000       0.001
   0.40000000 -0.20000000  0.46666667       0.001
   0.40000000 -0.46666667 -0.20000000       0.001
   0.40000000  0.20000000 -0.46666667       0.001
   0.46666667  0.46666667  0.20000000       0.001
   0.46666667 -0.20000000  0.46666667       0.001
   0.46666667 -0.46666667 -0.20000000       0.001
   0.46666667  0.20000000 -0.46666667       0.001
   0.00000000  0.26666667  0.26666667       0.001
   0.06666667  0.26666667  0.26666667       0.001
   0.06666667 -0.26666667 -0.26666667       0.001
   0.13333333  0.26666667  0.26666667       0.001
   0.13333333 -0.26666667 -0.26666667       0.001
   0.20000000  0.26666667  0.26666667       0.001
   0.20000000 -0.26666667 -0.26666667       0.001
   0.26666667  0.26666667  0.26666667       0.001
   0.26666667 -0.26666667 -0.26666667       0.001
   0.33333333  0.26666667  0.26666667       0.001
   0.33333333 -0.26666667 -0.26666667       0.001
   0.40000000  0.26666667  0.26666667       0.001
   0.40000000 -0.26666667 -0.26666667       0.001
   0.46666667  0.26666667  0.26666667       0.001
   0.46666667 -0.26666667 -0.26666667       0.001
   0.00000000  0.33333333  0.26666667       0.001
   0.00000000 -0.26666667  0.33333333       0.001
   0.06666667  0.33333333  0.26666667       0.001
   0.06666667 -0.26666667  0.33333333       0.001
   0.06666667 -0.33333333 -0.26666667       0.001
   0.06666667  0.26666667 -0.33333333       0.001
   0.13333333  0.33333333  0.26666667       0.001
   0.13333333 -0.26666667  0.33333333       0.001
   0.13333333 -0.33333333 -0.26666667       0.001
   0.13333333  0.26666667 -0.33333333       0.001
   0.20000000  0.33333333  0.26666667       0.001
   0.20000000 -0.26666667  0.33333333       0.001
   0.20000000 -0.33333333 -0.26666667       0.001
   0.20000000  0.26666667 -0.33333333       0.001
   0.26666667  0.33333333  0.26666667       0.001
   0.26666667 -0.26666667  0.33333333       0.001
   0.26666667 -0.33333333 -0.26666667       0.001
   0.26666667  0.26666667 -0.33333333       0.001
   0.33333333  0.33333333  0.26666667       0.001
   0.33333333 -0.26666667  0.33333333       0.001
   0.33333333 -0.33333333 -0.26666667       0.001
   0.33333333  0.26666667 -0.33333333       0.001
   0.40000000  0.33333333  0.26666667       0.001
   0.40000000 -0.26666667  0.33333333       0.001
   0.40000000 -0.33333333 -0.26666667       0.001
   0.40000000  0.26666667 -0.33333333       0.001
   0.46666667  0.33333333  0.26666667       0.001
   0.46666667 -0.26666667  0.33333333       0.001
   0.46666667 -0.33333333 -0.26666667       0.001
   0.46666667  0.26666667 -0.33333333       0.001
   0.00000000  0.40000000  0.26666667       0.001
   0.00000000 -0.26666667  0.40000000       0.001
   0.06666667  0.40000000  0.26666667       0.001
   0.06666667 -0.26666667  0.40000000       0.001
   0.06666667 -0.40000000 -0.26666667       0.001
   0.06666667  0.26666667 -0.40000000       0.001
   0.13333333  0.40000000  0.26666667       0.001
   0.13333333 -0.26666667  0.40000000       0.001
   0.13333333 -0.40000000 -0.26666667       0.001
   0.13333333  0.26666667 -0.40000000       0.001
   0.20000000  0.40000000  0.26666667       0.001
   0.20000000 -0.26666667  0.40000000       0.001
   0.20000000 -0.40000000 -0.26666667       0.001
   0.20000000  0.26666667 -0.40000000       0.001
   0.26666667  0.40000000  0.26666667       0.001
   0.26666667 -0.26666667  0.40000000       0.001
   0.26666667 -0.40000000 -0.26666667       0.001
   0.26666667  0.26666667 -0.40000000       0.001
   0.33333333  0.40000000  0.26666667       0.001
   0.33333333 -0.26666667  0.40000000       0.001
   0.33333333 -0.40000000 -0.26666667       0.001
   0.33333333  0.26666667 -0.40000000       0.001
   0.40000000  0.40000000  0.26666667       0.001
   0.40000000 -0.26666667  0.40000000       0.001
   0.40000000 -0.40000000 -0.26666667       0.001
   0.40000000  0.26666667 -0.40000000       0.001
   0.46666667  0.40000000  0.26666667       0.001
   0.46666667 -0.26666667  0.40000000       0.001
   0.46666667 -0.40000000 -0.26666667       0.001
   0.46666667  0.26666667 -0.40000000       0.001
   0.00000000  0.46666667  0.26666667       0.001
   0.00000000 -0.26666667  0.46666667       0.001
   0.06666667  0.46666667  0.26666667       0.001
   0.06666667 -0.26666667  0.46666667       0.001
   0.06666667 -0.46666667 -0.26666667       0.001
   0.06666667  0.26666667 -0.46666667       0.001
   0.13333333  0.46666667  0.26666667       0.001
   0.13333333 -0.26666667  0.46666667       0.001
   0.13333333 -0.46666667 -0.26666667       0.001
   0.13333333  0.26666667 -0.46666667       0.001
   0.20000000  0.46666667  0.26666667       0.001
   0.20000000 -0.26666667  0.46666667       0.001
   0.20000000 -0.46666667 -0.26666667       0.001
   0.20000000  0.26666667 -0.46666667       0.001
   0.26666667  0.46666667  0.26666667       0.001
   0.26666667 -0.26666667  0.46666667       0.001
   0.26666667 -0.46666667 -0.26666667       0.001
   0.26666667  0.26666667 -0.46666667       0.001
   0.33333333  0.46666667  0.26666667       0.001
   0.33333333 -0.26666667  0.46666667       0.001
   0.33333333 -0.46666667 -0.26666667       0.001
   0.33333333  0.26666667 -0.46666667       0.001
   0.40000000  0.46666667  0.26666667       0.001
   0.40000000 -0.26666667  0.46666667       0.001
   0.40000000 -0.46666667 -0.26666667       0.001
   0.40000000  0.26666667 -0.46666667       0.001
   0.46666667  0.46666667  0.26666667       0.001
   0.46666667 -0.26666667  0.46666667       0.001
   0.46666667 -0.46666667 -0.26666667       0.001
   0.46666667  0.26666667 -0.46666667       0.001
   0.00000000  0.33333333  0.33333333       0.001
   0.06666667  0.33333333  0.33333333       0.001
   0.06666667 -0.33333333 -0.33333333       0.001
   0.13333333  0.33333333  0.33333333       0.001
   0.13333333 -0.33333333 -0.33333333       0.001
   0.20000000  0.33333333  0.33333333       0.001
   0.20000000 -0.33333333 -0.33333333       0.001
   0.26666667  0.33333333  0.33333333       0.001
   0.26666667 -0.33333333 -0.33333333       0.001
   0.33333333  0.33333333  0.33333333       0.001
   0.33333333 -0.33333333 -0.33333333       0.001
   0.40000000  0.33333333  0.33333333       0.001
   0.40000000 -0.33333333 -0.33333333       0.001
   0.46666667  0.33333333  0.33333333       0.001
   0.46666667 -0.33333333 -0.33333333       0.001
   0.00000000  0.40000000  0.33333333       0.001
   0.00000000 -0.33333333  0.40000000       0.001
   0.06666667  0.40000000  0.33333333       0.001
   0.06666667 -0.33333333  0.40000000       0.001
   0.06666667 -0.40000000 -0.33333333       0.001
   0.06666667  0.33333333 -0.40000000       0.001
   0.13333333  0.40000000  0.33333333       0.001
   0.13333333 -0.33333333  0.40000000       0.001
   0.13333333 -0.40000000 -0.33333333       0.001
   0.13333333  0.33333333 -0.40000000       0.001
   0.20000000  0.40000000  0.33333333       0.001
   0.20000000 -0.33333333  0.40000000       0.001
   0.20000000 -0.40000000 -0.33333333       0.001
   0.20000000  0.33333333 -0.40000000       0.001
   0.26666667  0.40000000  0.33333333       0.001
   0.26666667 -0.33333333  0.40000000       0.001
   0.26666667 -0.40000000 -0.33333333       0.001
   0.26666667  0.33333333 -0.40000000       0.001
   0.33333333  0.40000000  0.33333333       0.001
   0.33333333 -0.33333333  0.40000000       0.001
   0.33333333 -0.40000000 -0.33333333       0.001
   0.33333333  0.33333333 -0.40000000       0.001
   0.40000000  0.40000000  0.33333333       0.001
   0.40000000 -0.33333333  0.40000000       0.001
   0.40000000 -0.40000000 -0.33333333       0.001
   0.40000000  0.33333333 -0.40000000       0.001
   0.46666667  0.40000000  0.33333333       0.001
   0.46666667 -0.33333333  0.40000000       0.001
   0.46666667 -0.40000000 -0.33333333       0.001
   0.46666667  0.33333333 -0.40000000       0.001
   0.00000000  0.46666667  0.33333333       0.001
   0.00000000 -0.33333333  0.46666667       0.001
   0.06666667  0.46666667  0.33333333       0.001
   0.06666667 -0.33333333  0.46666667       0.001
   0.06666667 -0.46666667 -0.33333333       0.001
   0.06666667  0.33333333 -0.46666667       0.001
   0.13333333  0.46666667  0.33333333       0.001
   0.13333333 -0.33333333  0.46666667       0.001
   0.13333333 -0.46666667 -0.33333333       0.001
   0.13333333  0.33333333 -0.46666667       0.001
   0.20000000  0.46666667  0.33333333       0.001
   0.20000000 -0.33333333  0.46666667       0.001
   0.20000000 -0.46666667 -0.33333333       0.001
   0.20000000  0.33333333 -0.46666667       0.001
   0.26666667  0.46666667  0.33333333       0.001
   0.26666667 -0.33333333  0.46666667       0.001
   0.26666667 -0.46666667 -0.33333333       0.001
   0.26666667  0.33333333 -0.46666667       0.001
   0.33333333  0.46666667  0.33333333       0.001
   0.33333333 -0.33333333  0.46666667       0.001
   0.33333333 -0.46666667 -0.33333333       0.001
   0.33333333  0.33333333 -0.46666667       0.001
   0.40000000  0.46666667  0.33333333       0.001
   0.40000000 -0.33333333  0.46666667       0.001
   0.40000000 -0.46666667 -0.33333333       0.001
   0.40000000  0.33333333 -0.46666667       0.001
   0.46666667  0.46666667  0.33333333       0.001
   0.46666667 -0.33333333  0.46666667       0.001
   0.46666667 -0.46666667 -0.33333333       0.001
   0.46666667  0.33333333 -0.46666667       0.001
   0.00000000  0.40000000  0.40000000       0.001
   0.06666667  0.40000000  0.40000000       0.001
   0.06666667 -0.40000000 -0.40000000       0.001
   0.13333333  0.40000000  0.40000000       0.001
   0.13333333 -0.40000000 -0.40000000       0.001
   0.20000000  0.40000000  0.40000000       0.001
   0.20000000 -0.40000000 -0.40000000       0.001
   0.26666667  0.40000000  0.40000000       0.001
   0.26666667 -0.40000000 -0.40000000       0.001
   0.33333333  0.40000000  0.40000000       0.001
   0.33333333 -0.40000000 -0.40000000       0.001
   0.40000000  0.40000000  0.40000000       0.001
   0.40000000 -0.40000000 -0.40000000       0.001
   0.46666667  0.40000000  0.40000000       0.001
   0.46666667 -0.40000000 -0.40000000       0.001
   0.00000000  0.46666667  0.40000000       0.001
   0.00000000 -0.40000000  0.46666667       0.001
   0.06666667  0.46666667  0.40000000       0.001
   0.06666667 -0.40000000  0.46666667       0.001
   0.06666667 -0.46666667 -0.40000000       0.001
   0.06666667  0.40000000 -0.46666667       0.001
   0.13333333  0.46666667  0.40000000       0.001
   0.13333333 -0.40000000  0.46666667       0.001
   0.13333333 -0.46666667 -0.40000000       0.001
   0.13333333  0.40000000 -0.46666667       0.001
   0.20000000  0.46666667  0.40000000       0.001
   0.20000000 -0.40000000  0.46666667       0.001
   0.20000000 -0.46666667 -0.40000000       0.001
   0.20000000  0.40000000 -0.46666667       0.001
   0.26666667  0.46666667  0.40000000       0.001
   0.26666667 -0.40000000  0.46666667       0.001
   0.26666667 -0.46666667 -0.40000000       0.001
   0.26666667  0.40000000 -0.46666667       0.001
   0.33333333  0.46666667  0.40000000       0.001
   0.33333333 -0.40000000  0.46666667       0.001
   0.33333333 -0.46666667 -0.40000000       0.001
   0.33333333  0.40000000 -0.46666667       0.001
   0.40000000  0.46666667  0.40000000       0.001
   0.40000000 -0.40000000  0.46666667       0.001
   0.40000000 -0.46666667 -0.40000000       0.001
   0.40000000  0.40000000 -0.46666667       0.001
   0.46666667  0.46666667  0.40000000       0.001
   0.46666667 -0.40000000  0.46666667       0.001
   0.46666667 -0.46666667 -0.40000000       0.001
   0.46666667  0.40000000 -0.46666667       0.001
   0.00000000  0.46666667  0.46666667       0.001
   0.06666667  0.46666667  0.46666667       0.001
   0.06666667 -0.46666667 -0.46666667       0.001
   0.13333333  0.46666667  0.46666667       0.001
   0.13333333 -0.46666667 -0.46666667       0.001
   0.20000000  0.46666667  0.46666667       0.001
   0.20000000 -0.46666667 -0.46666667       0.001
   0.26666667  0.46666667  0.46666667       0.001
   0.26666667 -0.46666667 -0.46666667       0.001
   0.33333333  0.46666667  0.46666667       0.001
   0.33333333 -0.46666667 -0.46666667       0.001
   0.40000000  0.46666667  0.46666667       0.001
   0.40000000 -0.46666667 -0.46666667       0.001
   0.46666667  0.46666667  0.46666667       0.001
   0.46666667 -0.46666667 -0.46666667       0.001
 
 position of ions in fractional coordinates (direct lattice) 
   0.92049427  0.12553045  0.62553045
   0.39417848  0.37446955  0.37446955
   0.13213731  0.62553045  0.87446955
   0.65845310  0.87446955  0.12553045
 
 position of ions in cartesian coordinates  (Angst):
   3.88583404  0.55781300  2.77963653
   1.66401052  1.66401052  1.66401052
   0.55781300  2.77963653  3.88583404
   2.77963653  3.88583404  0.55781300
 


--------------------------------------------------------------------------------------------------------


 k-point     1 :   0.0000 0.0000 0.0000  plane waves:    2777
 k-point     2 :   0.0667 0.0000 0.0000  plane waves:    2789
 k-point     3 :   0.1333 0.0000 0.0000  plane waves:    2793
 k-point     4 :   0.2000 0.0000 0.0000  plane waves:    2789
 k-point     5 :   0.2667 0.0000 0.0000  plane waves:    2781
 k-point     6 :   0.3333 0.0000 0.0000  plane waves:    2769
 k-point     7 :   0.4000 0.0000 0.0000  plane waves:    2761
 k-point     8 :   0.4667 0.0000 0.0000  plane waves:    2748
 k-point     9 :   0.0000 0.0667 0.0000  plane waves:    2767
 k-point    10 :   0.0000 0.0000 0.0667  plane waves:    2767
 k-point    11 :   0.0667 0.0667 0.0000  plane waves:    2779
 k-point    12 :   0.0667 0.0000 0.0667  plane waves:    2779
 k-point    13 :   0.0667 0.0000-0.0667  plane waves:    2779
 k-point    14 :   0.1333 0.0667 0.0000  plane waves:    2792
 k-point    15 :   0.1333 0.0000 0.0667  plane waves:    2792
 k-point    16 :   0.1333 0.0000-0.0667  plane waves:    2792
 k-point    17 :   0.2000 0.0667 0.0000  plane waves:    2782
 k-point    18 :   0.2000 0.0000 0.0667  plane waves:    2782
 k-point    19 :   0.2000 0.0000-0.0667  plane waves:    2782
 k-point    20 :   0.2667 0.0667 0.0000  plane waves:    2779
 k-point    21 :   0.2667 0.0000 0.0667  plane waves:    2779
 k-point    22 :   0.2667 0.0000-0.0667  plane waves:    2779
 k-point    23 :   0.3333 0.0667 0.0000  plane waves:    2770
 k-point    24 :   0.3333 0.0000 0.0667  plane waves:    2770
 k-point    25 :   0.3333 0.0000-0.0667  plane waves:    2770
 k-point    26 :   0.4000 0.0667 0.0000  plane waves:    2766
 k-point    27 :   0.4000 0.0000 0.0667  plane waves:    2766
 k-point    28 :   0.4000 0.0000-0.0667  plane waves:    2766
 k-point    29 :   0.4667 0.0667 0.0000  plane waves:    2756
 k-point    30 :   0.4667 0.0000 0.0667  plane waves:    2756
 k-point    31 :   0.4667 0.0000-0.0667  plane waves:    2756
 k-point    32 :   0.0000 0.1333 0.0000  plane waves:    2774
 k-point    33 :   0.0000 0.0000 0.1333  plane waves:    2774
 k-point    34 :   0.0667 0.1333 0.0000  plane waves:    2773
 k-point    35 :   0.0667 0.0000 0.1333  plane waves:    2773
 k-point    36 :   0.0667 0.0000-0.1333  plane waves:    2773
 k-point    37 :   0.1333 0.1333 0.0000  plane waves:    2785
 k-point    38 :   0.1333 0.0000 0.1333  plane waves:    2785
 k-point    39 :   0.1333 0.0000-0.1333  plane waves:    2785
 k-point    40 :   0.2000 0.1333 0.0000  plane waves:    2780
 k-point    41 :   0.2000 0.0000 0.1333  plane waves:    2780
 k-point    42 :   0.2000 0.0000-0.1333  plane waves:    2780
 k-point    43 :   0.2667 0.1333 0.0000  plane waves:    2785
 k-point    44 :   0.2667 0.0000 0.1333  plane waves:    2785
 k-point    45 :   0.2667 0.0000-0.1333  plane waves:    2785
 k-point    46 :   0.3333 0.1333 0.0000  plane waves:    2782
 k-point    47 :   0.3333 0.0000 0.1333  plane waves:    2782
 k-point    48 :   0.3333 0.0000-0.1333  plane waves:    2782
 k-point    49 :   0.4000 0.1333 0.0000  plane waves:    2779
 k-point    50 :   0.4000 0.0000 0.1333  plane waves:    2779
 k-point    51 :   0.4000 0.0000-0.1333  plane waves:    2779
 k-point    52 :   0.4667 0.1333 0.0000  plane waves:    2762
 k-point    53 :   0.4667 0.0000 0.1333  plane waves:    2762
 k-point    54 :   0.4667 0.0000-0.1333  plane waves:    2762
 k-point    55 :   0.0000 0.2000 0.0000  plane waves:    2782
 k-point    56 :   0.0000 0.0000 0.2000  plane waves:    2782
 k-point    57 :   0.0667 0.2000 0.0000  plane waves:    2781
 k-point    58 :   0.0667 0.0000 0.2000  plane waves:    2781
 k-point    59 :   0.0667 0.0000-0.2000  plane waves:    2781
 k-point    60 :   0.1333 0.2000 0.0000  plane waves:    2784
 k-point    61 :   0.1333 0.0000 0.2000  plane waves:    2784
 k-point    62 :   0.1333 0.0000-0.2000  plane waves:    2784
 k-point    63 :   0.2000 0.2000 0.0000  plane waves:    2787
 k-point    64 :   0.2000 0.0000 0.2000  plane waves:    2787
 k-point    65 :   0.2000 0.0000-0.2000  plane waves:    2787
 k-point    66 :   0.2667 0.2000 0.0000  plane waves:    2781
 k-point    67 :   0.2667 0.0000 0.2000  plane waves:    2781
 k-point    68 :   0.2667 0.0000-0.2000  plane waves:    2781
 k-point    69 :   0.3333 0.2000 0.0000  plane waves:    2777
 k-point    70 :   0.3333 0.0000 0.2000  plane waves:    2777
 k-point    71 :   0.3333 0.0000-0.2000  plane waves:    2777
 k-point    72 :   0.4000 0.2000 0.0000  plane waves:    2781
 k-point    73 :   0.4000 0.0000 0.2000  plane waves:    2781
 k-point    74 :   0.4000 0.0000-0.2000  plane waves:    2781
 k-point    75 :   0.4667 0.2000 0.0000  plane waves:    2784
 k-point    76 :   0.4667 0.0000 0.2000  plane waves:    2784
 k-point    77 :   0.4667 0.0000-0.2000  plane waves:    2784
 k-point    78 :   0.0000 0.2667 0.0000  plane waves:    2772
 k-point    79 :   0.0000 0.0000 0.2667  plane waves:    2772
 k-point    80 :   0.0667 0.2667 0.0000  plane waves:    2780
 k-point    81 :   0.0667 0.0000 0.2667  plane waves:    2780
 k-point    82 :   0.0667 0.0000-0.2667  plane waves:    2780
 k-point    83 :   0.1333 0.2667 0.0000  plane waves:    2788
 k-point    84 :   0.1333 0.0000 0.2667  plane waves:    2788
 k-point    85 :   0.1333 0.0000-0.2667  plane waves:    2788
 k-point    86 :   0.2000 0.2667 0.0000  plane waves:    2778
 k-point    87 :   0.2000 0.0000 0.2667  plane waves:    2778
 k-point    88 :   0.2000 0.0000-0.2667  plane waves:    2778
 k-point    89 :   0.2667 0.2667 0.0000  plane waves:    2781
 k-point    90 :   0.2667 0.0000 0.2667  plane waves:    2781
 k-point    91 :   0.2667 0.0000-0.2667  plane waves:    2781
 k-point    92 :   0.3333 0.2667 0.0000  plane waves:    2782
 k-point    93 :   0.3333 0.0000 0.2667  plane waves:    2782
 k-point    94 :   0.3333 0.0000-0.2667  plane waves:    2782
 k-point    95 :   0.4000 0.2667 0.0000  plane waves:    2789
 k-point    96 :   0.4000 0.0000 0.2667  plane waves:    2789
 k-point    97 :   0.4000 0.0000-0.2667  plane waves:    2789
 k-point    98 :   0.4667 0.2667 0.0000  plane waves:    2782
 k-point    99 :   0.4667 0.0000 0.2667  plane waves:    2782
 k-point   100 :   0.4667 0.0000-0.2667  plane waves:    2782
 k-point   101 :   0.0000 0.3333 0.0000  plane waves:    2788
 k-point   102 :   0.0000 0.0000 0.3333  plane waves:    2788
 k-point   103 :   0.0667 0.3333 0.0000  plane waves:    2785
 k-point   104 :   0.0667 0.0000 0.3333  plane waves:    2785
 k-point   105 :   0.0667 0.0000-0.3333  plane waves:    2785
 k-point   106 :   0.1333 0.3333 0.0000  plane waves:    2775
 k-point   107 :   0.1333 0.0000 0.3333  plane waves:    2775
 k-point   108 :   0.1333 0.0000-0.3333  plane waves:    2775
 k-point   109 :   0.2000 0.3333 0.0000  plane waves:    2773
 k-point   110 :   0.2000 0.0000 0.3333  plane waves:    2773
 k-point   111 :   0.2000 0.0000-0.3333  plane waves:    2773
 k-point   112 :   0.2667 0.3333 0.0000  plane waves:    2778
 k-point   113 :   0.2667 0.0000 0.3333  plane waves:    2778
 k-point   114 :   0.2667 0.0000-0.3333  plane waves:    2778
 k-point   115 :   0.3333 0.3333 0.0000  plane waves:    2778
 k-point   116 :   0.3333 0.0000 0.3333  plane waves:    2778
 k-point   117 :   0.3333 0.0000-0.3333  plane waves:    2778
 k-point   118 :   0.4000 0.3333 0.0000  plane waves:    2778
 k-point   119 :   0.4000 0.0000 0.3333  plane waves:    2778
 k-point   120 :   0.4000 0.0000-0.3333  plane waves:    2778
 k-point   121 :   0.4667 0.3333 0.0000  plane waves:    2783
 k-point   122 :   0.4667 0.0000 0.3333  plane waves:    2783
 k-point   123 :   0.4667 0.0000-0.3333  plane waves:    2783
 k-point   124 :   0.0000 0.4000 0.0000  plane waves:    2794
 k-point   125 :   0.0000 0.0000 0.4000  plane waves:    2794
 k-point   126 :   0.0667 0.4000 0.0000  plane waves:    2787
 k-point   127 :   0.0667 0.0000 0.4000  plane waves:    2787
 k-point   128 :   0.0667 0.0000-0.4000  plane waves:    2787
 k-point   129 :   0.1333 0.4000 0.0000  plane waves:    2779
 k-point   130 :   0.1333 0.0000 0.4000  plane waves:    2779
 k-point   131 :   0.1333 0.0000-0.4000  plane waves:    2779
 k-point   132 :   0.2000 0.4000 0.0000  plane waves:    2774
 k-point   133 :   0.2000 0.0000 0.4000  plane waves:    2774
 k-point   134 :   0.2000 0.0000-0.4000  plane waves:    2774
 k-point   135 :   0.2667 0.4000 0.0000  plane waves:    2770
 k-point   136 :   0.2667 0.0000 0.4000  plane waves:    2770
 k-point   137 :   0.2667 0.0000-0.4000  plane waves:    2770
 k-point   138 :   0.3333 0.4000 0.0000  plane waves:    2770
 k-point   139 :   0.3333 0.0000 0.4000  plane waves:    2770
 k-point   140 :   0.3333 0.0000-0.4000  plane waves:    2770
 k-point   141 :   0.4000 0.4000 0.0000  plane waves:    2775
 k-point   142 :   0.4000 0.0000 0.4000  plane waves:    2775
 k-point   143 :   0.4000 0.0000-0.4000  plane waves:    2775
 k-point   144 :   0.4667 0.4000 0.0000  plane waves:    2782
 k-point   145 :   0.4667 0.0000 0.4000  plane waves:    2782
 k-point   146 :   0.4667 0.0000-0.4000  plane waves:    2782
 k-point   147 :   0.0000 0.4667 0.0000  plane waves:    2790
 k-point   148 :   0.0000 0.0000 0.4667  plane waves:    2790
 k-point   149 :   0.0667 0.4667 0.0000  plane waves:    2794
 k-point   150 :   0.0667 0.0000 0.4667  plane waves:    2794
 k-point   151 :   0.0667 0.0000-0.4667  plane waves:    2794
 k-point   152 :   0.1333 0.4667 0.0000  plane waves:    2792
 k-point   153 :   0.1333 0.0000 0.4667  plane waves:    2792
 k-point   154 :   0.1333 0.0000-0.4667  plane waves:    2792
 k-point   155 :   0.2000 0.4667 0.0000  plane waves:    2778
 k-point   156 :   0.2000 0.0000 0.4667  plane waves:    2778
 k-point   157 :   0.2000 0.0000-0.4667  plane waves:    2778
 k-point   158 :   0.2667 0.4667 0.0000  plane waves:    2774
 k-point   159 :   0.2667 0.0000 0.4667  plane waves:    2774
 k-point   160 :   0.2667 0.0000-0.4667  plane waves:    2774
 k-point   161 :   0.3333 0.4667 0.0000  plane waves:    2769
 k-point   162 :   0.3333 0.0000 0.4667  plane waves:    2769
 k-point   163 :   0.3333 0.0000-0.4667  plane waves:    2769
 k-point   164 :   0.4000 0.4667 0.0000  plane waves:    2758
 k-point   165 :   0.4000 0.0000 0.4667  plane waves:    2758
 k-point   166 :   0.4000 0.0000-0.4667  plane waves:    2758
 k-point   167 :   0.4667 0.4667 0.0000  plane waves:    2765
 k-point   168 :   0.4667 0.0000 0.4667  plane waves:    2765
 k-point   169 :   0.4667 0.0000-0.4667  plane waves:    2765
 k-point   170 :   0.0000 0.0667 0.0667  plane waves:    2763
 k-point   171 :   0.0667 0.0667 0.0667  plane waves:    2778
 k-point   172 :   0.0667-0.0667-0.0667  plane waves:    2778
 k-point   173 :   0.1333 0.0667 0.0667  plane waves:    2790
 k-point   174 :   0.1333-0.0667-0.0667  plane waves:    2790
 k-point   175 :   0.2000 0.0667 0.0667  plane waves:    2781
 k-point   176 :   0.2000-0.0667-0.0667  plane waves:    2781
 k-point   177 :   0.2667 0.0667 0.0667  plane waves:    2781
 k-point   178 :   0.2667-0.0667-0.0667  plane waves:    2781
 k-point   179 :   0.3333 0.0667 0.0667  plane waves:    2780
 k-point   180 :   0.3333-0.0667-0.0667  plane waves:    2780
 k-point   181 :   0.4000 0.0667 0.0667  plane waves:    2772
 k-point   182 :   0.4000-0.0667-0.0667  plane waves:    2772
 k-point   183 :   0.4667 0.0667 0.0667  plane waves:    2764
 k-point   184 :   0.4667-0.0667-0.0667  plane waves:    2764
 k-point   185 :   0.0000 0.1333 0.0667  plane waves:    2773
 k-point   186 :   0.0000-0.0667 0.1333  plane waves:    2773
 k-point   187 :   0.0667 0.1333 0.0667  plane waves:    2773
 k-point   188 :   0.0667-0.0667 0.1333  plane waves:    2773
 k-point   189 :   0.0667-0.1333-0.0667  plane waves:    2773
 k-point   190 :   0.0667 0.0667-0.1333  plane waves:    2773
 k-point   191 :   0.1333 0.1333 0.0667  plane waves:    2790
 k-point   192 :   0.1333-0.0667 0.1333  plane waves:    2790
 k-point   193 :   0.1333-0.1333-0.0667  plane waves:    2790
 k-point   194 :   0.1333 0.0667-0.1333  plane waves:    2790
 k-point   195 :   0.2000 0.1333 0.0667  plane waves:    2786
 k-point   196 :   0.2000-0.0667 0.1333  plane waves:    2786
 k-point   197 :   0.2000-0.1333-0.0667  plane waves:    2786
 k-point   198 :   0.2000 0.0667-0.1333  plane waves:    2786
 k-point   199 :   0.2667 0.1333 0.0667  plane waves:    2785
 k-point   200 :   0.2667-0.0667 0.1333  plane waves:    2785
 k-point   201 :   0.2667-0.1333-0.0667  plane waves:    2785
 k-point   202 :   0.2667 0.0667-0.1333  plane waves:    2785
 k-point   203 :   0.3333 0.1333 0.0667  plane waves:    2784
 k-point   204 :   0.3333-0.0667 0.1333  plane waves:    2784
 k-point   205 :   0.3333-0.1333-0.0667  plane waves:    2784
 k-point   206 :   0.3333 0.0667-0.1333  plane waves:    2784
 k-point   207 :   0.4000 0.1333 0.0667  plane waves:    2773
 k-point   208 :   0.4000-0.0667 0.1333  plane waves:    2773
 k-point   209 :   0.4000-0.1333-0.0667  plane waves:    2773
 k-point   210 :   0.4000 0.0667-0.1333  plane waves:    2773
 k-point   211 :   0.4667 0.1333 0.0667  plane waves:    2769
 k-point   212 :   0.4667-0.0667 0.1333  plane waves:    2769
 k-point   213 :   0.4667-0.1333-0.0667  plane waves:    2769
 k-point   214 :   0.4667 0.0667-0.1333  plane waves:    2769
 k-point   215 :   0.0000 0.2000 0.0667  plane waves:    2787
 k-point   216 :   0.0000-0.0667 0.2000  plane waves:    2787
 k-point   217 :   0.0667 0.2000 0.0667  plane waves:    2781
 k-point   218 :   0.0667-0.0667 0.2000  plane waves:    2781
 k-point   219 :   0.0667-0.2000-0.0667  plane waves:    2781
 k-point   220 :   0.0667 0.0667-0.2000  plane waves:    2781
 k-point   221 :   0.1333 0.2000 0.0667  plane waves:    2779
 k-point   222 :   0.1333-0.0667 0.2000  plane waves:    2779
 k-point   223 :   0.1333-0.2000-0.0667  plane waves:    2779
 k-point   224 :   0.1333 0.0667-0.2000  plane waves:    2779
 k-point   225 :   0.2000 0.2000 0.0667  plane waves:    2780
 k-point   226 :   0.2000-0.0667 0.2000  plane waves:    2780
 k-point   227 :   0.2000-0.2000-0.0667  plane waves:    2780
 k-point   228 :   0.2000 0.0667-0.2000  plane waves:    2780
 k-point   229 :   0.2667 0.2000 0.0667  plane waves:    2786
 k-point   230 :   0.2667-0.0667 0.2000  plane waves:    2786
 k-point   231 :   0.2667-0.2000-0.0667  plane waves:    2786
 k-point   232 :   0.2667 0.0667-0.2000  plane waves:    2786
 k-point   233 :   0.3333 0.2000 0.0667  plane waves:    2781
 k-point   234 :   0.3333-0.0667 0.2000  plane waves:    2781
 k-point   235 :   0.3333-0.2000-0.0667  plane waves:    2781
 k-point   236 :   0.3333 0.0667-0.2000  plane waves:    2781
 k-point   237 :   0.4000 0.2000 0.0667  plane waves:    2777
 k-point   238 :   0.4000-0.0667 0.2000  plane waves:    2777
 k-point   239 :   0.4000-0.2000-0.0667  plane waves:    2777
 k-point   240 :   0.4000 0.0667-0.2000  plane waves:    2777
 k-point   241 :   0.4667 0.2000 0.0667  plane waves:    2779
 k-point   242 :   0.4667-0.0667 0.2000  plane waves:    2779
 k-point   243 :   0.4667-0.2000-0.0667  plane waves:    2779
 k-point   244 :   0.4667 0.0667-0.2000  plane waves:    2779
 k-point   245 :   0.0000 0.2667 0.0667  plane waves:    2785
 k-point   246 :   0.0000-0.0667 0.2667  plane waves:    2785
 k-point   247 :   0.0667 0.2667 0.0667  plane waves:    2785
 k-point   248 :   0.0667-0.0667 0.2667  plane waves:    2785
 k-point   249 :   0.0667-0.2667-0.0667  plane waves:    2785
 k-point   250 :   0.0667 0.0667-0.2667  plane waves:    2785
 k-point   251 :   0.1333 0.2667 0.0667  plane waves:    2780
 k-point   252 :   0.1333-0.0667 0.2667  plane waves:    2780
 k-point   253 :   0.1333-0.2667-0.0667  plane waves:    2780
 k-point   254 :   0.1333 0.0667-0.2667  plane waves:    2780
 k-point   255 :   0.2000 0.2667 0.0667  plane waves:    2779
 k-point   256 :   0.2000-0.0667 0.2667  plane waves:    2779
 k-point   257 :   0.2000-0.2667-0.0667  plane waves:    2779
 k-point   258 :   0.2000 0.0667-0.2667  plane waves:    2779
 k-point   259 :   0.2667 0.2667 0.0667  plane waves:    2782
 k-point   260 :   0.2667-0.0667 0.2667  plane waves:    2782
 k-point   261 :   0.2667-0.2667-0.0667  plane waves:    2782
 k-point   262 :   0.2667 0.0667-0.2667  plane waves:    2782
 k-point   263 :   0.3333 0.2667 0.0667  plane waves:    2780
 k-point   264 :   0.3333-0.0667 0.2667  plane waves:    2780
 k-point   265 :   0.3333-0.2667-0.0667  plane waves:    2780
 k-point   266 :   0.3333 0.0667-0.2667  plane waves:    2780
 k-point   267 :   0.4000 0.2667 0.0667  plane waves:    2777
 k-point   268 :   0.4000-0.0667 0.2667  plane waves:    2777
 k-point   269 :   0.4000-0.2667-0.0667  plane waves:    2777
 k-point   270 :   0.4000 0.0667-0.2667  plane waves:    2777
 k-point   271 :   0.4667 0.2667 0.0667  plane waves:    2775
 k-point   272 :   0.4667-0.0667 0.2667  plane waves:    2775
 k-point   273 :   0.4667-0.2667-0.0667  plane waves:    2775
 k-point   274 :   0.4667 0.0667-0.2667  plane waves:    2775
 k-point   275 :   0.0000 0.3333 0.0667  plane waves:    2786
 k-point   276 :   0.0000-0.0667 0.3333  plane waves:    2786
 k-point   277 :   0.0667 0.3333 0.0667  plane waves:    2782
 k-point   278 :   0.0667-0.0667 0.3333  plane waves:    2782
 k-point   279 :   0.0667-0.3333-0.0667  plane waves:    2782
 k-point   280 :   0.0667 0.0667-0.3333  plane waves:    2782
 k-point   281 :   0.1333 0.3333 0.0667  plane waves:    2773
 k-point   282 :   0.1333-0.0667 0.3333  plane waves:    2773
 k-point   283 :   0.1333-0.3333-0.0667  plane waves:    2773
 k-point   284 :   0.1333 0.0667-0.3333  plane waves:    2773
 k-point   285 :   0.2000 0.3333 0.0667  plane waves:    2779
 k-point   286 :   0.2000-0.0667 0.3333  plane waves:    2779
 k-point   287 :   0.2000-0.3333-0.0667  plane waves:    2779
 k-point   288 :   0.2000 0.0667-0.3333  plane waves:    2779
 k-point   289 :   0.2667 0.3333 0.0667  plane waves:    2780
 k-point   290 :   0.2667-0.0667 0.3333  plane waves:    2780
 k-point   291 :   0.2667-0.3333-0.0667  plane waves:    2780
 k-point   292 :   0.2667 0.0667-0.3333  plane waves:    2780
 k-point   293 :   0.3333 0.3333 0.0667  plane waves:    2776
 k-point   294 :   0.3333-0.0667 0.3333  plane waves:    2776
 k-point   295 :   0.3333-0.3333-0.0667  plane waves:    2776
 k-point   296 :   0.3333 0.0667-0.3333  plane waves:    2776
 k-point   297 :   0.4000 0.3333 0.0667  plane waves:    2778
 k-point   298 :   0.4000-0.0667 0.3333  plane waves:    2778
 k-point   299 :   0.4000-0.3333-0.0667  plane waves:    2778
 k-point   300 :   0.4000 0.0667-0.3333  plane waves:    2778
 k-point   301 :   0.4667 0.3333 0.0667  plane waves:    2778
 k-point   302 :   0.4667-0.0667 0.3333  plane waves:    2778
 k-point   303 :   0.4667-0.3333-0.0667  plane waves:    2778
 k-point   304 :   0.4667 0.0667-0.3333  plane waves:    2778
 k-point   305 :   0.0000 0.4000 0.0667  plane waves:    2788
 k-point   306 :   0.0000-0.0667 0.4000  plane waves:    2788
 k-point   307 :   0.0667 0.4000 0.0667  plane waves:    2788
 k-point   308 :   0.0667-0.0667 0.4000  plane waves:    2788
 k-point   309 :   0.0667-0.4000-0.0667  plane waves:    2788
 k-point   310 :   0.0667 0.0667-0.4000  plane waves:    2788
 k-point   311 :   0.1333 0.4000 0.0667  plane waves:    2781
 k-point   312 :   0.1333-0.0667 0.4000  plane waves:    2781
 k-point   313 :   0.1333-0.4000-0.0667  plane waves:    2781
 k-point   314 :   0.1333 0.0667-0.4000  plane waves:    2781
 k-point   315 :   0.2000 0.4000 0.0667  plane waves:    2779
 k-point   316 :   0.2000-0.0667 0.4000  plane waves:    2779
 k-point   317 :   0.2000-0.4000-0.0667  plane waves:    2779
 k-point   318 :   0.2000 0.0667-0.4000  plane waves:    2779
 k-point   319 :   0.2667 0.4000 0.0667  plane waves:    2772
 k-point   320 :   0.2667-0.0667 0.4000  plane waves:    2772
 k-point   321 :   0.2667-0.4000-0.0667  plane waves:    2772
 k-point   322 :   0.2667 0.0667-0.4000  plane waves:    2772
 k-point   323 :   0.3333 0.4000 0.0667  plane waves:    2768
 k-point   324 :   0.3333-0.0667 0.4000  plane waves:    2768
 k-point   325 :   0.3333-0.4000-0.0667  plane waves:    2768
 k-point   326 :   0.3333 0.0667-0.4000  plane waves:    2768
 k-point   327 :   0.4000 0.4000 0.0667  plane waves:    2770
 k-point   328 :   0.4000-0.0667 0.4000  plane waves:    2770
 k-point   329 :   0.4000-0.4000-0.0667  plane waves:    2770
 k-point   330 :   0.4000 0.0667-0.4000  plane waves:    2770
 k-point   331 :   0.4667 0.4000 0.0667  plane waves:    2780
 k-point   332 :   0.4667-0.0667 0.4000  plane waves:    2780
 k-point   333 :   0.4667-0.4000-0.0667  plane waves:    2780
 k-point   334 :   0.4667 0.0667-0.4000  plane waves:    2780
 k-point   335 :   0.0000 0.4667 0.0667  plane waves:    2799
 k-point   336 :   0.0000-0.0667 0.4667  plane waves:    2799
 k-point   337 :   0.0667 0.4667 0.0667  plane waves:    2794
 k-point   338 :   0.0667-0.0667 0.4667  plane waves:    2794
 k-point   339 :   0.0667-0.4667-0.0667  plane waves:    2794
 k-point   340 :   0.0667 0.0667-0.4667  plane waves:    2794
 k-point   341 :   0.1333 0.4667 0.0667  plane waves:    2788
 k-point   342 :   0.1333-0.0667 0.4667  plane waves:    2788
 k-point   343 :   0.1333-0.4667-0.0667  plane waves:    2788
 k-point   344 :   0.1333 0.0667-0.4667  plane waves:    2788
 k-point   345 :   0.2000 0.4667 0.0667  plane waves:    2779
 k-point   346 :   0.2000-0.0667 0.4667  plane waves:    2779
 k-point   347 :   0.2000-0.4667-0.0667  plane waves:    2779
 k-point   348 :   0.2000 0.0667-0.4667  plane waves:    2779
 k-point   349 :   0.2667 0.4667 0.0667  plane waves:    2769
 k-point   350 :   0.2667-0.0667 0.4667  plane waves:    2769
 k-point   351 :   0.2667-0.4667-0.0667  plane waves:    2769
 k-point   352 :   0.2667 0.0667-0.4667  plane waves:    2769
 k-point   353 :   0.3333 0.4667 0.0667  plane waves:    2774
 k-point   354 :   0.3333-0.0667 0.4667  plane waves:    2774
 k-point   355 :   0.3333-0.4667-0.0667  plane waves:    2774
 k-point   356 :   0.3333 0.0667-0.4667  plane waves:    2774
 k-point   357 :   0.4000 0.4667 0.0667  plane waves:    2768
 k-point   358 :   0.4000-0.0667 0.4667  plane waves:    2768
 k-point   359 :   0.4000-0.4667-0.0667  plane waves:    2768
 k-point   360 :   0.4000 0.0667-0.4667  plane waves:    2768
 k-point   361 :   0.4667 0.4667 0.0667  plane waves:    2767
 k-point   362 :   0.4667-0.0667 0.4667  plane waves:    2767
 k-point   363 :   0.4667-0.4667-0.0667  plane waves:    2767
 k-point   364 :   0.4667 0.0667-0.4667  plane waves:    2767
 k-point   365 :   0.0000 0.1333 0.1333  plane waves:    2767
 k-point   366 :   0.0667 0.1333 0.1333  plane waves:    2779
 k-point   367 :   0.0667-0.1333-0.1333  plane waves:    2779
 k-point   368 :   0.1333 0.1333 0.1333  plane waves:    2782
 k-point   369 :   0.1333-0.1333-0.1333  plane waves:    2782
 k-point   370 :   0.2000 0.1333 0.1333  plane waves:    2787
 k-point   371 :   0.2000-0.1333-0.1333  plane waves:    2787
 k-point   372 :   0.2667 0.1333 0.1333  plane waves:    2786
 k-point   373 :   0.2667-0.1333-0.1333  plane waves:    2786
 k-point   374 :   0.3333 0.1333 0.1333  plane waves:    2775
 k-point   375 :   0.3333-0.1333-0.1333  plane waves:    2775
 k-point   376 :   0.4000 0.1333 0.1333  plane waves:    2768
 k-point   377 :   0.4000-0.1333-0.1333  plane waves:    2768
 k-point   378 :   0.4667 0.1333 0.1333  plane waves:    2767
 k-point   379 :   0.4667-0.1333-0.1333  plane waves:    2767
 k-point   380 :   0.0000 0.2000 0.1333  plane waves:    2778
 k-point   381 :   0.0000-0.1333 0.2000  plane waves:    2778
 k-point   382 :   0.0667 0.2000 0.1333  plane waves:    2776
 k-point   383 :   0.0667-0.1333 0.2000  plane waves:    2776
 k-point   384 :   0.0667-0.2000-0.1333  plane waves:    2776
 k-point   385 :   0.0667 0.1333-0.2000  plane waves:    2776
 k-point   386 :   0.1333 0.2000 0.1333  plane waves:    2778
 k-point   387 :   0.1333-0.1333 0.2000  plane waves:    2778
 k-point   388 :   0.1333-0.2000-0.1333  plane waves:    2778
 k-point   389 :   0.1333 0.1333-0.2000  plane waves:    2778
 k-point   390 :   0.2000 0.2000 0.1333  plane waves:    2784
 k-point   391 :   0.2000-0.1333 0.2000  plane waves:    2784
 k-point   392 :   0.2000-0.2000-0.1333  plane waves:    2784
 k-point   393 :   0.2000 0.1333-0.2000  plane waves:    2784
 k-point   394 :   0.2667 0.2000 0.1333  plane waves:    2785
 k-point   395 :   0.2667-0.1333 0.2000  plane waves:    2785
 k-point   396 :   0.2667-0.2000-0.1333  plane waves:    2785
 k-point   397 :   0.2667 0.1333-0.2000  plane waves:    2785
 k-point   398 :   0.3333 0.2000 0.1333  plane waves:    2782
 k-point   399 :   0.3333-0.1333 0.2000  plane waves:    2782
 k-point   400 :   0.3333-0.2000-0.1333  plane waves:    2782
 k-point   401 :   0.3333 0.1333-0.2000  plane waves:    2782
 k-point   402 :   0.4000 0.2000 0.1333  plane waves:    2771
 k-point   403 :   0.4000-0.1333 0.2000  plane waves:    2771
 k-point   404 :   0.4000-0.2000-0.1333  plane waves:    2771
 k-point   405 :   0.4000 0.1333-0.2000  plane waves:    2771
 k-point   406 :   0.4667 0.2000 0.1333  plane waves:    2777
 k-point   407 :   0.4667-0.1333 0.2000  plane waves:    2777
 k-point   408 :   0.4667-0.2000-0.1333  plane waves:    2777
 k-point   409 :   0.4667 0.1333-0.2000  plane waves:    2777
 k-point   410 :   0.0000 0.2667 0.1333  plane waves:    2777
 k-point   411 :   0.0000-0.1333 0.2667  plane waves:    2777
 k-point   412 :   0.0667 0.2667 0.1333  plane waves:    2786
 k-point   413 :   0.0667-0.1333 0.2667  plane waves:    2786
 k-point   414 :   0.0667-0.2667-0.1333  plane waves:    2786
 k-point   415 :   0.0667 0.1333-0.2667  plane waves:    2786
 k-point   416 :   0.1333 0.2667 0.1333  plane waves:    2787
 k-point   417 :   0.1333-0.1333 0.2667  plane waves:    2787
 k-point   418 :   0.1333-0.2667-0.1333  plane waves:    2787
 k-point   419 :   0.1333 0.1333-0.2667  plane waves:    2787
 k-point   420 :   0.2000 0.2667 0.1333  plane waves:    2783
 k-point   421 :   0.2000-0.1333 0.2667  plane waves:    2783
 k-point   422 :   0.2000-0.2667-0.1333  plane waves:    2783
 k-point   423 :   0.2000 0.1333-0.2667  plane waves:    2783
 k-point   424 :   0.2667 0.2667 0.1333  plane waves:    2784
 k-point   425 :   0.2667-0.1333 0.2667  plane waves:    2784
 k-point   426 :   0.2667-0.2667-0.1333  plane waves:    2784
 k-point   427 :   0.2667 0.1333-0.2667  plane waves:    2784
 k-point   428 :   0.3333 0.2667 0.1333  plane waves:    2781
 k-point   429 :   0.3333-0.1333 0.2667  plane waves:    2781
 k-point   430 :   0.3333-0.2667-0.1333  plane waves:    2781
 k-point   431 :   0.3333 0.1333-0.2667  plane waves:    2781
 k-point   432 :   0.4000 0.2667 0.1333  plane waves:    2769
 k-point   433 :   0.4000-0.1333 0.2667  plane waves:    2769
 k-point   434 :   0.4000-0.2667-0.1333  plane waves:    2769
 k-point   435 :   0.4000 0.1333-0.2667  plane waves:    2769
 k-point   436 :   0.4667 0.2667 0.1333  plane waves:    2770
 k-point   437 :   0.4667-0.1333 0.2667  plane waves:    2770
 k-point   438 :   0.4667-0.2667-0.1333  plane waves:    2770
 k-point   439 :   0.4667 0.1333-0.2667  plane waves:    2770
 k-point   440 :   0.0000 0.3333 0.1333  plane waves:    2782
 k-point   441 :   0.0000-0.1333 0.3333  plane waves:    2782
 k-point   442 :   0.0667 0.3333 0.1333  plane waves:    2784
 k-point   443 :   0.0667-0.1333 0.3333  plane waves:    2784
 k-point   444 :   0.0667-0.3333-0.1333  plane waves:    2784
 k-point   445 :   0.0667 0.1333-0.3333  plane waves:    2784
 k-point   446 :   0.1333 0.3333 0.1333  plane waves:    2781
 k-point   447 :   0.1333-0.1333 0.3333  plane waves:    2781
 k-point   448 :   0.1333-0.3333-0.1333  plane waves:    2781
 k-point   449 :   0.1333 0.1333-0.3333  plane waves:    2781
 k-point   450 :   0.2000 0.3333 0.1333  plane waves:    2778
 k-point   451 :   0.2000-0.1333 0.3333  plane waves:    2778
 k-point   452 :   0.2000-0.3333-0.1333  plane waves:    2778
 k-point   453 :   0.2000 0.1333-0.3333  plane waves:    2778
 k-point   454 :   0.2667 0.3333 0.1333  plane waves:    2777
 k-point   455 :   0.2667-0.1333 0.3333  plane waves:    2777
 k-point   456 :   0.2667-0.3333-0.1333  plane waves:    2777
 k-point   457 :   0.2667 0.1333-0.3333  plane waves:    2777
 k-point   458 :   0.3333 0.3333 0.1333  plane waves:    2774
 k-point   459 :   0.3333-0.1333 0.3333  plane waves:    2774
 k-point   460 :   0.3333-0.3333-0.1333  plane waves:    2774
 k-point   461 :   0.3333 0.1333-0.3333  plane waves:    2774
 k-point   462 :   0.4000 0.3333 0.1333  plane waves:    2773
 k-point   463 :   0.4000-0.1333 0.3333  plane waves:    2773
 k-point   464 :   0.4000-0.3333-0.1333  plane waves:    2773
 k-point   465 :   0.4000 0.1333-0.3333  plane waves:    2773
 k-point   466 :   0.4667 0.3333 0.1333  plane waves:    2773
 k-point   467 :   0.4667-0.1333 0.3333  plane waves:    2773
 k-point   468 :   0.4667-0.3333-0.1333  plane waves:    2773
 k-point   469 :   0.4667 0.1333-0.3333  plane waves:    2773
 k-point   470 :   0.0000 0.4000 0.1333  plane waves:    2787
 k-point   471 :   0.0000-0.1333 0.4000  plane waves:    2787
 k-point   472 :   0.0667 0.4000 0.1333  plane waves:    2784
 k-point   473 :   0.0667-0.1333 0.4000  plane waves:    2784
 k-point   474 :   0.0667-0.4000-0.1333  plane waves:    2784
 k-point   475 :   0.0667 0.1333-0.4000  plane waves:    2784
 k-point   476 :   0.1333 0.4000 0.1333  plane waves:    2781
 k-point   477 :   0.1333-0.1333 0.4000  plane waves:    2781
 k-point   478 :   0.1333-0.4000-0.1333  plane waves:    2781
 k-point   479 :   0.1333 0.1333-0.4000  plane waves:    2781
 k-point   480 :   0.2000 0.4000 0.1333  plane waves:    2782
 k-point   481 :   0.2000-0.1333 0.4000  plane waves:    2782
 k-point   482 :   0.2000-0.4000-0.1333  plane waves:    2782
 k-point   483 :   0.2000 0.1333-0.4000  plane waves:    2782
 k-point   484 :   0.2667 0.4000 0.1333  plane waves:    2781
 k-point   485 :   0.2667-0.1333 0.4000  plane waves:    2781
 k-point   486 :   0.2667-0.4000-0.1333  plane waves:    2781
 k-point   487 :   0.2667 0.1333-0.4000  plane waves:    2781
 k-point   488 :   0.3333 0.4000 0.1333  plane waves:    2771
 k-point   489 :   0.3333-0.1333 0.4000  plane waves:    2771
 k-point   490 :   0.3333-0.4000-0.1333  plane waves:    2771
 k-point   491 :   0.3333 0.1333-0.4000  plane waves:    2771
 k-point   492 :   0.4000 0.4000 0.1333  plane waves:    2768
 k-point   493 :   0.4000-0.1333 0.4000  plane waves:    2768
 k-point   494 :   0.4000-0.4000-0.1333  plane waves:    2768
 k-point   495 :   0.4000 0.1333-0.4000  plane waves:    2768
 k-point   496 :   0.4667 0.4000 0.1333  plane waves:    2771
 k-point   497 :   0.4667-0.1333 0.4000  plane waves:    2771
 k-point   498 :   0.4667-0.4000-0.1333  plane waves:    2771
 k-point   499 :   0.4667 0.1333-0.4000  plane waves:    2771
 k-point   500 :   0.0000 0.4667 0.1333  plane waves:    2802
 k-point   501 :   0.0000-0.1333 0.4667  plane waves:    2802
 k-point   502 :   0.0667 0.4667 0.1333  plane waves:    2796
 k-point   503 :   0.0667-0.1333 0.4667  plane waves:    2796
 k-point   504 :   0.0667-0.4667-0.1333  plane waves:    2796
 k-point   505 :   0.0667 0.1333-0.4667  plane waves:    2796
 k-point   506 :   0.1333 0.4667 0.1333  plane waves:    2788
 k-point   507 :   0.1333-0.1333 0.4667  plane waves:    2788
 k-point   508 :   0.1333-0.4667-0.1333  plane waves:    2788
 k-point   509 :   0.1333 0.1333-0.4667  plane waves:    2788
 k-point   510 :   0.2000 0.4667 0.1333  plane waves:    2784
 k-point   511 :   0.2000-0.1333 0.4667  plane waves:    2784
 k-point   512 :   0.2000-0.4667-0.1333  plane waves:    2784
 k-point   513 :   0.2000 0.1333-0.4667  plane waves:    2784
 k-point   514 :   0.2667 0.4667 0.1333  plane waves:    2775
 k-point   515 :   0.2667-0.1333 0.4667  plane waves:    2775
 k-point   516 :   0.2667-0.4667-0.1333  plane waves:    2775
 k-point   517 :   0.2667 0.1333-0.4667  plane waves:    2775
 k-point   518 :   0.3333 0.4667 0.1333  plane waves:    2769
 k-point   519 :   0.3333-0.1333 0.4667  plane waves:    2769
 k-point   520 :   0.3333-0.4667-0.1333  plane waves:    2769
 k-point   521 :   0.3333 0.1333-0.4667  plane waves:    2769
 k-point   522 :   0.4000 0.4667 0.1333  plane waves:    2769
 k-point   523 :   0.4000-0.1333 0.4667  plane waves:    2769
 k-point   524 :   0.4000-0.4667-0.1333  plane waves:    2769
 k-point   525 :   0.4000 0.1333-0.4667  plane waves:    2769
 k-point   526 :   0.4667 0.4667 0.1333  plane waves:    2758
 k-point   527 :   0.4667-0.1333 0.4667  plane waves:    2758
 k-point   528 :   0.4667-0.4667-0.1333  plane waves:    2758
 k-point   529 :   0.4667 0.1333-0.4667  plane waves:    2758
 k-point   530 :   0.0000 0.2000 0.2000  plane waves:    2771
 k-point   531 :   0.0667 0.2000 0.2000  plane waves:    2777
 k-point   532 :   0.0667-0.2000-0.2000  plane waves:    2777
 k-point   533 :   0.1333 0.2000 0.2000  plane waves:    2777
 k-point   534 :   0.1333-0.2000-0.2000  plane waves:    2777
 k-point   535 :   0.2000 0.2000 0.2000  plane waves:    2783
 k-point   536 :   0.2000-0.2000-0.2000  plane waves:    2783
 k-point   537 :   0.2667 0.2000 0.2000  plane waves:    2786
 k-point   538 :   0.2667-0.2000-0.2000  plane waves:    2786
 k-point   539 :   0.3333 0.2000 0.2000  plane waves:    2782
 k-point   540 :   0.3333-0.2000-0.2000  plane waves:    2782
 k-point   541 :   0.4000 0.2000 0.2000  plane waves:    2781
 k-point   542 :   0.4000-0.2000-0.2000  plane waves:    2781
 k-point   543 :   0.4667 0.2000 0.2000  plane waves:    2766
 k-point   544 :   0.4667-0.2000-0.2000  plane waves:    2766
 k-point   545 :   0.0000 0.2667 0.2000  plane waves:    2783
 k-point   546 :   0.0000-0.2000 0.2667  plane waves:    2783
 k-point   547 :   0.0667 0.2667 0.2000  plane waves:    2782
 k-point   548 :   0.0667-0.2000 0.2667  plane waves:    2782
 k-point   549 :   0.0667-0.2667-0.2000  plane waves:    2782
 k-point   550 :   0.0667 0.2000-0.2667  plane waves:    2782
 k-point   551 :   0.1333 0.2667 0.2000  plane waves:    2778
 k-point   552 :   0.1333-0.2000 0.2667  plane waves:    2778
 k-point   553 :   0.1333-0.2667-0.2000  plane waves:    2778
 k-point   554 :   0.1333 0.2000-0.2667  plane waves:    2778
 k-point   555 :   0.2000 0.2667 0.2000  plane waves:    2782
 k-point   556 :   0.2000-0.2000 0.2667  plane waves:    2782
 k-point   557 :   0.2000-0.2667-0.2000  plane waves:    2782
 k-point   558 :   0.2000 0.2000-0.2667  plane waves:    2782
 k-point   559 :   0.2667 0.2667 0.2000  plane waves:    2790
 k-point   560 :   0.2667-0.2000 0.2667  plane waves:    2790
 k-point   561 :   0.2667-0.2667-0.2000  plane waves:    2790
 k-point   562 :   0.2667 0.2000-0.2667  plane waves:    2790
 k-point   563 :   0.3333 0.2667 0.2000  plane waves:    2783
 k-point   564 :   0.3333-0.2000 0.2667  plane waves:    2783
 k-point   565 :   0.3333-0.2667-0.2000  plane waves:    2783
 k-point   566 :   0.3333 0.2000-0.2667  plane waves:    2783
 k-point   567 :   0.4000 0.2667 0.2000  plane waves:    2772
 k-point   568 :   0.4000-0.2000 0.2667  plane waves:    2772
 k-point   569 :   0.4000-0.2667-0.2000  plane waves:    2772
 k-point   570 :   0.4000 0.2000-0.2667  plane waves:    2772
 k-point   571 :   0.4667 0.2667 0.2000  plane waves:    2768
 k-point   572 :   0.4667-0.2000 0.2667  plane waves:    2768
 k-point   573 :   0.4667-0.2667-0.2000  plane waves:    2768
 k-point   574 :   0.4667 0.2000-0.2667  plane waves:    2768
 k-point   575 :   0.0000 0.3333 0.2000  plane waves:    2783
 k-point   576 :   0.0000-0.2000 0.3333  plane waves:    2783
 k-point   577 :   0.0667 0.3333 0.2000  plane waves:    2785
 k-point   578 :   0.0667-0.2000 0.3333  plane waves:    2785
 k-point   579 :   0.0667-0.3333-0.2000  plane waves:    2785
 k-point   580 :   0.0667 0.2000-0.3333  plane waves:    2785
 k-point   581 :   0.1333 0.3333 0.2000  plane waves:    2788
 k-point   582 :   0.1333-0.2000 0.3333  plane waves:    2788
 k-point   583 :   0.1333-0.3333-0.2000  plane waves:    2788
 k-point   584 :   0.1333 0.2000-0.3333  plane waves:    2788
 k-point   585 :   0.2000 0.3333 0.2000  plane waves:    2781
 k-point   586 :   0.2000-0.2000 0.3333  plane waves:    2781
 k-point   587 :   0.2000-0.3333-0.2000  plane waves:    2781
 k-point   588 :   0.2000 0.2000-0.3333  plane waves:    2781
 k-point   589 :   0.2667 0.3333 0.2000  plane waves:    2779
 k-point   590 :   0.2667-0.2000 0.3333  plane waves:    2779
 k-point   591 :   0.2667-0.3333-0.2000  plane waves:    2779
 k-point   592 :   0.2667 0.2000-0.3333  plane waves:    2779
 k-point   593 :   0.3333 0.3333 0.2000  plane waves:    2784
 k-point   594 :   0.3333-0.2000 0.3333  plane waves:    2784
 k-point   595 :   0.3333-0.3333-0.2000  plane waves:    2784
 k-point   596 :   0.3333 0.2000-0.3333  plane waves:    2784
 k-point   597 :   0.4000 0.3333 0.2000  plane waves:    2781
 k-point   598 :   0.4000-0.2000 0.3333  plane waves:    2781
 k-point   599 :   0.4000-0.3333-0.2000  plane waves:    2781
 k-point   600 :   0.4000 0.2000-0.3333  plane waves:    2781
 k-point   601 :   0.4667 0.3333 0.2000  plane waves:    2772
 k-point   602 :   0.4667-0.2000 0.3333  plane waves:    2772
 k-point   603 :   0.4667-0.3333-0.2000  plane waves:    2772
 k-point   604 :   0.4667 0.2000-0.3333  plane waves:    2772
 k-point   605 :   0.0000 0.4000 0.2000  plane waves:    2789
 k-point   606 :   0.0000-0.2000 0.4000  plane waves:    2789
 k-point   607 :   0.0667 0.4000 0.2000  plane waves:    2792
 k-point   608 :   0.0667-0.2000 0.4000  plane waves:    2792
 k-point   609 :   0.0667-0.4000-0.2000  plane waves:    2792
 k-point   610 :   0.0667 0.2000-0.4000  plane waves:    2792
 k-point   611 :   0.1333 0.4000 0.2000  plane waves:    2788
 k-point   612 :   0.1333-0.2000 0.4000  plane waves:    2788
 k-point   613 :   0.1333-0.4000-0.2000  plane waves:    2788
 k-point   614 :   0.1333 0.2000-0.4000  plane waves:    2788
 k-point   615 :   0.2000 0.4000 0.2000  plane waves:    2787
 k-point   616 :   0.2000-0.2000 0.4000  plane waves:    2787
 k-point   617 :   0.2000-0.4000-0.2000  plane waves:    2787
 k-point   618 :   0.2000 0.2000-0.4000  plane waves:    2787
 k-point   619 :   0.2667 0.4000 0.2000  plane waves:    2778
 k-point   620 :   0.2667-0.2000 0.4000  plane waves:    2778
 k-point   621 :   0.2667-0.4000-0.2000  plane waves:    2778
 k-point   622 :   0.2667 0.2000-0.4000  plane waves:    2778
 k-point   623 :   0.3333 0.4000 0.2000  plane waves:    2777
 k-point   624 :   0.3333-0.2000 0.4000  plane waves:    2777
 k-point   625 :   0.3333-0.4000-0.2000  plane waves:    2777
 k-point   626 :   0.3333 0.2000-0.4000  plane waves:    2777
 k-point   627 :   0.4000 0.4000 0.2000  plane waves:    2772
 k-point   628 :   0.4000-0.2000 0.4000  plane waves:    2772
 k-point   629 :   0.4000-0.4000-0.2000  plane waves:    2772
 k-point   630 :   0.4000 0.2000-0.4000  plane waves:    2772
 k-point   631 :   0.4667 0.4000 0.2000  plane waves:    2770
 k-point   632 :   0.4667-0.2000 0.4000  plane waves:    2770
 k-point   633 :   0.4667-0.4000-0.2000  plane waves:    2770
 k-point   634 :   0.4667 0.2000-0.4000  plane waves:    2770
 k-point   635 :   0.0000 0.4667 0.2000  plane waves:    2792
 k-point   636 :   0.0000-0.2000 0.4667  plane waves:    2792
 k-point   637 :   0.0667 0.4667 0.2000  plane waves:    2790
 k-point   638 :   0.0667-0.2000 0.4667  plane waves:    2790
 k-point   639 :   0.0667-0.4667-0.2000  plane waves:    2790
 k-point   640 :   0.0667 0.2000-0.4667  plane waves:    2790
 k-point   641 :   0.1333 0.4667 0.2000  plane waves:    2791
 k-point   642 :   0.1333-0.2000 0.4667  plane waves:    2791
 k-point   643 :   0.1333-0.4667-0.2000  plane waves:    2791
 k-point   644 :   0.1333 0.2000-0.4667  plane waves:    2791
 k-point   645 :   0.2000 0.4667 0.2000  plane waves:    2794
 k-point   646 :   0.2000-0.2000 0.4667  plane waves:    2794
 k-point   647 :   0.2000-0.4667-0.2000  plane waves:    2794
 k-point   648 :   0.2000 0.2000-0.4667  plane waves:    2794
 k-point   649 :   0.2667 0.4667 0.2000  plane waves:    2778
 k-point   650 :   0.2667-0.2000 0.4667  plane waves:    2778
 k-point   651 :   0.2667-0.4667-0.2000  plane waves:    2778
 k-point   652 :   0.2667 0.2000-0.4667  plane waves:    2778
 k-point   653 :   0.3333 0.4667 0.2000  plane waves:    2773
 k-point   654 :   0.3333-0.2000 0.4667  plane waves:    2773
 k-point   655 :   0.3333-0.4667-0.2000  plane waves:    2773
 k-point   656 :   0.3333 0.2000-0.4667  plane waves:    2773
 k-point   657 :   0.4000 0.4667 0.2000  plane waves:    2770
 k-point   658 :   0.4000-0.2000 0.4667  plane waves:    2770
 k-point   659 :   0.4000-0.4667-0.2000  plane waves:    2770
 k-point   660 :   0.4000 0.2000-0.4667  plane waves:    2770
 k-point   661 :   0.4667 0.4667 0.2000  plane waves:    2768
 k-point   662 :   0.4667-0.2000 0.4667  plane waves:    2768
 k-point   663 :   0.4667-0.4667-0.2000  plane waves:    2768
 k-point   664 :   0.4667 0.2000-0.4667  plane waves:    2768
 k-point   665 :   0.0000 0.2667 0.2667  plane waves:    2783
 k-point   666 :   0.0667 0.2667 0.2667  plane waves:    2783
 k-point   667 :   0.0667-0.2667-0.2667  plane waves:    2783
 k-point   668 :   0.1333 0.2667 0.2667  plane waves:    2776
 k-point   669 :   0.1333-0.2667-0.2667  plane waves:    2776
 k-point   670 :   0.2000 0.2667 0.2667  plane waves:    2779
 k-point   671 :   0.2000-0.2667-0.2667  plane waves:    2779
 k-point   672 :   0.2667 0.2667 0.2667  plane waves:    2783
 k-point   673 :   0.2667-0.2667-0.2667  plane waves:    2783
 k-point   674 :   0.3333 0.2667 0.2667  plane waves:    2785
 k-point   675 :   0.3333-0.2667-0.2667  plane waves:    2785
 k-point   676 :   0.4000 0.2667 0.2667  plane waves:    2776
 k-point   677 :   0.4000-0.2667-0.2667  plane waves:    2776
 k-point   678 :   0.4667 0.2667 0.2667  plane waves:    2776
 k-point   679 :   0.4667-0.2667-0.2667  plane waves:    2776
 k-point   680 :   0.0000 0.3333 0.2667  plane waves:    2791
 k-point   681 :   0.0000-0.2667 0.3333  plane waves:    2791
 k-point   682 :   0.0667 0.3333 0.2667  plane waves:    2793
 k-point   683 :   0.0667-0.2667 0.3333  plane waves:    2793
 k-point   684 :   0.0667-0.3333-0.2667  plane waves:    2793
 k-point   685 :   0.0667 0.2667-0.3333  plane waves:    2793
 k-point   686 :   0.1333 0.3333 0.2667  plane waves:    2786
 k-point   687 :   0.1333-0.2667 0.3333  plane waves:    2786
 k-point   688 :   0.1333-0.3333-0.2667  plane waves:    2786
 k-point   689 :   0.1333 0.2667-0.3333  plane waves:    2786
 k-point   690 :   0.2000 0.3333 0.2667  plane waves:    2790
 k-point   691 :   0.2000-0.2667 0.3333  plane waves:    2790
 k-point   692 :   0.2000-0.3333-0.2667  plane waves:    2790
 k-point   693 :   0.2000 0.2667-0.3333  plane waves:    2790
 k-point   694 :   0.2667 0.3333 0.2667  plane waves:    2786
 k-point   695 :   0.2667-0.2667 0.3333  plane waves:    2786
 k-point   696 :   0.2667-0.3333-0.2667  plane waves:    2786
 k-point   697 :   0.2667 0.2667-0.3333  plane waves:    2786
 k-point   698 :   0.3333 0.3333 0.2667  plane waves:    2784
 k-point   699 :   0.3333-0.2667 0.3333  plane waves:    2784
 k-point   700 :   0.3333-0.3333-0.2667  plane waves:    2784
 k-point   701 :   0.3333 0.2667-0.3333  plane waves:    2784
 k-point   702 :   0.4000 0.3333 0.2667  plane waves:    2779
 k-point   703 :   0.4000-0.2667 0.3333  plane waves:    2779
 k-point   704 :   0.4000-0.3333-0.2667  plane waves:    2779
 k-point   705 :   0.4000 0.2667-0.3333  plane waves:    2779
 k-point   706 :   0.4667 0.3333 0.2667  plane waves:    2774
 k-point   707 :   0.4667-0.2667 0.3333  plane waves:    2774
 k-point   708 :   0.4667-0.3333-0.2667  plane waves:    2774
 k-point   709 :   0.4667 0.2667-0.3333  plane waves:    2774
 k-point   710 :   0.0000 0.4000 0.2667  plane waves:    2798
 k-point   711 :   0.0000-0.2667 0.4000  plane waves:    2798
 k-point   712 :   0.0667 0.4000 0.2667  plane waves:    2791
 k-point   713 :   0.0667-0.2667 0.4000  plane waves:    2791
 k-point   714 :   0.0667-0.4000-0.2667  plane waves:    2791
 k-point   715 :   0.0667 0.2667-0.4000  plane waves:    2791
 k-point   716 :   0.1333 0.4000 0.2667  plane waves:    2787
 k-point   717 :   0.1333-0.2667 0.4000  plane waves:    2787
 k-point   718 :   0.1333-0.4000-0.2667  plane waves:    2787
 k-point   719 :   0.1333 0.2667-0.4000  plane waves:    2787
 k-point   720 :   0.2000 0.4000 0.2667  plane waves:    2789
 k-point   721 :   0.2000-0.2667 0.4000  plane waves:    2789
 k-point   722 :   0.2000-0.4000-0.2667  plane waves:    2789
 k-point   723 :   0.2000 0.2667-0.4000  plane waves:    2789
 k-point   724 :   0.2667 0.4000 0.2667  plane waves:    2784
 k-point   725 :   0.2667-0.2667 0.4000  plane waves:    2784
 k-point   726 :   0.2667-0.4000-0.2667  plane waves:    2784
 k-point   727 :   0.2667 0.2667-0.4000  plane waves:    2784
 k-point   728 :   0.3333 0.4000 0.2667  plane waves:    2779
 k-point   729 :   0.3333-0.2667 0.4000  plane waves:    2779
 k-point   730 :   0.3333-0.4000-0.2667  plane waves:    2779
 k-point   731 :   0.3333 0.2667-0.4000  plane waves:    2779
 k-point   732 :   0.4000 0.4000 0.2667  plane waves:    2783
 k-point   733 :   0.4000-0.2667 0.4000  plane waves:    2783
 k-point   734 :   0.4000-0.4000-0.2667  plane waves:    2783
 k-point   735 :   0.4000 0.2667-0.4000  plane waves:    2783
 k-point   736 :   0.4667 0.4000 0.2667  plane waves:    2774
 k-point   737 :   0.4667-0.2667 0.4000  plane waves:    2774
 k-point   738 :   0.4667-0.4000-0.2667  plane waves:    2774
 k-point   739 :   0.4667 0.2667-0.4000  plane waves:    2774
 k-point   740 :   0.0000 0.4667 0.2667  plane waves:    2785
 k-point   741 :   0.0000-0.2667 0.4667  plane waves:    2785
 k-point   742 :   0.0667 0.4667 0.2667  plane waves:    2787
 k-point   743 :   0.0667-0.2667 0.4667  plane waves:    2787
 k-point   744 :   0.0667-0.4667-0.2667  plane waves:    2787
 k-point   745 :   0.0667 0.2667-0.4667  plane waves:    2787
 k-point   746 :   0.1333 0.4667 0.2667  plane waves:    2791
 k-point   747 :   0.1333-0.2667 0.4667  plane waves:    2791
 k-point   748 :   0.1333-0.4667-0.2667  plane waves:    2791
 k-point   749 :   0.1333 0.2667-0.4667  plane waves:    2791
 k-point   750 :   0.2000 0.4667 0.2667  plane waves:    2793
 k-point   751 :   0.2000-0.2667 0.4667  plane waves:    2793
 k-point   752 :   0.2000-0.4667-0.2667  plane waves:    2793
 k-point   753 :   0.2000 0.2667-0.4667  plane waves:    2793
 k-point   754 :   0.2667 0.4667 0.2667  plane waves:    2789
 k-point   755 :   0.2667-0.2667 0.4667  plane waves:    2789
 k-point   756 :   0.2667-0.4667-0.2667  plane waves:    2789
 k-point   757 :   0.2667 0.2667-0.4667  plane waves:    2789
 k-point   758 :   0.3333 0.4667 0.2667  plane waves:    2781
 k-point   759 :   0.3333-0.2667 0.4667  plane waves:    2781
 k-point   760 :   0.3333-0.4667-0.2667  plane waves:    2781
 k-point   761 :   0.3333 0.2667-0.4667  plane waves:    2781
 k-point   762 :   0.4000 0.4667 0.2667  plane waves:    2782
 k-point   763 :   0.4000-0.2667 0.4667  plane waves:    2782
 k-point   764 :   0.4000-0.4667-0.2667  plane waves:    2782
 k-point   765 :   0.4000 0.2667-0.4667  plane waves:    2782
 k-point   766 :   0.4667 0.4667 0.2667  plane waves:    2779
 k-point   767 :   0.4667-0.2667 0.4667  plane waves:    2779
 k-point   768 :   0.4667-0.4667-0.2667  plane waves:    2779
 k-point   769 :   0.4667 0.2667-0.4667  plane waves:    2779
 k-point   770 :   0.0000 0.3333 0.3333  plane waves:    2792
 k-point   771 :   0.0667 0.3333 0.3333  plane waves:    2788
 k-point   772 :   0.0667-0.3333-0.3333  plane waves:    2788
 k-point   773 :   0.1333 0.3333 0.3333  plane waves:    2794
 k-point   774 :   0.1333-0.3333-0.3333  plane waves:    2794
 k-point   775 :   0.2000 0.3333 0.3333  plane waves:    2791
 k-point   776 :   0.2000-0.3333-0.3333  plane waves:    2791
 k-point   777 :   0.2667 0.3333 0.3333  plane waves:    2792
 k-point   778 :   0.2667-0.3333-0.3333  plane waves:    2792
 k-point   779 :   0.3333 0.3333 0.3333  plane waves:    2796
 k-point   780 :   0.3333-0.3333-0.3333  plane waves:    2796
 k-point   781 :   0.4000 0.3333 0.3333  plane waves:    2790
 k-point   782 :   0.4000-0.3333-0.3333  plane waves:    2790
 k-point   783 :   0.4667 0.3333 0.3333  plane waves:    2780
 k-point   784 :   0.4667-0.3333-0.3333  plane waves:    2780
 k-point   785 :   0.0000 0.4000 0.3333  plane waves:    2792
 k-point   786 :   0.0000-0.3333 0.4000  plane waves:    2792
 k-point   787 :   0.0667 0.4000 0.3333  plane waves:    2789
 k-point   788 :   0.0667-0.3333 0.4000  plane waves:    2789
 k-point   789 :   0.0667-0.4000-0.3333  plane waves:    2789
 k-point   790 :   0.0667 0.3333-0.4000  plane waves:    2789
 k-point   791 :   0.1333 0.4000 0.3333  plane waves:    2793
 k-point   792 :   0.1333-0.3333 0.4000  plane waves:    2793
 k-point   793 :   0.1333-0.4000-0.3333  plane waves:    2793
 k-point   794 :   0.1333 0.3333-0.4000  plane waves:    2793
 k-point   795 :   0.2000 0.4000 0.3333  plane waves:    2788
 k-point   796 :   0.2000-0.3333 0.4000  plane waves:    2788
 k-point   797 :   0.2000-0.4000-0.3333  plane waves:    2788
 k-point   798 :   0.2000 0.3333-0.4000  plane waves:    2788
 k-point   799 :   0.2667 0.4000 0.3333  plane waves:    2791
 k-point   800 :   0.2667-0.3333 0.4000  plane waves:    2791
 k-point   801 :   0.2667-0.4000-0.3333  plane waves:    2791
 k-point   802 :   0.2667 0.3333-0.4000  plane waves:    2791
 k-point   803 :   0.3333 0.4000 0.3333  plane waves:    2791
 k-point   804 :   0.3333-0.3333 0.4000  plane waves:    2791
 k-point   805 :   0.3333-0.4000-0.3333  plane waves:    2791
 k-point   806 :   0.3333 0.3333-0.4000  plane waves:    2791
 k-point   807 :   0.4000 0.4000 0.3333  plane waves:    2795
 k-point   808 :   0.4000-0.3333 0.4000  plane waves:    2795
 k-point   809 :   0.4000-0.4000-0.3333  plane waves:    2795
 k-point   810 :   0.4000 0.3333-0.4000  plane waves:    2795
 k-point   811 :   0.4667 0.4000 0.3333  plane waves:    2789
 k-point   812 :   0.4667-0.3333 0.4000  plane waves:    2789
 k-point   813 :   0.4667-0.4000-0.3333  plane waves:    2789
 k-point   814 :   0.4667 0.3333-0.4000  plane waves:    2789
 k-point   815 :   0.0000 0.4667 0.3333  plane waves:    2795
 k-point   816 :   0.0000-0.3333 0.4667  plane waves:    2795
 k-point   817 :   0.0667 0.4667 0.3333  plane waves:    2792
 k-point   818 :   0.0667-0.3333 0.4667  plane waves:    2792
 k-point   819 :   0.0667-0.4667-0.3333  plane waves:    2792
 k-point   820 :   0.0667 0.3333-0.4667  plane waves:    2792
 k-point   821 :   0.1333 0.4667 0.3333  plane waves:    2790
 k-point   822 :   0.1333-0.3333 0.4667  plane waves:    2790
 k-point   823 :   0.1333-0.4667-0.3333  plane waves:    2790
 k-point   824 :   0.1333 0.3333-0.4667  plane waves:    2790
 k-point   825 :   0.2000 0.4667 0.3333  plane waves:    2787
 k-point   826 :   0.2000-0.3333 0.4667  plane waves:    2787
 k-point   827 :   0.2000-0.4667-0.3333  plane waves:    2787
 k-point   828 :   0.2000 0.3333-0.4667  plane waves:    2787
 k-point   829 :   0.2667 0.4667 0.3333  plane waves:    2789
 k-point   830 :   0.2667-0.3333 0.4667  plane waves:    2789
 k-point   831 :   0.2667-0.4667-0.3333  plane waves:    2789
 k-point   832 :   0.2667 0.3333-0.4667  plane waves:    2789
 k-point   833 :   0.3333 0.4667 0.3333  plane waves:    2790
 k-point   834 :   0.3333-0.3333 0.4667  plane waves:    2790
 k-point   835 :   0.3333-0.4667-0.3333  plane waves:    2790
 k-point   836 :   0.3333 0.3333-0.4667  plane waves:    2790
 k-point   837 :   0.4000 0.4667 0.3333  plane waves:    2787
 k-point   838 :   0.4000-0.3333 0.4667  plane waves:    2787
 k-point   839 :   0.4000-0.4667-0.3333  plane waves:    2787
 k-point   840 :   0.4000 0.3333-0.4667  plane waves:    2787
 k-point   841 :   0.4667 0.4667 0.3333  plane waves:    2796
 k-point   842 :   0.4667-0.3333 0.4667  plane waves:    2796
 k-point   843 :   0.4667-0.4667-0.3333  plane waves:    2796
 k-point   844 :   0.4667 0.3333-0.4667  plane waves:    2796
 k-point   845 :   0.0000 0.4000 0.4000  plane waves:    2808
 k-point   846 :   0.0667 0.4000 0.4000  plane waves:    2795
 k-point   847 :   0.0667-0.4000-0.4000  plane waves:    2795
 k-point   848 :   0.1333 0.4000 0.4000  plane waves:    2793
 k-point   849 :   0.1333-0.4000-0.4000  plane waves:    2793
 k-point   850 :   0.2000 0.4000 0.4000  plane waves:    2789
 k-point   851 :   0.2000-0.4000-0.4000  plane waves:    2789
 k-point   852 :   0.2667 0.4000 0.4000  plane waves:    2792
 k-point   853 :   0.2667-0.4000-0.4000  plane waves:    2792
 k-point   854 :   0.3333 0.4000 0.4000  plane waves:    2794
 k-point   855 :   0.3333-0.4000-0.4000  plane waves:    2794
 k-point   856 :   0.4000 0.4000 0.4000  plane waves:    2793
 k-point   857 :   0.4000-0.4000-0.4000  plane waves:    2793
 k-point   858 :   0.4667 0.4000 0.4000  plane waves:    2790
 k-point   859 :   0.4667-0.4000-0.4000  plane waves:    2790
 k-point   860 :   0.0000 0.4667 0.4000  plane waves:    2797
 k-point   861 :   0.0000-0.4000 0.4667  plane waves:    2797
 k-point   862 :   0.0667 0.4667 0.4000  plane waves:    2801
 k-point   863 :   0.0667-0.4000 0.4667  plane waves:    2801
 k-point   864 :   0.0667-0.4667-0.4000  plane waves:    2801
 k-point   865 :   0.0667 0.4000-0.4667  plane waves:    2801
 k-point   866 :   0.1333 0.4667 0.4000  plane waves:    2792
 k-point   867 :   0.1333-0.4000 0.4667  plane waves:    2792
 k-point   868 :   0.1333-0.4667-0.4000  plane waves:    2792
 k-point   869 :   0.1333 0.4000-0.4667  plane waves:    2792
 k-point   870 :   0.2000 0.4667 0.4000  plane waves:    2789
 k-point   871 :   0.2000-0.4000 0.4667  plane waves:    2789
 k-point   872 :   0.2000-0.4667-0.4000  plane waves:    2789
 k-point   873 :   0.2000 0.4000-0.4667  plane waves:    2789
 k-point   874 :   0.2667 0.4667 0.4000  plane waves:    2793
 k-point   875 :   0.2667-0.4000 0.4667  plane waves:    2793
 k-point   876 :   0.2667-0.4667-0.4000  plane waves:    2793
 k-point   877 :   0.2667 0.4000-0.4667  plane waves:    2793
 k-point   878 :   0.3333 0.4667 0.4000  plane waves:    2789
 k-point   879 :   0.3333-0.4000 0.4667  plane waves:    2789
 k-point   880 :   0.3333-0.4667-0.4000  plane waves:    2789
 k-point   881 :   0.3333 0.4000-0.4667  plane waves:    2789
 k-point   882 :   0.4000 0.4667 0.4000  plane waves:    2798
 k-point   883 :   0.4000-0.4000 0.4667  plane waves:    2798
 k-point   884 :   0.4000-0.4667-0.4000  plane waves:    2798
 k-point   885 :   0.4000 0.4000-0.4667  plane waves:    2798
 k-point   886 :   0.4667 0.4667 0.4000  plane waves:    2795
 k-point   887 :   0.4667-0.4000 0.4667  plane waves:    2795
 k-point   888 :   0.4667-0.4667-0.4000  plane waves:    2795
 k-point   889 :   0.4667 0.4000-0.4667  plane waves:    2795
 k-point   890 :   0.0000 0.4667 0.4667  plane waves:    2796
 k-point   891 :   0.0667 0.4667 0.4667  plane waves:    2799
 k-point   892 :   0.0667-0.4667-0.4667  plane waves:    2799
 k-point   893 :   0.1333 0.4667 0.4667  plane waves:    2798
 k-point   894 :   0.1333-0.4667-0.4667  plane waves:    2798
 k-point   895 :   0.2000 0.4667 0.4667  plane waves:    2790
 k-point   896 :   0.2000-0.4667-0.4667  plane waves:    2790
 k-point   897 :   0.2667 0.4667 0.4667  plane waves:    2793
 k-point   898 :   0.2667-0.4667-0.4667  plane waves:    2793
 k-point   899 :   0.3333 0.4667 0.4667  plane waves:    2794
 k-point   900 :   0.3333-0.4667-0.4667  plane waves:    2794
 k-point   901 :   0.4000 0.4667 0.4667  plane waves:    2796
 k-point   902 :   0.4000-0.4667-0.4667  plane waves:    2796
 k-point   903 :   0.4667 0.4667 0.4667  plane waves:    2790
 k-point   904 :   0.4667-0.4667-0.4667  plane waves:    2790

 maximum and minimum number of plane-waves per node :      2808     2748

 maximum number of plane-waves:      2808
 maximum index in each direction: 
   IXMAX=    8   IYMAX=    9   IZMAX=    9
   IXMIN=   -8   IYMIN=   -9   IZMIN=   -9


 serial   3D FFT for wavefunctions
 parallel 3D FFT for charge:
    minimum data exchange during FFTs selected (reduces bandwidth)


 total amount of memory used by VASP MPI-rank0   472855. kBytes
=======================================================================

   base                                    :      30000. kBytes
   nonlr-proj                              :        616. kBytes
   fftplans                                :      13060. kBytes
   grid                                    :      20134. kBytes
   one-center                              :          4. kBytes
   wavefun                                 :     409041. kBytes
 
     INWAV:  cpu time      0.0000: real time      0.0000
 Broyden mixing: mesh for mixing (old mesh)
   NGX = 17   NGY = 17   NGZ = 17
  (NGX  = 72   NGY  = 72   NGZ  = 72)
  gives a total of   4913 points

 initial charge density was supplied:
 charge density of overlapping atoms calculated
 number of electron      12.0000000 magnetization 
 keeping initial charge density in first step


--------------------------------------------------------------------------------------------------------


 Maximum index for non-local projection operator          2511
 Maximum index for augmentation-charges          6678 (set IRDMAX)


--------------------------------------------------------------------------------------------------------


 First call to EWALD:  gamma=   0.406
 Maximum number of real-space cells   3x   3x   3
 Maximum number of reciprocal cells   3x   3x   3

    FEWALD:  cpu time      0.0015: real time      0.0015


--------------------------------------- Ionic step        1  -------------------------------------------




--------------------------------------- Iteration      1(   1)  ---------------------------------------


    POTLOK:  cpu time      0.0206: real time      0.0206
    SETDIJ:  cpu time      0.0027: real time      0.0027
     EDDAV:  cpu time      8.9570: real time      8.9862
       DOS:  cpu time      0.0029: real time      0.0029
    --------------------------------------------
      LOOP:  cpu time      8.9832: real time      9.0124

 eigenvalue-minimisations  : 18080
 total energy-change (2. order) : 0.3429691E+02  (-0.6709248E+03)
 number of electron      12.0000000 magnetization 
 augmentation part       12.0000000 magnetization 

 Free energy of the ion-electron system (eV)
  ---------------------------------------------------
  alpha Z        PSCENC =         4.41855886
  Ewald energy   TEWEN  =      -262.58901287
  -Hartree energ DENC   =      -174.22290182
  -exchange      EXHF   =         0.00000000
  -V(xc)+E(xc)   XCENC  =        48.41849869
  PAW double counting   =       319.04650337     -380.66826624
  entropy T*S    EENTRO =        -0.00011617
  eigenvalues    EBANDS =      -331.20936698
  atomic energy  EATOM  =       811.10301397
  Solvation  Ediel_sol  =         0.00000000
  ---------------------------------------------------
  free energy    TOTEN  =        34.29691082 eV

  energy without entropy =       34.29702699  energy(sigma->0) =       34.29696890


--------------------------------------------------------------------------------------------------------




--------------------------------------- Iteration      1(   2)  ---------------------------------------


     EDDAV:  cpu time      9.2426: real time      9.2729
       DOS:  cpu time      0.0029: real time      0.0029
    --------------------------------------------
      LOOP:  cpu time      9.2455: real time      9.2758

 eigenvalue-minimisations  : 19030
 total energy-change (2. order) :-0.2881976E+02  (-0.2829507E+02)
 number of electron      12.0000000 magnetization 
 augmentation part       12.0000000 magnetization 

 Free energy of the ion-electron system (eV)
  ---------------------------------------------------
  alpha Z        PSCENC =         4.41855886
  Ewald energy   TEWEN  =      -262.58901287
  -Hartree energ DENC   =      -174.22290182
  -exchange      EXHF   =         0.00000000
  -V(xc)+E(xc)   XCENC  =        48.41849869
  PAW double counting   =       319.04650337     -380.66826624
  entropy T*S    EENTRO =        -0.00011781
  eigenvalues    EBANDS =      -360.02912612
  atomic energy  EATOM  =       811.10301397
  Solvation  Ediel_sol  =         0.00000000
  ---------------------------------------------------
  free energy    TOTEN  =         5.47715004 eV

  energy without entropy =        5.47726785  energy(sigma->0) =        5.47720894


--------------------------------------------------------------------------------------------------------




--------------------------------------- Iteration      1(   3)  ---------------------------------------


     EDDAV:  cpu time     14.8408: real time     14.8889
       DOS:  cpu time      0.0029: real time      0.0029
    --------------------------------------------
      LOOP:  cpu time     14.8437: real time     14.8919

 eigenvalue-minimisations  : 35558
 total energy-change (2. order) :-0.1145400E+02  (-0.1134608E+02)
 number of electron      12.0000000 magnetization 
 augmentation part       12.0000000 magnetization 

 Free energy of the ion-electron system (eV)
  ---------------------------------------------------
  alpha Z        PSCENC =         4.41855886
  Ewald energy   TEWEN  =      -262.58901287
  -Hartree energ DENC   =      -174.22290182
  -exchange      EXHF   =         0.00000000
  -V(xc)+E(xc)   XCENC  =        48.41849869
  PAW double counting   =       319.04650337     -380.66826624
  entropy T*S    EENTRO =        -0.00032680
  eigenvalues    EBANDS =      -371.48291827
  atomic energy  EATOM  =       811.10301397
  Solvation  Ediel_sol  =         0.00000000
  ---------------------------------------------------
  free energy    TOTEN  =        -5.97685110 eV

  energy without entropy =       -5.97652430  energy(sigma->0) =       -5.97668770


--------------------------------------------------------------------------------------------------------




--------------------------------------- Iteration      1(   4)  ---------------------------------------


     EDDAV:  cpu time     10.0653: real time     10.0983
       DOS:  cpu time      0.0031: real time      0.0031
    --------------------------------------------
      LOOP:  cpu time     10.0683: real time     10.1014

 eigenvalue-minimisations  : 20924
 total energy-change (2. order) :-0.5302282E+00  (-0.5294532E+00)
 number of electron      12.0000000 magnetization 
 augmentation part       12.0000000 magnetization 

 Free energy of the ion-electron system (eV)
  ---------------------------------------------------
  alpha Z        PSCENC =         4.41855886
  Ewald energy   TEWEN  =      -262.58901287
  -Hartree energ DENC   =      -174.22290182
  -exchange      EXHF   =         0.00000000
  -V(xc)+E(xc)   XCENC  =        48.41849869
  PAW double counting   =       319.04650337     -380.66826624
  entropy T*S    EENTRO =        -0.00024777
  eigenvalues    EBANDS =      -372.01322555
  atomic energy  EATOM  =       811.10301397
  Solvation  Ediel_sol  =         0.00000000
  ---------------------------------------------------
  free energy    TOTEN  =        -6.50707935 eV

  energy without entropy =       -6.50683158  energy(sigma->0) =       -6.50695547


--------------------------------------------------------------------------------------------------------




--------------------------------------- Iteration      1(   5)  ---------------------------------------


     EDDAV:  cpu time     13.1499: real time     13.1933
       DOS:  cpu time      0.0030: real time      0.0030
    CHARGE:  cpu time      0.8567: real time      0.8587
    MIXING:  cpu time      0.0044: real time      0.0044
    --------------------------------------------
      LOOP:  cpu time     14.0140: real time     14.0594

 eigenvalue-minimisations  : 30666
 total energy-change (2. order) :-0.5296737E-01  (-0.5295243E-01)
 number of electron      12.0000009 magnetization 
 augmentation part        3.7020908 magnetization 

 Broyden mixing:
  rms(total) = 0.53459E-01    rms(broyden)= 0.53387E-01
  rms(prec ) = 0.13598E+00
  weight for this iteration     100.00

 Free energy of the ion-electron system (eV)
  ---------------------------------------------------
  alpha Z        PSCENC =         4.41855886
  Ewald energy   TEWEN  =      -262.58901287
  -Hartree energ DENC   =      -174.22290182
  -exchange      EXHF   =         0.00000000
  -V(xc)+E(xc)   XCENC  =        48.41849869
  PAW double counting   =       319.04650337     -380.66826624
  entropy T*S    EENTRO =        -0.00025546
  eigenvalues    EBANDS =      -372.06618522
  atomic energy  EATOM  =       811.10301397
  Solvation  Ediel_sol  =         0.00000000
  ---------------------------------------------------
  free energy    TOTEN  =        -6.56004672 eV

  energy without entropy =       -6.55979126  energy(sigma->0) =       -6.55991899


--------------------------------------------------------------------------------------------------------




--------------------------------------- Iteration      1(   6)  ---------------------------------------


    POTLOK:  cpu time      0.0053: real time      0.0054
    SETDIJ:  cpu time      0.0026: real time      0.0026
     EDDAV:  cpu time     11.6728: real time     11.7148
       DOS:  cpu time      0.0030: real time      0.0030
    CHARGE:  cpu time      0.8563: real time      0.8582
    MIXING:  cpu time      0.0042: real time      0.0042
    --------------------------------------------
      LOOP:  cpu time     12.5442: real time     12.5882

 eigenvalue-minimisations  : 26040
 total energy-change (2. order) : 0.8496344E-02  (-0.1121154E-02)
 number of electron      12.0000009 magnetization 
 augmentation part        3.6928057 magnetization 

 Broyden mixing:
  rms(total) = 0.30954E-01    rms(broyden)= 0.30946E-01
  rms(prec ) = 0.83719E-01
  weight for this iteration     100.00

 eigenvalues of (default mixing * dielectric matrix)
  average eigenvalue GAMMA=   2.2318
  2.2318

 Free energy of the ion-electron system (eV)
  ---------------------------------------------------
  alpha Z        PSCENC =         4.41855886
  Ewald energy   TEWEN  =      -262.58901287
  -Hartree energ DENC   =      -172.98801197
  -exchange      EXHF   =         0.00000000
  -V(xc)+E(xc)   XCENC  =        48.33133181
  PAW double counting   =       320.97744499     -382.67195450
  entropy T*S    EENTRO =        -0.00024428
  eigenvalues    EBANDS =      -373.13267639
  atomic energy  EATOM  =       811.10301397
  Solvation  Ediel_sol  =         0.00000000
  ---------------------------------------------------
  free energy    TOTEN  =        -6.55155038 eV

  energy without entropy =       -6.55130610  energy(sigma->0) =       -6.55142824


--------------------------------------------------------------------------------------------------------




--------------------------------------- Iteration      1(   7)  ---------------------------------------


    POTLOK:  cpu time      0.0053: real time      0.0053
    SETDIJ:  cpu time      0.0025: real time      0.0025
     EDDAV:  cpu time     13.4998: real time     13.5429
       DOS:  cpu time      0.0029: real time      0.0029
    CHARGE:  cpu time      0.8559: real time      0.8578
    MIXING:  cpu time      0.0042: real time      0.0042
    --------------------------------------------
      LOOP:  cpu time     14.3707: real time     14.4158

 eigenvalue-minimisations  : 32024
 total energy-change (2. order) : 0.4797189E-02  (-0.1128750E-02)
 number of electron      12.0000009 magnetization 
 augmentation part        3.6725122 magnetization 

 Broyden mixing:
  rms(total) = 0.10226E-01    rms(broyden)= 0.10114E-01
  rms(prec ) = 0.14241E-01
  weight for this iteration     100.00

 eigenvalues of (default mixing * dielectric matrix)
  average eigenvalue GAMMA=   3.0988
  3.0988  3.0988

 Free energy of the ion-electron system (eV)
  ---------------------------------------------------
  alpha Z        PSCENC =         4.41855886
  Ewald energy   TEWEN  =      -262.58901287
  -Hartree energ DENC   =      -171.10074497
  -exchange      EXHF   =         0.00000000
  -V(xc)+E(xc)   XCENC  =        48.20564974
  PAW double counting   =       324.67019361     -386.48099607
  entropy T*S    EENTRO =        -0.00024012
  eigenvalues    EBANDS =      -374.77317533
  atomic energy  EATOM  =       811.10301397
  Solvation  Ediel_sol  =         0.00000000
  ---------------------------------------------------
  free energy    TOTEN  =        -6.54675319 eV

  energy without entropy =       -6.54651307  energy(sigma->0) =       -6.54663313


--------------------------------------------------------------------------------------------------------




--------------------------------------- Iteration      1(   8)  ---------------------------------------


    POTLOK:  cpu time      0.0054: real time      0.0060
    SETDIJ:  cpu time      0.0025: real time      0.0025
     EDDAV:  cpu time     10.2052: real time     10.2379
       DOS:  cpu time      0.0030: real time      0.0030
    CHARGE:  cpu time      0.8532: real time      0.8552
    MIXING:  cpu time      0.0042: real time      0.0042
    --------------------------------------------
      LOOP:  cpu time     11.0735: real time     11.1088

 eigenvalue-minimisations  : 21494
 total energy-change (2. order) :-0.5709154E-04  (-0.8013231E-04)
 number of electron      12.0000009 magnetization 
 augmentation part        3.6719608 magnetization 

 Broyden mixing:
  rms(total) = 0.26055E-02    rms(broyden)= 0.25770E-02
  rms(prec ) = 0.60693E-02
  weight for this iteration     100.00

 eigenvalues of (default mixing * dielectric matrix)
  average eigenvalue GAMMA=   2.0943
  1.1365  2.8556  2.2908

 Free energy of the ion-electron system (eV)
  ---------------------------------------------------
  alpha Z        PSCENC =         4.41855886
  Ewald energy   TEWEN  =      -262.58901287
  -Hartree energ DENC   =      -171.32529251
  -exchange      EXHF   =         0.00000000
  -V(xc)+E(xc)   XCENC  =        48.23895153
  PAW double counting   =       326.66678678     -388.45868561
  entropy T*S    EENTRO =        -0.00024174
  eigenvalues    EBANDS =      -374.60088868
  atomic energy  EATOM  =       811.10301397
  Solvation  Ediel_sol  =         0.00000000
  ---------------------------------------------------
  free energy    TOTEN  =        -6.54681028 eV

  energy without entropy =       -6.54656854  energy(sigma->0) =       -6.54668941


--------------------------------------------------------------------------------------------------------




--------------------------------------- Iteration      1(   9)  ---------------------------------------


    POTLOK:  cpu time      0.0053: real time      0.0053
    SETDIJ:  cpu time      0.0025: real time      0.0025
     EDDAV:  cpu time     11.9029: real time     11.9413
       DOS:  cpu time      0.0030: real time      0.0030
    CHARGE:  cpu time      0.8561: real time      0.8581
    MIXING:  cpu time      0.0043: real time      0.0043
    --------------------------------------------
      LOOP:  cpu time     12.7739: real time     12.8144

 eigenvalue-minimisations  : 26620
 total energy-change (2. order) : 0.9994283E-05  (-0.9872120E-05)
 number of electron      12.0000009 magnetization 
 augmentation part        3.6714934 magnetization 

 Broyden mixing:
  rms(total) = 0.68615E-03    rms(broyden)= 0.67345E-03
  rms(prec ) = 0.10685E-02
  weight for this iteration     100.00

 eigenvalues of (default mixing * dielectric matrix)
  average eigenvalue GAMMA=   1.8352
  2.8358  2.2635  1.3366  0.9050

 Free energy of the ion-electron system (eV)
  ---------------------------------------------------
  alpha Z        PSCENC =         4.41855886
  Ewald energy   TEWEN  =      -262.58901287
  -Hartree energ DENC   =      -171.17366657
  -exchange      EXHF   =         0.00000000
  -V(xc)+E(xc)   XCENC  =        48.22729487
  PAW double counting   =       326.74176921     -388.53955028
  entropy T*S    EENTRO =        -0.00024175
  eigenvalues    EBANDS =      -374.73496571
  atomic energy  EATOM  =       811.10301397
  Solvation  Ediel_sol  =         0.00000000
  ---------------------------------------------------
  free energy    TOTEN  =        -6.54680029 eV

  energy without entropy =       -6.54655853  energy(sigma->0) =       -6.54667941


--------------------------------------------------------------------------------------------------------




--------------------------------------- Iteration      1(  10)  ---------------------------------------


    POTLOK:  cpu time      0.0055: real time      0.0055
    SETDIJ:  cpu time      0.0025: real time      0.0025
     EDDAV:  cpu time     11.3977: real time     11.4346
       DOS:  cpu time      0.0029: real time      0.0029
    CHARGE:  cpu time      0.8534: real time      0.8554
    MIXING:  cpu time      0.0042: real time      0.0042
    --------------------------------------------
      LOOP:  cpu time     12.2662: real time     12.3051

 eigenvalue-minimisations  : 25376
 total energy-change (2. order) : 0.6628195E-06  (-0.1243052E-05)
 number of electron      12.0000009 magnetization 
 augmentation part        3.6712143 magnetization 

 Broyden mixing:
  rms(total) = 0.50038E-03    rms(broyden)= 0.49774E-03
  rms(prec ) = 0.69992E-03
  weight for this iteration     100.00

 eigenvalues of (default mixing * dielectric matrix)
  average eigenvalue GAMMA=   1.9724
  2.9254  2.9254  1.9935  1.1136  0.9041

 Free energy of the ion-electron system (eV)
  ---------------------------------------------------
  alpha Z        PSCENC =         4.41855886
  Ewald energy   TEWEN  =      -262.58901287
  -Hartree energ DENC   =      -171.18835008
  -exchange      EXHF   =         0.00000000
  -V(xc)+E(xc)   XCENC  =        48.22845345
  PAW double counting   =       326.76543673     -388.55681569
  entropy T*S    EENTRO =        -0.00024163
  eigenvalues    EBANDS =      -374.72784235
  atomic energy  EATOM  =       811.10301397
  Solvation  Ediel_sol  =         0.00000000
  ---------------------------------------------------
  free energy    TOTEN  =        -6.54679962 eV

  energy without entropy =       -6.54655799  energy(sigma->0) =       -6.54667881


--------------------------------------------------------------------------------------------------------




--------------------------------------- Iteration      1(  11)  ---------------------------------------


    POTLOK:  cpu time      0.0051: real time      0.0051
    SETDIJ:  cpu time      0.0025: real time      0.0025
     EDDAV:  cpu time      7.3529: real time      7.3768
       DOS:  cpu time      0.0030: real time      0.0030
    CHARGE:  cpu time      0.8543: real time      0.8563
    MIXING:  cpu time      0.0045: real time      0.0045
    --------------------------------------------
      LOOP:  cpu time      8.2224: real time      8.2483

 eigenvalue-minimisations  : 12040
 total energy-change (2. order) : 0.1609703E-05  (-0.4603644E-07)
 number of electron      12.0000009 magnetization 
 augmentation part        3.6712395 magnetization 

 Broyden mixing:
  rms(total) = 0.32716E-04    rms(broyden)= 0.31474E-04
  rms(prec ) = 0.62539E-04
  weight for this iteration     100.00

 eigenvalues of (default mixing * dielectric matrix)
  average eigenvalue GAMMA=   1.8259
  2.7200  2.7200  2.1252  1.2921  1.0490  1.0490

 Free energy of the ion-electron system (eV)
  ---------------------------------------------------
  alpha Z        PSCENC =         4.41855886
  Ewald energy   TEWEN  =      -262.58901287
  -Hartree energ DENC   =      -171.20334113
  -exchange      EXHF   =         0.00000000
  -V(xc)+E(xc)   XCENC  =        48.22998851
  PAW double counting   =       326.83497423     -388.62234136
  entropy T*S    EENTRO =        -0.00024161
  eigenvalues    EBANDS =      -374.71839663
  atomic energy  EATOM  =       811.10301397
  Solvation  Ediel_sol  =         0.00000000
  ---------------------------------------------------
  free energy    TOTEN  =        -6.54679802 eV

  energy without entropy =       -6.54655641  energy(sigma->0) =       -6.54667721


--------------------------------------------------------------------------------------------------------




--------------------------------------- Iteration      1(  12)  ---------------------------------------


    POTLOK:  cpu time      0.0054: real time      0.0055
    SETDIJ:  cpu time      0.0025: real time      0.0025
     EDDAV:  cpu time      6.4789: real time      6.5008
       DOS:  cpu time      0.0030: real time      0.0030
    --------------------------------------------
      LOOP:  cpu time      6.4899: real time      6.5117

 eigenvalue-minimisations  : 10178
 total energy-change (2. order) :-0.1148788E-06  (-0.1327125E-07)
 number of electron      12.0000009 magnetization 
 augmentation part        3.6712395 magnetization 

 Free energy of the ion-electron system (eV)
  ---------------------------------------------------
  alpha Z        PSCENC =         4.41855886
  Ewald energy   TEWEN  =      -262.58901287
  -Hartree energ DENC   =      -171.20266771
  -exchange      EXHF   =         0.00000000
  -V(xc)+E(xc)   XCENC  =        48.22989926
  PAW double counting   =       326.83303645     -388.62053025
  entropy T*S    EENTRO =        -0.00024162
  eigenvalues    EBANDS =      -374.71885421
  atomic energy  EATOM  =       811.10301397
  Solvation  Ediel_sol  =         0.00000000
  ---------------------------------------------------
  free energy    TOTEN  =        -6.54679813 eV

  energy without entropy =       -6.54655651  energy(sigma->0) =       -6.54667732


--------------------------------------------------------------------------------------------------------




 average (electrostatic) potential at core
  the test charge radii are     0.7079
  (the norm of the test charge is              1.0000)
       1 -65.5366       2 -65.5380       3 -65.5366       4 -65.5380
 
 
 
 E-fermi :   0.7813     XC(G=0):  -6.9681     alpha+bet : -7.1778

 val. band max:        0.7811921094   @ k =   0.0667   0.2000   0.0000
 cond. band min:       0.7875161203   @ k =   0.0000  -0.0667   0.2000
 fundamental gap:      0.0063240109
 Fermi energy:         0.7812942259

 k-point     1 :       0.0000    0.0000    0.0000
  band No.  band energies     occupation 
      1     -46.4727      2.00000
      2     -46.4277      2.00000
      3     -46.4204      2.00000
      4     -46.4155      2.00000
      5      -2.9289      2.00000
      6       2.6903      0.00000
      7       2.8165      0.00000
      8       2.8473      0.00000
      9       2.9305      0.00000
     10       3.3585      0.00000

 k-point     2 :       0.0667    0.0000    0.0000
  band No.  band energies     occupation 
      1     -46.4722      2.00000
      2     -46.4279      2.00000
      3     -46.4211      2.00000
      4     -46.4151      2.00000
      5      -2.9010      2.00000
      6       2.6242      0.00000
      7       2.7004      0.00000
      8       2.8091      0.00000
      9       2.9288      0.00000
     10       2.9657      0.00000

 k-point     3 :       0.1333    0.0000    0.0000
  band No.  band energies     occupation 
      1     -46.4709      2.00000
      2     -46.4288      2.00000
      3     -46.4222      2.00000
      4     -46.4144      2.00000
      5      -2.8176      2.00000
      6       1.8758      0.00000
      7       2.7228      0.00000
      8       2.8286      0.00000
      9       3.0332      0.00000
     10       3.0681      0.00000

 k-point     4 :       0.2000    0.0000    0.0000
  band No.  band energies     occupation 
      1     -46.4688      2.00000
      2     -46.4311      2.00000
      3     -46.4224      2.00000
      4     -46.4140      2.00000
      5      -2.6781      2.00000
      6       1.1632      0.00000
      7       2.7642      0.00000
      8       2.8776      0.00000
      9       3.1974      0.00000
     10       3.2332      0.00000

 k-point     5 :       0.2667    0.0000    0.0000
  band No.  band energies     occupation 
      1     -46.4659      2.00000
      2     -46.4345      2.00000
      3     -46.4218      2.00000
      4     -46.4140      2.00000
      5      -2.4823      2.00000
      6       0.5040      2.00000
      7       2.8187      0.00000
      8       2.9448      0.00000
      9       3.4096      0.00000
     10       3.4540      0.00000

 k-point     6 :       0.3333    0.0000    0.0000
  band No.  band energies     occupation 
      1     -46.4625      2.00000
      2     -46.4385      2.00000
      3     -46.4206      2.00000
      4     -46.4145      2.00000
      5      -2.2298      2.00000
      6      -0.0981      2.00000
      7       2.8771      0.00000
      8       3.0170      0.00000
      9       3.6579      0.00000
     10       3.7194      0.00000

 k-point     7 :       0.4000    0.0000    0.0000
  band No.  band energies     occupation 
      1     -46.4587      2.00000
      2     -46.4427      2.00000
      3     -46.4192      2.00000
      4     -46.4153      2.00000
      5      -1.9200      2.00000
      6      -0.6416      2.00000
      7       2.9268      0.00000
      8       3.0787      0.00000
      9       3.9186      0.00000
     10       3.9951      0.00000

 k-point     8 :       0.4667    0.0000    0.0000
  band No.  band energies     occupation 
      1     -46.4554      2.00000
      2     -46.4462      2.00000
      3     -46.4178      2.00000
      4     -46.4164      2.00000
      5      -1.5524      2.00000
      6      -1.1263      2.00000
      7       2.9556      0.00000
      8       3.1146      0.00000
      9       4.1278      0.00000
     10       4.1873      0.00000

 k-point     9 :       0.0000    0.0667    0.0000
  band No.  band energies     occupation 
      1     -46.4722      2.00000
      2     -46.4285      2.00000
      3     -46.4203      2.00000
      4     -46.4153      2.00000
      5      -2.9036      2.00000
      6       2.0908      0.00000
      7       2.7940      0.00000
      8       2.8643      0.00000
      9       3.3279      0.00000
     10       3.5872      0.00000

 k-point    10 :       0.0000    0.0000    0.0667
  band No.  band energies     occupation 
      1     -46.4722      2.00000
      2     -46.4288      2.00000
      3     -46.4200      2.00000
      4     -46.4152      2.00000
      5      -2.9037      2.00000
      6       2.1135      0.00000
      7       2.7444      0.00000
      8       2.8593      0.00000
      9       3.3729      0.00000
     10       3.4961      0.00000

 k-point    11 :       0.0667    0.0667    0.0000
  band No.  band energies     occupation 
      1     -46.4718      2.00000
      2     -46.4287      2.00000
      3     -46.4209      2.00000
      4     -46.4149      2.00000
      5      -2.8759      2.00000
      6       2.1010      0.00000
      7       2.6592      0.00000
      8       2.8327      0.00000
      9       2.9107      0.00000
     10       3.5786      0.00000

 k-point    12 :       0.0667    0.0000    0.0667
  band No.  band energies     occupation 
      1     -46.4719      2.00000
      2     -46.4280      2.00000
      3     -46.4220      2.00000
      4     -46.4144      2.00000
      5      -2.8760      2.00000
      6       2.1137      0.00000
      7       2.6813      0.00000
      8       2.7800      0.00000
      9       2.8900      0.00000
     10       3.6214      0.00000

 k-point    13 :       0.0667    0.0000   -0.0667
  band No.  band energies     occupation 
      1     -46.4718      2.00000
      2     -46.4297      2.00000
      3     -46.4193      2.00000
      4     -46.4156      2.00000
      5      -2.8759      2.00000
      6       2.1226      0.00000
      7       2.6935      0.00000
      8       2.7659      0.00000
      9       2.8947      0.00000
     10       3.5983      0.00000

 k-point    14 :       0.1333    0.0667    0.0000
  band No.  band energies     occupation 
      1     -46.4705      2.00000
      2     -46.4294      2.00000
      3     -46.4221      2.00000
      4     -46.4143      2.00000
      5      -2.7925      2.00000
      6       1.8529      0.00000
      7       2.2440      0.00000
      8       2.8661      0.00000
      9       2.9693      0.00000
     10       3.6482      0.00000

 k-point    15 :       0.1333    0.0000    0.0667
  band No.  band energies     occupation 
      1     -46.4707      2.00000
      2     -46.4274      2.00000
      3     -46.4246      2.00000
      4     -46.4136      2.00000
      5      -2.7926      2.00000
      6       1.8390      0.00000
      7       2.2807      0.00000
      8       2.8526      0.00000
      9       2.9229      0.00000
     10       3.6942      0.00000

 k-point    16 :       0.1333    0.0000   -0.0667
  band No.  band energies     occupation 
      1     -46.4704      2.00000
      2     -46.4310      2.00000
      3     -46.4198      2.00000
      4     -46.4151      2.00000
      5      -2.7925      2.00000
      6       1.8496      0.00000
      7       2.2973      0.00000
      8       2.7850      0.00000
      9       2.9685      0.00000
     10       3.6754      0.00000

 k-point    17 :       0.2000    0.0667    0.0000
  band No.  band energies     occupation 
      1     -46.4684      2.00000
      2     -46.4314      2.00000
      3     -46.4225      2.00000
      4     -46.4139      2.00000
      5      -2.6530      2.00000
      6       1.1747      0.00000
      7       2.3184      0.00000
      8       2.9282      0.00000
      9       3.0881      0.00000
     10       3.7620      0.00000

 k-point    18 :       0.2000    0.0000    0.0667
  band No.  band energies     occupation 
      1     -46.4686      2.00000
      2     -46.4293      2.00000
      3     -46.4251      2.00000
      4     -46.4132      2.00000
      5      -2.6531      2.00000
      6       1.1690      0.00000
      7       2.3419      0.00000
      8       2.9576      0.00000
      9       3.0045      0.00000
     10       3.8112      0.00000

 k-point    19 :       0.2000    0.0000   -0.0667
  band No.  band energies     occupation 
      1     -46.4682      2.00000
      2     -46.4331      2.00000
      3     -46.4202      2.00000
      4     -46.4147      2.00000
      5      -2.6530      2.00000
      6       1.1746      0.00000
      7       2.3735      0.00000
      8       2.8372      0.00000
      9       3.0904      0.00000
     10       3.7904      0.00000

 k-point    20 :       0.2667    0.0667    0.0000
  band No.  band energies     occupation 
      1     -46.4656      2.00000
      2     -46.4346      2.00000
      3     -46.4219      2.00000
      4     -46.4140      2.00000
      5      -2.4574      2.00000
      6       0.5224      2.00000
      7       2.4469      0.00000
      8       2.9933      0.00000
      9       3.2580      0.00000
     10       3.9115      0.00000

 k-point    21 :       0.2667    0.0000    0.0667
  band No.  band energies     occupation 
      1     -46.4659      2.00000
      2     -46.4331      2.00000
      3     -46.4238      2.00000
      4     -46.4133      2.00000
      5      -2.4575      2.00000
      6       0.5193      2.00000
      7       2.4603      0.00000
      8       3.0408      0.00000
      9       3.1640      0.00000
     10       3.9636      0.00000

 k-point    22 :       0.2667    0.0000   -0.0667
  band No.  band energies     occupation 
      1     -46.4653      2.00000
      2     -46.4361      2.00000
      3     -46.4200      2.00000
      4     -46.4148      2.00000
      5      -2.4574      2.00000
      6       0.5225      2.00000
      7       2.5113      0.00000
      8       2.8939      0.00000
      9       3.2607      0.00000
     10       3.9377      0.00000

 k-point    23 :       0.3333    0.0667    0.0000
  band No.  band energies     occupation 
      1     -46.4621      2.00000
      2     -46.4385      2.00000
      3     -46.4208      2.00000
      4     -46.4146      2.00000
      5      -2.2050      2.00000
      6      -0.0768      2.00000
      7       2.5932      0.00000
      8       3.0412      0.00000
      9       3.4762      0.00000
     10       4.0754      0.00000

 k-point    24 :       0.3333    0.0000    0.0667
  band No.  band energies     occupation 
      1     -46.4625      2.00000
      2     -46.4374      2.00000
      3     -46.4223      2.00000
      4     -46.4138      2.00000
      5      -2.2051      2.00000
      6      -0.0786      2.00000
      7       2.5950      0.00000
      8       3.0957      0.00000
      9       3.3845      0.00000
     10       4.1282      0.00000

 k-point    25 :       0.3333    0.0000   -0.0667
  band No.  band energies     occupation 
      1     -46.4618      2.00000
      2     -46.4397      2.00000
      3     -46.4192      2.00000
      4     -46.4153      2.00000
      5      -2.2050      2.00000
      6      -0.0767      2.00000
      7       2.6707      0.00000
      8       2.9369      0.00000
      9       3.4781      0.00000
     10       4.0917      0.00000

 k-point    26 :       0.4000    0.0667    0.0000
  band No.  band energies     occupation 
      1     -46.4584      2.00000
      2     -46.4426      2.00000
      3     -46.4194      2.00000
      4     -46.4154      2.00000
      5      -1.8954      2.00000
      6      -0.6188      2.00000
      7       2.7361      0.00000
      8       3.0541      0.00000
      9       3.7313      0.00000
     10       4.1981      0.00000

 k-point    27 :       0.4000    0.0000    0.0667
  band No.  band energies     occupation 
      1     -46.4589      2.00000
      2     -46.4418      2.00000
      3     -46.4207      2.00000
      4     -46.4146      2.00000
      5      -1.8956      2.00000
      6      -0.6199      2.00000
      7       2.7269      0.00000
      8       3.1093      0.00000
      9       3.6452      0.00000
     10       4.2451      0.00000

 k-point    28 :       0.4000    0.0000   -0.0667
  band No.  band energies     occupation 
      1     -46.4581      2.00000
      2     -46.4435      2.00000
      3     -46.4181      2.00000
      4     -46.4163      2.00000
      5      -1.8956      2.00000
      6      -0.6189      2.00000
      7       2.8307      0.00000
      8       2.9482      0.00000
      9       3.7331      0.00000
     10       4.1897      0.00000

 k-point    29 :       0.4667    0.0667    0.0000
  band No.  band energies     occupation 
      1     -46.4551      2.00000
      2     -46.4461      2.00000
      3     -46.4180      2.00000
      4     -46.4166      2.00000
      5      -1.5281      2.00000
      6      -1.1026      2.00000
      7       2.8437      0.00000
      8       3.0328      0.00000
      9       3.9901      0.00000
     10       4.1810      0.00000

 k-point    30 :       0.4667    0.0000    0.0667
  band No.  band energies     occupation 
      1     -46.4555      2.00000
      2     -46.4457      2.00000
      3     -46.4190      2.00000
      4     -46.4157      2.00000
      5      -1.5283      2.00000
      6      -1.1033      2.00000
      7       2.8390      0.00000
      8       3.0673      0.00000
      9       3.9130      0.00000
     10       4.2129      0.00000

 k-point    31 :       0.4667    0.0000   -0.0667
  band No.  band energies     occupation 
      1     -46.4549      2.00000
      2     -46.4465      2.00000
      3     -46.4175      2.00000
      4     -46.4169      2.00000
      5      -1.5285      2.00000
      6      -1.1028      2.00000
      7       2.9158      0.00000
      8       2.9698      0.00000
      9       3.9899      0.00000
     10       4.1442      0.00000

 k-point    32 :       0.0000    0.1333    0.0000
  band No.  band energies     occupation 
      1     -46.4710      2.00000
      2     -46.4306      2.00000
      3     -46.4199      2.00000
      4     -46.4147      2.00000
      5      -2.8283      2.00000
      6       1.4035      0.00000
      7       2.8255      0.00000
      8       2.9118      0.00000
      9       3.4237      0.00000
     10       3.6411      0.00000

 k-point    33 :       0.0000    0.0000    0.1333
  band No.  band energies     occupation 
      1     -46.4711      2.00000
      2     -46.4314      2.00000
      3     -46.4192      2.00000
      4     -46.4145      2.00000
      5      -2.8284      2.00000
      6       1.4194      0.00000
      7       2.7810      0.00000
      8       2.9049      0.00000
      9       3.4386      0.00000
     10       3.6177      0.00000

 k-point    34 :       0.0667    0.1333    0.0000
  band No.  band energies     occupation 
      1     -46.4706      2.00000
      2     -46.4307      2.00000
      3     -46.4205      2.00000
      4     -46.4145      2.00000
      5      -2.8005      2.00000
      6       1.4215      0.00000
      7       2.7005      0.00000
      8       2.9134      0.00000
      9       2.9455      0.00000
     10       4.1009      0.00000

 k-point    35 :       0.0667    0.0000    0.1333
  band No.  band energies     occupation 
      1     -46.4708      2.00000
      2     -46.4303      2.00000
      3     -46.4215      2.00000
      4     -46.4135      2.00000
      5      -2.8007      2.00000
      6       1.4343      0.00000
      7       2.6972      0.00000
      8       2.8526      0.00000
      9       2.9466      0.00000
     10       4.1663      0.00000

 k-point    36 :       0.0667    0.0000   -0.1333
  band No.  band energies     occupation 
      1     -46.4705      2.00000
      2     -46.4324      2.00000
      3     -46.4177      2.00000
      4     -46.4156      2.00000
      5      -2.8005      2.00000
      6       1.4364      0.00000
      7       2.7366      0.00000
      8       2.8406      0.00000
      9       2.9441      0.00000
     10       4.0612      0.00000

 k-point    37 :       0.1333    0.1333    0.0000
  band No.  band energies     occupation 
      1     -46.4693      2.00000
      2     -46.4313      2.00000
      3     -46.4216      2.00000
      4     -46.4141      2.00000
      5      -2.7171      2.00000
      6       1.4468      0.00000
      7       2.0571      0.00000
      8       2.9141      0.00000
      9       3.0079      0.00000
     10       4.2441      0.00000

 k-point    38 :       0.1333    0.0000    0.1333
  band No.  band energies     occupation 
      1     -46.4697      2.00000
      2     -46.4292      2.00000
      3     -46.4245      2.00000
      4     -46.4129      2.00000
      5      -2.7174      2.00000
      6       1.4478      0.00000
      7       2.0677      0.00000
      8       2.8993      0.00000
      9       2.9674      0.00000
     10       4.3212      0.00000

 k-point    39 :       0.1333    0.0000   -0.1333
  band No.  band energies     occupation 
      1     -46.4692      2.00000
      2     -46.4337      2.00000
      3     -46.4177      2.00000
      4     -46.4157      2.00000
      5      -2.7172      2.00000
      6       1.4486      0.00000
      7       2.1046      0.00000
      8       2.8255      0.00000
      9       3.0145      0.00000
     10       4.2461      0.00000

 k-point    40 :       0.2000    0.1333    0.0000
  band No.  band energies     occupation 
      1     -46.4672      2.00000
      2     -46.4327      2.00000
      3     -46.4224      2.00000
      4     -46.4139      2.00000
      5      -2.5778      2.00000
      6       1.1666      0.00000
      7       1.7619      0.00000
      8       2.9645      0.00000
      9       3.1224      0.00000
     10       4.2954      0.00000

 k-point    41 :       0.2000    0.0000    0.1333
  band No.  band energies     occupation 
      1     -46.4678      2.00000
      2     -46.4287      2.00000
      3     -46.4271      2.00000
      4     -46.4126      2.00000
      5      -2.5782      2.00000
      6       1.1516      0.00000
      7       1.7905      0.00000
      8       2.9944      0.00000
      9       3.0391      0.00000
     10       4.3754      0.00000

 k-point    42 :       0.2000    0.0000   -0.1333
  band No.  band energies     occupation 
      1     -46.4669      2.00000
      2     -46.4355      2.00000
      3     -46.4183      2.00000
      4     -46.4155      2.00000
      5      -2.5779      2.00000
      6       1.1532      0.00000
      7       1.8237      0.00000
      8       2.8699      0.00000
      9       3.1300      0.00000
     10       4.3126      0.00000

 k-point    43 :       0.2667    0.1333    0.0000
  band No.  band energies     occupation 
      1     -46.4645      2.00000
      2     -46.4353      2.00000
      3     -46.4222      2.00000
      4     -46.4142      2.00000
      5      -2.3825      2.00000
      6       0.5698      2.00000
      7       1.8747      0.00000
      8       3.0081      0.00000
      9       3.2786      0.00000
     10       4.3139      0.00000

 k-point    44 :       0.2667    0.0000    0.1333
  band No.  band energies     occupation 
      1     -46.4652      2.00000
      2     -46.4323      2.00000
      3     -46.4259      2.00000
      4     -46.4128      2.00000
      5      -2.3829      2.00000
      6       0.5613      2.00000
      7       1.8965      0.00000
      8       3.0615      0.00000
      9       3.1740      0.00000
     10       4.3909      0.00000

 k-point    45 :       0.2667    0.0000   -0.1333
  band No.  band energies     occupation 
      1     -46.4641      2.00000
      2     -46.4379      2.00000
      3     -46.4186      2.00000
      4     -46.4156      2.00000
      5      -2.3827      2.00000
      6       0.5645      2.00000
      7       1.9323      0.00000
      8       2.9095      0.00000
      9       3.2857      0.00000
     10       4.3311      0.00000

 k-point    46 :       0.3333    0.1333    0.0000
  band No.  band energies     occupation 
      1     -46.4612      2.00000
      2     -46.4387      2.00000
      3     -46.4214      2.00000
      4     -46.4148      2.00000
      5      -2.1305      2.00000
      6      -0.0155      2.00000
      7       2.0667      0.00000
      8       3.0072      0.00000
      9       3.4709      0.00000
     10       4.2939      0.00000

 k-point    47 :       0.3333    0.0000    0.1333
  band No.  band energies     occupation 
      1     -46.4621      2.00000
      2     -46.4365      2.00000
      3     -46.4242      2.00000
      4     -46.4133      2.00000
      5      -2.1312      2.00000
      6      -0.0205      2.00000
      7       2.0825      0.00000
      8       3.0728      0.00000
      9       3.3561      0.00000
     10       4.3537      0.00000

 k-point    48 :       0.3333    0.0000   -0.1333
  band No.  band energies     occupation 
      1     -46.4606      2.00000
      2     -46.4410      2.00000
      3     -46.4183      2.00000
      4     -46.4162      2.00000
      5      -2.1309      2.00000
      6      -0.0182      2.00000
      7       2.1294      0.00000
      8       2.9136      0.00000
      9       3.4761      0.00000
     10       4.2884      0.00000

 k-point    49 :       0.4000    0.1333    0.0000
  band No.  band energies     occupation 
      1     -46.4576      2.00000
      2     -46.4425      2.00000
      3     -46.4201      2.00000
      4     -46.4159      2.00000
      5      -1.8217      2.00000
      6      -0.5515      2.00000
      7       2.2900      0.00000
      8       2.9293      0.00000
      9       3.6882      0.00000
     10       4.2286      0.00000

 k-point    50 :       0.4000    0.0000    0.1333
  band No.  band energies     occupation 
      1     -46.4586      2.00000
      2     -46.4409      2.00000
      3     -46.4224      2.00000
      4     -46.4142      2.00000
      5      -1.8226      2.00000
      6      -0.5546      2.00000
      7       2.2988      0.00000
      8       2.9998      0.00000
      9       3.5654      0.00000
     10       4.2625      0.00000

 k-point    51 :       0.4000    0.0000   -0.1333
  band No.  band energies     occupation 
      1     -46.4569      2.00000
      2     -46.4443      2.00000
      3     -46.4179      2.00000
      4     -46.4169      2.00000
      5      -1.8224      2.00000
      6      -0.5533      2.00000
      7       2.3636      0.00000
      8       2.8524      0.00000
      9       3.6897      0.00000
     10       4.1777      0.00000

 k-point    52 :       0.4667    0.1333    0.0000
  band No.  band energies     occupation 
      1     -46.4544      2.00000
      2     -46.4458      2.00000
      3     -46.4186      2.00000
      4     -46.4171      2.00000
      5      -1.4556      2.00000
      6      -1.0319      2.00000
      7       2.5108      0.00000
      8       2.7812      0.00000
      9       3.9089      0.00000
     10       4.1017      0.00000

 k-point    53 :       0.4667    0.0000    0.1333
  band No.  band energies     occupation 
      1     -46.4553      2.00000
      2     -46.4449      2.00000
      3     -46.4205      2.00000
      4     -46.4152      2.00000
      5      -1.4567      2.00000
      6      -1.0339      2.00000
      7       2.5193      0.00000
      8       2.8356      0.00000
      9       3.7839      0.00000
     10       4.1189      0.00000

 k-point    54 :       0.4667    0.0000   -0.1333
  band No.  band energies     occupation 
      1     -46.4542      2.00000
      2     -46.4465      2.00000
      3     -46.4189      2.00000
      4     -46.4163      2.00000
      5      -1.4568      2.00000
      6      -1.0333      2.00000
      7       2.6082      0.00000
      8       2.7163      0.00000
      9       3.8948      0.00000
     10       4.0213      0.00000

 k-point    55 :       0.0000    0.2000    0.0000
  band No.  band energies     occupation 
      1     -46.4690      2.00000
      2     -46.4337      2.00000
      3     -46.4193      2.00000
      4     -46.4142      2.00000
      5      -2.7025      2.00000
      6       0.7595      1.87656
      7       2.8763      0.00000
      8       2.9799      0.00000
      9       3.5536      0.00000
     10       3.7375      0.00000

 k-point    56 :       0.0000    0.0000    0.2000
  band No.  band energies     occupation 
      1     -46.4693      2.00000
      2     -46.4348      2.00000
      3     -46.4186      2.00000
      4     -46.4136      2.00000
      5      -2.7026      2.00000
      6       0.7706      1.55180
      7       2.8359      0.00000
      8       2.9733      0.00000
      9       3.5487      0.00000
     10       3.7369      0.00000

 k-point    57 :       0.0667    0.2000    0.0000
  band No.  band energies     occupation 
      1     -46.4686      2.00000
      2     -46.4338      2.00000
      3     -46.4198      2.00000
      4     -46.4141      2.00000
      5      -2.6748      2.00000
      6       0.7812      1.00576
      7       2.7632      0.00000
      8       2.9965      0.00000
      9       3.0510      0.00000
     10       4.2738      0.00000

 k-point    58 :       0.0667    0.0000    0.2000
  band No.  band energies     occupation 
      1     -46.4691      2.00000
      2     -46.4338      2.00000
      3     -46.4206      2.00000
      4     -46.4128      2.00000
      5      -2.6750      2.00000
      6       0.7911      0.48749
      7       2.7354      0.00000
      8       2.9622      0.00000
      9       3.0459      0.00000
     10       4.3497      0.00000

 k-point    59 :       0.0667    0.0000   -0.2000
  band No.  band energies     occupation 
      1     -46.4686      2.00000
      2     -46.4358      2.00000
      3     -46.4170      2.00000
      4     -46.4148      2.00000
      5      -2.6748      2.00000
      6       0.7912      0.48295
      7       2.8034      0.00000
      8       2.9149      0.00000
      9       3.0659      0.00000
     10       4.2023      0.00000

 k-point    60 :       0.1333    0.2000    0.0000
  band No.  band energies     occupation 
      1     -46.4674      2.00000
      2     -46.4340      2.00000
      3     -46.4210      2.00000
      4     -46.4139      2.00000
      5      -2.5914      2.00000
      6       0.8387      0.00005
      7       2.1458      0.00000
      8       2.9771      0.00000
      9       3.0835      0.00000
     10       4.5608      0.00000

 k-point    61 :       0.1333    0.0000    0.2000
  band No.  band energies     occupation 
      1     -46.4681      2.00000
      2     -46.4327      2.00000
      3     -46.4232      2.00000
      4     -46.4123      2.00000
      5      -2.5919      2.00000
      6       0.8447      0.00001
      7       2.1357      0.00000
      8       2.9955      0.00000
      9       3.0249      0.00000
     10       4.6675      0.00000

 k-point    62 :       0.1333    0.0000   -0.2000
  band No.  band energies     occupation 
      1     -46.4672      2.00000
      2     -46.4369      2.00000
      3     -46.4162      2.00000
      4     -46.4160      2.00000
      5      -2.5915      2.00000
      6       0.8429      0.00001
      7       2.1950      0.00000
      8       2.8755      0.00000
      9       3.1035      0.00000
     10       4.5043      0.00000

 k-point    63 :       0.2000    0.2000    0.0000
  band No.  band energies     occupation 
      1     -46.4654      2.00000
      2     -46.4348      2.00000
      3     -46.4220      2.00000
      4     -46.4140      2.00000
      5      -2.4524      2.00000
      6       0.8738      0.00000
      7       1.5553      0.00000
      8       2.9977      0.00000
      9       3.2007      0.00000
     10       4.5428      0.00000

 k-point    64 :       0.2000    0.0000    0.2000
  band No.  band energies     occupation 
      1     -46.4663      2.00000
      2     -46.4319      2.00000
      3     -46.4258      2.00000
      4     -46.4122      2.00000
      5      -2.4531      2.00000
      6       0.8678      0.00000
      7       1.5641      0.00000
      8       3.0522      0.00000
      9       3.1080      0.00000
     10       4.6391      0.00000

 k-point    65 :       0.2000    0.0000   -0.2000
  band No.  band energies     occupation 
      1     -46.4650      2.00000
      2     -46.4382      2.00000
      3     -46.4171      2.00000
      4     -46.4159      2.00000
      5      -2.4526      2.00000
      6       0.8577      0.00000
      7       1.6192      0.00000
      8       2.8974      0.00000
      9       3.2185      0.00000
     10       4.5157      0.00000

 k-point    66 :       0.2667    0.2000    0.0000
  band No.  band energies     occupation 
      1     -46.4627      2.00000
      2     -46.4364      2.00000
      3     -46.4224      2.00000
      4     -46.4145      2.00000
      5      -2.2575      2.00000
      6       0.5965      2.00000
      7       1.3684      0.00000
      8       2.9848      0.00000
      9       3.3580      0.00000
     10       4.4090      0.00000

 k-point    67 :       0.2667    0.0000    0.2000
  band No.  band energies     occupation 
      1     -46.4639      2.00000
      2     -46.4328      2.00000
      3     -46.4270      2.00000
      4     -46.4125      2.00000
      5      -2.2585      2.00000
      6       0.5814      2.00000
      7       1.3895      0.00000
      8       3.0527      0.00000
      9       3.2545      0.00000
     10       4.4762      0.00000

 k-point    68 :       0.2667    0.0000   -0.2000
  band No.  band energies     occupation 
      1     -46.4622      2.00000
      2     -46.4400      2.00000
      3     -46.4178      2.00000
      4     -46.4161      2.00000
      5      -2.2580      2.00000
      6       0.5739      2.00000
      7       1.4392      0.00000
      8       2.8900      0.00000
      9       3.3740      0.00000
     10       4.3841      0.00000

 k-point    69 :       0.3333    0.2000    0.0000
  band No.  band energies     occupation 
      1     -46.4596      2.00000
      2     -46.4391      2.00000
      3     -46.4220      2.00000
      4     -46.4154      2.00000
      5      -2.0065      2.00000
      6       0.0745      2.00000
      7       1.5243      0.00000
      8       2.8807      0.00000
      9       3.5472      0.00000
     10       4.2810      0.00000

 k-point    70 :       0.3333    0.0000    0.2000
  band No.  band energies     occupation 
      1     -46.4610      2.00000
      2     -46.4360      2.00000
      3     -46.4259      2.00000
      4     -46.4131      2.00000
      5      -2.0079      2.00000
      6       0.0649      2.00000
      7       1.5405      0.00000
      8       2.9578      0.00000
      9       3.4310      0.00000
     10       4.3184      0.00000

 k-point    71 :       0.3333    0.0000   -0.2000
  band No.  band energies     occupation 
      1     -46.4588      2.00000
      2     -46.4424      2.00000
      3     -46.4183      2.00000
      4     -46.4165      2.00000
      5      -2.0073      2.00000
      6       0.0634      2.00000
      7       1.5872      0.00000
      8       2.8056      0.00000
      9       3.5610      0.00000
     10       4.2253      0.00000

 k-point    72 :       0.4000    0.2000    0.0000
  band No.  band energies     occupation 
      1     -46.4562      2.00000
      2     -46.4423      2.00000
      3     -46.4209      2.00000
      4     -46.4166      2.00000
      5      -1.6992      2.00000
      6      -0.4434      2.00000
      7       1.7709      0.00000
      8       2.6665      0.00000
      9       3.7536      0.00000
     10       4.1979      0.00000

 k-point    73 :       0.4000    0.0000    0.2000
  band No.  band energies     occupation 
      1     -46.4579      2.00000
      2     -46.4400      2.00000
      3     -46.4242      2.00000
      4     -46.4140      2.00000
      5      -1.7012      2.00000
      6      -0.4493      2.00000
      7       1.7820      0.00000
      8       2.7416      0.00000
      9       3.6223      0.00000
     10       4.2187      0.00000

 k-point    74 :       0.4000    0.0000   -0.2000
  band No.  band energies     occupation 
      1     -46.4554      2.00000
      2     -46.4449      2.00000
      3     -46.4192      2.00000
      4     -46.4166      2.00000
      5      -1.7005      2.00000
      6      -0.4497      2.00000
      7       1.8360      0.00000
      8       2.6187      0.00000
      9       3.7638      0.00000
     10       4.0963      0.00000

 k-point    75 :       0.4667    0.2000    0.0000
  band No.  band energies     occupation 
      1     -46.4532      2.00000
      2     -46.4453      2.00000
      3     -46.4195      2.00000
      4     -46.4180      2.00000
      5      -1.3356      2.00000
      6      -0.9159      2.00000
      7       2.0513      0.00000
      8       2.3893      0.00000
      9       3.9504      0.00000
     10       4.1051      0.00000

 k-point    76 :       0.4667    0.0000    0.2000
  band No.  band energies     occupation 
      1     -46.4548      2.00000
      2     -46.4439      2.00000
      3     -46.4223      2.00000
      4     -46.4150      2.00000
      5      -1.3384      2.00000
      6      -0.9197      2.00000
      7       2.0617      0.00000
      8       2.4485      0.00000
      9       3.8060      0.00000
     10       4.1213      0.00000

 k-point    77 :       0.4667    0.0000   -0.2000
  band No.  band energies     occupation 
      1     -46.4533      2.00000
      2     -46.4463      2.00000
      3     -46.4206      2.00000
      4     -46.4160      2.00000
      5      -1.3379      2.00000
      6      -0.9200      2.00000
      7       2.1294      0.00000
      8       2.3577      0.00000
      9       3.9291      0.00000
     10       4.0017      0.00000

 k-point    78 :       0.0000    0.2667    0.0000
  band No.  band energies     occupation 
      1     -46.4663      2.00000
      2     -46.4375      2.00000
      3     -46.4185      2.00000
      4     -46.4139      2.00000
      5      -2.5258      2.00000
      6       0.1652      2.00000
      7       2.9408      0.00000
      8       3.0529      0.00000
      9       3.7261      0.00000
     10       3.8798      0.00000

 k-point    79 :       0.0000    0.0000    0.2667
  band No.  band energies     occupation 
      1     -46.4667      2.00000
      2     -46.4388      2.00000
      3     -46.4180      2.00000
      4     -46.4127      2.00000
      5      -2.5259      2.00000
      6       0.1727      2.00000
      7       2.8992      0.00000
      8       3.0528      0.00000
      9       3.7074      0.00000
     10       3.8942      0.00000

 k-point    80 :       0.0667    0.2667    0.0000
  band No.  band energies     occupation 
      1     -46.4659      2.00000
      2     -46.4375      2.00000
      3     -46.4190      2.00000
      4     -46.4139      2.00000
      5      -2.4982      2.00000
      6       0.1890      2.00000
      7       2.8409      0.00000
      8       3.0541      0.00000
      9       3.2426      0.00000
     10       4.3737      0.00000

 k-point    81 :       0.0667    0.0000    0.2667
  band No.  band energies     occupation 
      1     -46.4666      2.00000
      2     -46.4378      2.00000
      3     -46.4197      2.00000
      4     -46.4121      2.00000
      5      -2.4985      2.00000
      6       0.1961      2.00000
      7       2.7912      0.00000
      8       3.0573      0.00000
      9       3.2217      0.00000
     10       4.4647      0.00000

 k-point    82 :       0.0667    0.0000   -0.2667
  band No.  band energies     occupation 
      1     -46.4660      2.00000
      2     -46.4396      2.00000
      3     -46.4169      2.00000
      4     -46.4137      2.00000
      5      -2.4982      2.00000
      6       0.1955      2.00000
      7       2.8821      0.00000
      8       2.9834      0.00000
      9       3.2577      0.00000
     10       4.2844      0.00000

 k-point    83 :       0.1333    0.2667    0.0000
  band No.  band energies     occupation 
      1     -46.4648      2.00000
      2     -46.4374      2.00000
      3     -46.4201      2.00000
      4     -46.4140      2.00000
      5      -2.4151      2.00000
      6       0.2575      2.00000
      7       2.2888      0.00000
      8       3.0323      0.00000
      9       3.2035      0.00000
     10       4.5993      0.00000

 k-point    84 :       0.1333    0.0000    0.2667
  band No.  band energies     occupation 
      1     -46.4658      2.00000
      2     -46.4367      2.00000
      3     -46.4219      2.00000
      4     -46.4118      2.00000
      5      -2.4157      2.00000
      6       0.2628      2.00000
      7       2.2611      0.00000
      8       3.0841      0.00000
      9       3.1340      0.00000
     10       4.7079      0.00000

 k-point    85 :       0.1333    0.0000   -0.2667
  band No.  band energies     occupation 
      1     -46.4646      2.00000
      2     -46.4404      2.00000
      3     -46.4166      2.00000
      4     -46.4147      2.00000
      5      -2.4152      2.00000
      6       0.2605      2.00000
      7       2.3469      0.00000
      8       2.9226      0.00000
      9       3.2312      0.00000
     10       4.5137      0.00000

 k-point    86 :       0.2000    0.2667    0.0000
  band No.  band energies     occupation 
      1     -46.4629      2.00000
      2     -46.4376      2.00000
      3     -46.4213      2.00000
      4     -46.4144      2.00000
      5      -2.2765      2.00000
      6       0.3553      2.00000
      7       1.6588      0.00000
      8       3.0023      0.00000
      9       3.3164      0.00000
     10       4.4851      0.00000

 k-point    87 :       0.2000    0.0000    0.2667
  band No.  band energies     occupation 
      1     -46.4642      2.00000
      2     -46.4356      2.00000
      3     -46.4244      2.00000
      4     -46.4119      2.00000
      5      -2.2776      2.00000
      6       0.3561      2.00000
      7       1.6486      0.00000
      8       3.0725      0.00000
      9       3.2301      0.00000
     10       4.5594      0.00000

 k-point    88 :       0.2000    0.0000   -0.2667
  band No.  band energies     occupation 
      1     -46.4625      2.00000
      2     -46.4412      2.00000
      3     -46.4171      2.00000
      4     -46.4153      2.00000
      5      -2.2769      2.00000
      6       0.3483      2.00000
      7       1.7162      0.00000
      8       2.9007      0.00000
      9       3.3432      0.00000
     10       4.4292      0.00000

 k-point    89 :       0.2667    0.2667    0.0000
  band No.  band energies     occupation 
      1     -46.4604      2.00000
      2     -46.4384      2.00000
      3     -46.4223      2.00000
      4     -46.4151      2.00000
      5      -2.0825      2.00000
      6       0.4022      2.00000
      7       1.1630      0.00000
      8       2.8854      0.00000
      9       3.4767      0.00000
     10       4.3137      0.00000

 k-point    90 :       0.2667    0.0000    0.2667
  band No.  band energies     occupation 
      1     -46.4621      2.00000
      2     -46.4351      2.00000
      3     -46.4265      2.00000
      4     -46.4124      2.00000
      5      -2.0843      2.00000
      6       0.3920      2.00000
      7       1.1703      0.00000
      8       2.9662      0.00000
      9       3.3788      0.00000
     10       4.3541      0.00000

 k-point    91 :       0.2667    0.0000   -0.2667
  band No.  band energies     occupation 
      1     -46.4597      2.00000
      2     -46.4424      2.00000
      3     -46.4182      2.00000
      4     -46.4158      2.00000
      5      -2.0832      2.00000
      6       0.3721      2.00000
      7       1.2406      0.00000
      8       2.8020      0.00000
      9       3.5020      0.00000
     10       4.2546      0.00000

 k-point    92 :       0.3333    0.2667    0.0000
  band No.  band energies     occupation 
      1     -46.4575      2.00000
      2     -46.4400      2.00000
      3     -46.4224      2.00000
      4     -46.4162      2.00000
      5      -1.8330      2.00000
      6       0.1467      2.00000
      7       1.0684      0.00000
      8       2.6360      0.00000
      9       3.6698      0.00000
     10       4.2417      0.00000

 k-point    93 :       0.3333    0.0000    0.2667
  band No.  band energies     occupation 
      1     -46.4595      2.00000
      2     -46.4364      2.00000
      3     -46.4270      2.00000
      4     -46.4131      2.00000
      5      -1.8357      2.00000
      6       0.1321      2.00000
      7       1.0831      0.00000
      8       2.7160      0.00000
      9       3.5572      0.00000
     10       4.2687      0.00000

 k-point    94 :       0.3333    0.0000   -0.2667
  band No.  band energies     occupation 
      1     -46.4566      2.00000
      2     -46.4439      2.00000
      3     -46.4193      2.00000
      4     -46.4162      2.00000
      5      -1.8343      2.00000
      6       0.1171      2.00000
      7       1.1464      0.00000
      8       2.5817      0.00000
      9       3.6938      0.00000
     10       4.1469      0.00000

 k-point    95 :       0.4000    0.2667    0.0000
  band No.  band energies     occupation 
      1     -46.4544      2.00000
      2     -46.4424      2.00000
      3     -46.4218      2.00000
      4     -46.4176      2.00000
      5      -1.5284      2.00000
      6      -0.3064      2.00000
      7       1.2722      0.00000
      8       2.2963      0.00000
      9       3.8781      0.00000
     10       4.2377      0.00000

 k-point    96 :       0.4000    0.0000    0.2667
  band No.  band energies     occupation 
      1     -46.4567      2.00000
      2     -46.4393      2.00000
      3     -46.4259      2.00000
      4     -46.4141      2.00000
      5      -1.5323      2.00000
      6      -0.3161      2.00000
      7       1.2823      0.00000
      8       2.3678      0.00000
      9       3.7464      0.00000
     10       4.2643      0.00000

 k-point    97 :       0.4000    0.0000   -0.2667
  band No.  band energies     occupation 
      1     -46.4535      2.00000
      2     -46.4456      2.00000
      3     -46.4207      2.00000
      4     -46.4162      2.00000
      5      -1.5306      2.00000
      6      -0.3224      2.00000
      7       1.3401      0.00000
      8       2.2666      0.00000
      9       3.8998      0.00000
     10       4.1044      0.00000

 k-point    98 :       0.4667    0.2667    0.0000
  band No.  band energies     occupation 
      1     -46.4516      2.00000
      2     -46.4448      2.00000
      3     -46.4206      2.00000
      4     -46.4190      2.00000
      5      -1.1695      2.00000
      6      -0.7585      2.00000
      7       1.5676      0.00000
      8       1.9368      0.00000
      9       4.0691      0.00000
     10       4.1996      0.00000

 k-point    99 :       0.4667    0.0000    0.2667
  band No.  band energies     occupation 
      1     -46.4540      2.00000
      2     -46.4428      2.00000
      3     -46.4242      2.00000
      4     -46.4150      2.00000
      5      -1.1755      2.00000
      6      -0.7646      2.00000
      7       1.5755      0.00000
      8       1.9962      0.00000
      9       3.9176      0.00000
     10       4.2275      0.00000

 k-point   100 :       0.4667    0.0000   -0.2667
  band No.  band energies     occupation 
      1     -46.4523      2.00000
      2     -46.4456      2.00000
      3     -46.4224      2.00000
      4     -46.4158      2.00000
      5      -1.1733      2.00000
      6      -0.7679      2.00000
      7       1.6377      0.00000
      8       1.9198      0.00000
      9       4.0290      0.00000
     10       4.1083      0.00000

 k-point   101 :       0.0000    0.3333    0.0000
  band No.  band energies     occupation 
      1     -46.4630      2.00000
      2     -46.4417      2.00000
      3     -46.4176      2.00000
      4     -46.4140      2.00000
      5      -2.2981      2.00000
      6      -0.3773      2.00000
      7       3.0114      0.00000
      8       3.1139      0.00000
      9       3.9335      0.00000
     10       4.0644      0.00000

 k-point   102 :       0.0000    0.0000    0.3333
  band No.  band energies     occupation 
      1     -46.4636      2.00000
      2     -46.4430      2.00000
      3     -46.4176      2.00000
      4     -46.4121      2.00000
      5      -2.2981      2.00000
      6      -0.3724      2.00000
      7       2.9601      0.00000
      8       3.1299      0.00000
      9       3.9076      0.00000
     10       4.0854      0.00000

 k-point   103 :       0.0667    0.3333    0.0000
  band No.  band energies     occupation 
      1     -46.4626      2.00000
      2     -46.4416      2.00000
      3     -46.4180      2.00000
      4     -46.4141      2.00000
      5      -2.2705      2.00000
      6      -0.3521      2.00000
      7       2.9260      0.00000
      8       3.1030      0.00000
      9       3.4835      0.00000
     10       4.4464      0.00000

 k-point   104 :       0.0667    0.0000    0.3333
  band No.  band energies     occupation 
      1     -46.4636      2.00000
      2     -46.4420      2.00000
      3     -46.4189      2.00000
      4     -46.4117      2.00000
      5      -2.2708      2.00000
      6      -0.3473      2.00000
      7       2.8571      0.00000
      8       3.1341      0.00000
      9       3.4566      0.00000
     10       4.5473      0.00000

 k-point   105 :       0.0667    0.0000   -0.3333
  band No.  band energies     occupation 
      1     -46.4629      2.00000
      2     -46.4436      2.00000
      3     -46.4170      2.00000
      4     -46.4128      2.00000
      5      -2.2704      2.00000
      6      -0.3481      2.00000
      7       2.9549      0.00000
      8       3.0522      0.00000
      9       3.5038      0.00000
     10       4.3440      0.00000

 k-point   106 :       0.1333    0.3333    0.0000
  band No.  band energies     occupation 
      1     -46.4615      2.00000
      2     -46.4413      2.00000
      3     -46.4190      2.00000
      4     -46.4143      2.00000
      5      -2.1878      2.00000
      6      -0.2779      2.00000
      7       2.4615      0.00000
      8       3.0589      0.00000
      9       3.3675      0.00000
     10       4.4931      0.00000

 k-point   107 :       0.1333    0.0000    0.3333
  band No.  band energies     occupation 
      1     -46.4629      2.00000
      2     -46.4409      2.00000
      3     -46.4207      2.00000
      4     -46.4116      2.00000
      5      -2.1886      2.00000
      6      -0.2740      2.00000
      7       2.4147      0.00000
      8       3.1253      0.00000
      9       3.3115      0.00000
     10       4.5784      0.00000

 k-point   108 :       0.1333    0.0000   -0.3333
  band No.  band energies     occupation 
      1     -46.4615      2.00000
      2     -46.4441      2.00000
      3     -46.4170      2.00000
      4     -46.4136      2.00000
      5      -2.1879      2.00000
      6      -0.2763      2.00000
      7       2.5317      0.00000
      8       2.9475      0.00000
      9       3.3957      0.00000
     10       4.4086      0.00000

 k-point   109 :       0.2000    0.3333    0.0000
  band No.  band energies     occupation 
      1     -46.4598      2.00000
      2     -46.4410      2.00000
      3     -46.4203      2.00000
      4     -46.4149      2.00000
      5      -2.0501      2.00000
      6      -0.1607      2.00000
      7       1.8465      0.00000
      8       2.9440      0.00000
      9       3.4636      0.00000
     10       4.3137      0.00000

 k-point   110 :       0.2000    0.0000    0.3333
  band No.  band energies     occupation 
      1     -46.4616      2.00000
      2     -46.4396      2.00000
      3     -46.4230      2.00000
      4     -46.4119      2.00000
      5      -2.0516      2.00000
      6      -0.1592      2.00000
      7       1.8224      0.00000
      8       3.0281      0.00000
      9       3.3863      0.00000
     10       4.3578      0.00000

 k-point   111 :       0.2000    0.0000   -0.3333
  band No.  band energies     occupation 
      1     -46.4594      2.00000
      2     -46.4445      2.00000
      3     -46.4177      2.00000
      4     -46.4144      2.00000
      5      -2.0505      2.00000
      6      -0.1649      2.00000
      7       1.9062      0.00000
      8       2.8480      0.00000
      9       3.4959      0.00000
     10       4.2520      0.00000

 k-point   112 :       0.2667    0.3333    0.0000
  band No.  band energies     occupation 
      1     -46.4576      2.00000
      2     -46.4410      2.00000
      3     -46.4216      2.00000
      4     -46.4159      2.00000
      5      -1.8575      2.00000
      6      -0.0220      2.00000
      7       1.2758      0.00000
      8       2.6830      0.00000
      9       3.6244      0.00000
     10       4.2176      0.00000

 k-point   113 :       0.2667    0.0000    0.3333
  band No.  band energies     occupation 
      1     -46.4598      2.00000
      2     -46.4384      2.00000
      3     -46.4253      2.00000
      4     -46.4125      2.00000
      5      -1.8602      2.00000
      6      -0.0253      2.00000
      7       1.2669      0.00000
      8       2.7674      0.00000
      9       3.5331      0.00000
     10       4.2467      0.00000

 k-point   114 :       0.2667    0.0000   -0.3333
  band No.  band energies     occupation 
      1     -46.4569      2.00000
      2     -46.4450      2.00000
      3     -46.4190      2.00000
      4     -46.4151      2.00000
      5      -1.8585      2.00000
      6      -0.0393      2.00000
      7       1.3423      0.00000
      8       2.6157      0.00000
      9       3.6579      0.00000
     10       4.1392      0.00000

 k-point   115 :       0.3333    0.3333    0.0000
  band No.  band energies     occupation 
      1     -46.4549      2.00000
      2     -46.4415      2.00000
      3     -46.4223      2.00000
      4     -46.4172      2.00000
      5      -1.6105      2.00000
      6       0.0426      2.00000
      7       0.8742      0.00000
      8       2.3029      0.00000
      9       3.8235      0.00000
     10       4.2550      0.00000

 k-point   116 :       0.3333    0.0000    0.3333
  band No.  band energies     occupation 
      1     -46.4577      2.00000
      2     -46.4380      2.00000
      3     -46.4269      2.00000
      4     -46.4134      2.00000
      5      -1.6149      2.00000
      6       0.0300      2.00000
      7       0.8799      0.00000
      8       2.3782      0.00000
      9       3.7155      0.00000
     10       4.2891      0.00000

 k-point   117 :       0.3333    0.0000   -0.3333
  band No.  band energies     occupation 
      1     -46.4541      2.00000
      2     -46.4457      2.00000
      3     -46.4206      2.00000
      4     -46.4157      2.00000
      5      -1.6125      2.00000
      6       0.0025      2.00000
      7       0.9618      0.00000
      8       2.2636      0.00000
      9       3.8580      0.00000
     10       4.1402      0.00000

 k-point   118 :       0.4000    0.3333    0.0000
  band No.  band energies     occupation 
      1     -46.4521      2.00000
      2     -46.4428      2.00000
      3     -46.4223      2.00000
      4     -46.4187      2.00000
      5      -1.3106      2.00000
      6      -0.1813      2.00000
      7       0.8627      0.00000
      8       1.8850      0.00000
      9       4.0391      0.00000
     10       4.3346      0.00000

 k-point   119 :       0.4000    0.0000    0.3333
  band No.  band energies     occupation 
      1     -46.4553      2.00000
      2     -46.4392      2.00000
      3     -46.4271      2.00000
      4     -46.4143      2.00000
      5      -1.3175      2.00000
      6      -0.1951      2.00000
      7       0.8719      0.00000
      8       1.9523      0.00000
      9       3.9086      0.00000
     10       4.3779      0.00000

 k-point   120 :       0.4000    0.0000   -0.3333
  band No.  band energies     occupation 
      1     -46.4517      2.00000
      2     -46.4460      2.00000
      3     -46.4224      2.00000
      4     -46.4159      2.00000
      5      -1.3140      2.00000
      6      -0.2156      2.00000
      7       0.9456      0.00000
      8       1.8643      0.00000
      9       4.0737      0.00000
     10       4.1854      0.00000

 k-point   121 :       0.4667    0.3333    0.0000
  band No.  band energies     occupation 
      1     -46.4498      2.00000
      2     -46.4445      2.00000
      3     -46.4216      2.00000
      4     -46.4202      2.00000
      5      -0.9611      2.00000
      6      -0.5707      2.00000
      7       1.1161      0.00000
      8       1.4855      0.00000
      9       4.2330      0.00000
     10       4.3470      0.00000

 k-point   122 :       0.4667    0.0000    0.3333
  band No.  band energies     occupation 
      1     -46.4531      2.00000
      2     -46.4417      2.00000
      3     -46.4259      2.00000
      4     -46.4151      2.00000
      5      -0.9724      2.00000
      6      -0.5797      2.00000
      7       1.1219      0.00000
      8       1.5469      0.00000
      9       4.0767      0.00000
     10       4.3940      0.00000

 k-point   123 :       0.4667    0.0000   -0.3333
  band No.  band energies     occupation 
      1     -46.4515      2.00000
      2     -46.4445      2.00000
      3     -46.4242      2.00000
      4     -46.4157      2.00000
      5      -0.9669      2.00000
      6      -0.5898      2.00000
      7       1.1882      0.00000
      8       1.4753      0.00000
      9       4.1712      0.00000
     10       4.2819      0.00000

 k-point   124 :       0.0000    0.4000    0.0000
  band No.  band energies     occupation 
      1     -46.4592      2.00000
      2     -46.4461      2.00000
      3     -46.4167      2.00000
      4     -46.4144      2.00000
      5      -2.0189      2.00000
      6      -0.8670      2.00000
      7       3.0779      0.00000
      8       3.1501      0.00000
      9       4.1563      0.00000
     10       4.2634      0.00000

 k-point   125 :       0.0000    0.0000    0.4000
  band No.  band energies     occupation 
      1     -46.4601      2.00000
      2     -46.4473      2.00000
      3     -46.4173      2.00000
      4     -46.4116      2.00000
      5      -2.0186      2.00000
      6      -0.8639      2.00000
      7       3.0083      0.00000
      8       3.1912      0.00000
      9       4.1198      0.00000
     10       4.2938      0.00000

 k-point   126 :       0.0667    0.4000    0.0000
  band No.  band energies     occupation 
      1     -46.4588      2.00000
      2     -46.4459      2.00000
      3     -46.4170      2.00000
      4     -46.4145      2.00000
      5      -1.9914      2.00000
      6      -0.8409      2.00000
      7       3.0089      0.00000
      8       3.1284      0.00000
      9       3.7623      0.00000
     10       4.4472      0.00000

 k-point   127 :       0.0667    0.0000    0.4000
  band No.  band energies     occupation 
      1     -46.4602      2.00000
      2     -46.4464      2.00000
      3     -46.4182      2.00000
      4     -46.4115      2.00000
      5      -1.9915      2.00000
      6      -0.8378      2.00000
      7       2.9230      0.00000
      8       3.1859      0.00000
      9       3.7273      0.00000
     10       4.5421      0.00000

 k-point   128 :       0.0667    0.0000   -0.4000
  band No.  band energies     occupation 
      1     -46.4593      2.00000
      2     -46.4478      2.00000
      3     -46.4170      2.00000
      4     -46.4121      2.00000
      5      -1.9910      2.00000
      6      -0.8386      2.00000
      7       2.9997      0.00000
      8       3.1205      0.00000
      9       3.7919      0.00000
     10       4.3460      0.00000

 k-point   129 :       0.1333    0.4000    0.0000
  band No.  band energies     occupation 
      1     -46.4579      2.00000
      2     -46.4454      2.00000
      3     -46.4179      2.00000
      4     -46.4150      2.00000
      5      -1.9093      2.00000
      6      -0.7633      2.00000
      7       2.6459      0.00000
      8       3.0379      0.00000
      9       3.5703      0.00000
     10       4.2992      0.00000

 k-point   130 :       0.1333    0.0000    0.4000
  band No.  band energies     occupation 
      1     -46.4597      2.00000
      2     -46.4452      2.00000
      3     -46.4197      2.00000
      4     -46.4116      2.00000
      5      -1.9101      2.00000
      6      -0.7608      2.00000
      7       2.5788      0.00000
      8       3.1214      0.00000
      9       3.5243      0.00000
     10       4.3517      0.00000

 k-point   131 :       0.1333    0.0000   -0.4000
  band No.  band energies     occupation 
      1     -46.4579      2.00000
      2     -46.4480      2.00000
      3     -46.4174      2.00000
      4     -46.4128      2.00000
      5      -1.9091      2.00000
      6      -0.7628      2.00000
      7       2.7293      0.00000
      8       2.9293      0.00000
      9       3.5947      0.00000
     10       4.2331      0.00000

 k-point   132 :       0.2000    0.4000    0.0000
  band No.  band energies     occupation 
      1     -46.4563      2.00000
      2     -46.4447      2.00000
      3     -46.4192      2.00000
      4     -46.4158      2.00000
      5      -1.7728      2.00000
      6      -0.6370      2.00000
      7       2.0766      0.00000
      8       2.7998      0.00000
      9       3.6316      0.00000
     10       4.1395      0.00000

 k-point   133 :       0.2000    0.0000    0.4000
  band No.  band energies     occupation 
      1     -46.4587      2.00000
      2     -46.4437      2.00000
      3     -46.4216      2.00000
      4     -46.4121      2.00000
      5      -1.7748      2.00000
      6      -0.6359      2.00000
      7       2.0386      0.00000
      8       2.8896      0.00000
      9       3.5623      0.00000
     10       4.1681      0.00000

 k-point   134 :       0.2000    0.0000   -0.4000
  band No.  band energies     occupation 
      1     -46.4560      2.00000
      2     -46.4479      2.00000
      3     -46.4185      2.00000
      4     -46.4136      2.00000
      5      -1.7731      2.00000
      6      -0.6402      2.00000
      7       2.1427      0.00000
      8       2.7158      0.00000
      9       3.6653      0.00000
     10       4.0795      0.00000

 k-point   135 :       0.2667    0.4000    0.0000
  band No.  band energies     occupation 
      1     -46.4544      2.00000
      2     -46.4441      2.00000
      3     -46.4206      2.00000
      4     -46.4170      2.00000
      5      -1.5826      2.00000
      6      -0.4698      2.00000
      7       1.5011      0.00000
      8       2.4010      0.00000
      9       3.7871      0.00000
     10       4.1514      0.00000

 k-point   136 :       0.2667    0.0000    0.4000
  band No.  band energies     occupation 
      1     -46.4572      2.00000
      2     -46.4420      2.00000
      3     -46.4239      2.00000
      4     -46.4128      2.00000
      5      -1.5864      2.00000
      6      -0.4714      2.00000
      7       1.4812      0.00000
      8       2.4802      0.00000
      9       3.7009      0.00000
     10       4.1848      0.00000

 k-point   137 :       0.2667    0.0000   -0.4000
  band No.  band energies     occupation 
      1     -46.4538      2.00000
      2     -46.4477      2.00000
      3     -46.4200      2.00000
      4     -46.4144      2.00000
      5      -1.5837      2.00000
      6      -0.4804      2.00000
      7       1.5647      0.00000
      8       2.3486      0.00000
      9       3.8263      0.00000
     10       4.0668      0.00000

 k-point   138 :       0.3333    0.4000    0.0000
  band No.  band energies     occupation 
      1     -46.4521      2.00000
      2     -46.4436      2.00000
      3     -46.4218      2.00000
      4     -46.4184      2.00000
      5      -1.3401      2.00000
      6      -0.2882      2.00000
      7       0.9966      0.00000
      8       1.9373      0.00000
      9       3.9911      0.00000
     10       4.2787      0.00000

 k-point   139 :       0.3333    0.0000    0.4000
  band No.  band energies     occupation 
      1     -46.4556      2.00000
      2     -46.4406      2.00000
      3     -46.4260      2.00000
      4     -46.4137      2.00000
      5      -1.3468      2.00000
      6      -0.2947      2.00000
      7       0.9898      0.00000
      8       2.0070      0.00000
      9       3.8856      0.00000
     10       4.3259      0.00000

 k-point   140 :       0.3333    0.0000   -0.4000
  band No.  band energies     occupation 
      1     -46.4517      2.00000
      2     -46.4471      2.00000
      3     -46.4219      2.00000
      4     -46.4152      2.00000
      5      -1.3426      2.00000
      6      -0.3140      2.00000
      7       1.0710      0.00000
      8       1.9077      0.00000
      9       4.0349      0.00000
     10       4.1603      0.00000

 k-point   141 :       0.4000    0.4000    0.0000
  band No.  band energies     occupation 
      1     -46.4498      2.00000
      2     -46.4438      2.00000
      3     -46.4224      2.00000
      4     -46.4199      2.00000
      5      -1.0490      2.00000
      6      -0.1994      2.00000
      7       0.6842      2.00000
      8       1.4806      0.00000
      9       4.2151      0.00000
     10       4.4314      0.00000

 k-point   142 :       0.4000    0.0000    0.4000
  band No.  band energies     occupation 
      1     -46.4538      2.00000
      2     -46.4401      2.00000
      3     -46.4274      2.00000
      4     -46.4146      2.00000
      5      -1.0605      2.00000
      6      -0.2131      2.00000
      7       0.6886      2.00000
      8       1.5468      0.00000
      9       4.0833      0.00000
     10       4.4943      0.00000

 k-point   143 :       0.4000    0.0000   -0.4000
  band No.  band energies     occupation 
      1     -46.4508      2.00000
      2     -46.4455      2.00000
      3     -46.4240      2.00000
      4     -46.4156      2.00000
      5      -1.0537      2.00000
      6      -0.2459      2.00000
      7       0.7780      1.18320
      8       1.4656      0.00000
      9       4.2542      0.00000
     10       4.2870      0.00000

 k-point   144 :       0.4667    0.4000    0.0000
  band No.  band energies     occupation 
      1     -46.4480      2.00000
      2     -46.4445      2.00000
      3     -46.4222      2.00000
      4     -46.4212      2.00000
      5      -0.7198      2.00000
      6      -0.3873      2.00000
      7       0.7501      1.97282
      8       1.0728      0.00000
      9       4.4124      0.00000
     10       4.5028      0.00000

 k-point   145 :       0.4667    0.0000    0.4000
  band No.  band energies     occupation 
      1     -46.4523      2.00000
      2     -46.4411      2.00000
      3     -46.4273      2.00000
      4     -46.4153      2.00000
      5      -0.7403      2.00000
      6      -0.3995      2.00000
      7       0.7551      1.93607
      8       1.1413      0.00000
      9       4.2486      0.00000
     10       4.5740      0.00000

 k-point   146 :       0.4667    0.0000   -0.4000
  band No.  band energies     occupation 
      1     -46.4511      2.00000
      2     -46.4432      2.00000
      3     -46.4259      2.00000
      4     -46.4157      2.00000
      5      -0.7282      2.00000
      6      -0.4231      2.00000
      7       0.8345      0.00017
      8       1.0679      0.00000
      9       4.3195      0.00000
     10       4.4788      0.00000

 k-point   147 :       0.0000    0.4667    0.0000
  band No.  band energies     occupation 
      1     -46.4550      2.00000
      2     -46.4506      2.00000
      3     -46.4157      2.00000
      4     -46.4150      2.00000
      5      -1.6875      2.00000
      6      -1.3037      2.00000
      7       3.1291      0.00000
      8       3.1551      0.00000
      9       4.3440      0.00000
     10       4.3930      0.00000

 k-point   148 :       0.0000    0.0000    0.4667
  band No.  band energies     occupation 
      1     -46.4562      2.00000
      2     -46.4515      2.00000
      3     -46.4171      2.00000
      4     -46.4114      2.00000
      5      -1.6867      2.00000
      6      -1.3019      2.00000
      7       3.0348      0.00000
      8       3.2255      0.00000
      9       4.2733      0.00000
     10       4.4611      0.00000

 k-point   149 :       0.0667    0.4667    0.0000
  band No.  band energies     occupation 
      1     -46.4547      2.00000
      2     -46.4504      2.00000
      3     -46.4161      2.00000
      4     -46.4152      2.00000
      5      -1.6604      2.00000
      6      -1.2770      2.00000
      7       3.0777      0.00000
      8       3.1201      0.00000
      9       4.0553      0.00000
     10       4.3104      0.00000

 k-point   150 :       0.0667    0.0000    0.4667
  band No.  band energies     occupation 
      1     -46.4564      2.00000
      2     -46.4507      2.00000
      3     -46.4177      2.00000
      4     -46.4115      2.00000
      5      -1.6602      2.00000
      6      -1.2751      2.00000
      7       2.9768      0.00000
      8       3.2009      0.00000
      9       4.0041      0.00000
     10       4.3802      0.00000

 k-point   151 :       0.0667    0.0000   -0.4667
  band No.  band energies     occupation 
      1     -46.4555      2.00000
      2     -46.4518      2.00000
      3     -46.4173      2.00000
      4     -46.4117      2.00000
      5      -1.6595      2.00000
      6      -1.2759      2.00000
      7       3.0058      0.00000
      8       3.1760      0.00000
      9       4.1002      0.00000
     10       4.2327      0.00000

 k-point   152 :       0.1333    0.4667    0.0000
  band No.  band energies     occupation 
      1     -46.4539      2.00000
      2     -46.4497      2.00000
      3     -46.4168      2.00000
      4     -46.4158      2.00000
      5      -1.5792      2.00000
      6      -1.1972      2.00000
      7       2.8193      0.00000
      8       2.9565      0.00000
      9       3.8049      0.00000
     10       4.0570      0.00000

 k-point   153 :       0.1333    0.0000    0.4667
  band No.  band energies     occupation 
      1     -46.4562      2.00000
      2     -46.4494      2.00000
      3     -46.4188      2.00000
      4     -46.4118      2.00000
      5      -1.5800      2.00000
      6      -1.1957      2.00000
      7       2.7333      0.00000
      8       3.0508      0.00000
      9       3.7620      0.00000
     10       4.0880      0.00000

 k-point   154 :       0.1333    0.0000   -0.4667
  band No.  band energies     occupation 
      1     -46.4544      2.00000
      2     -46.4515      2.00000
      3     -46.4181      2.00000
      4     -46.4122      2.00000
      5      -1.5786      2.00000
      6      -1.1974      2.00000
      7       2.8562      0.00000
      8       2.9128      0.00000
      9       3.8251      0.00000
     10       4.0112      0.00000

 k-point   155 :       0.2000    0.4667    0.0000
  band No.  band energies     occupation 
      1     -46.4526      2.00000
      2     -46.4487      2.00000
      3     -46.4180      2.00000
      4     -46.4169      2.00000
      5      -1.4447      2.00000
      6      -1.0658      2.00000
      7       2.3298      0.00000
      8       2.5824      0.00000
      9       3.8067      0.00000
     10       3.9759      0.00000

 k-point   156 :       0.2000    0.0000    0.4667
  band No.  band energies     occupation 
      1     -46.4555      2.00000
      2     -46.4477      2.00000
      3     -46.4205      2.00000
      4     -46.4125      2.00000
      5      -1.4472      2.00000
      6      -1.0652      2.00000
      7       2.2768      0.00000
      8       2.6676      0.00000
      9       3.7422      0.00000
     10       4.0056      0.00000

 k-point   157 :       0.2000    0.0000   -0.4667
  band No.  band energies     occupation 
      1     -46.4532      2.00000
      2     -46.4505      2.00000
      3     -46.4194      2.00000
      4     -46.4130      2.00000
      5      -1.4447      2.00000
      6      -1.0685      2.00000
      7       2.4041      0.00000
      8       2.5149      0.00000
      9       3.8332      0.00000
     10       3.9218      0.00000

 k-point   158 :       0.2667    0.4667    0.0000
  band No.  band energies     occupation 
      1     -46.4510      2.00000
      2     -46.4475      2.00000
      3     -46.4194      2.00000
      4     -46.4182      2.00000
      5      -1.2583      2.00000
      6      -0.8861      2.00000
      7       1.7793      0.00000
      8       2.0873      0.00000
      9       3.9439      0.00000
     10       4.0692      0.00000

 k-point   159 :       0.2667    0.0000    0.4667
  band No.  band energies     occupation 
      1     -46.4545      2.00000
      2     -46.4457      2.00000
      3     -46.4225      2.00000
      4     -46.4133      2.00000
      5      -1.2637      2.00000
      6      -0.8872      2.00000
      7       1.7490      0.00000
      8       2.1594      0.00000
      9       3.8592      0.00000
     10       4.1107      0.00000

 k-point   160 :       0.2667    0.0000   -0.4667
  band No.  band energies     occupation 
      1     -46.4523      2.00000
      2     -46.4487      2.00000
      3     -46.4212      2.00000
      4     -46.4138      2.00000
      5      -1.2597      2.00000
      6      -0.8932      2.00000
      7       1.8446      0.00000
      8       2.0476      0.00000
      9       3.9679      0.00000
     10       4.0035      0.00000

 k-point   161 :       0.3333    0.4667    0.0000
  band No.  band energies     occupation 
      1     -46.4492      2.00000
      2     -46.4463      2.00000
      3     -46.4208      2.00000
      4     -46.4196      2.00000
      5      -1.0238      2.00000
      6      -0.6673      2.00000
      7       1.2570      0.00000
      8       1.5799      0.00000
      9       4.1457      0.00000
     10       4.2502      0.00000

 k-point   162 :       0.3333    0.0000    0.4667
  band No.  band energies     occupation 
      1     -46.4534      2.00000
      2     -46.4436      2.00000
      3     -46.4248      2.00000
      4     -46.4142      2.00000
      5      -1.0341      2.00000
      6      -0.6711      2.00000
      7       1.2413      0.00000
      8       1.6467      0.00000
      9       4.0380      0.00000
     10       4.3059      0.00000

 k-point   163 :       0.3333    0.0000   -0.4667
  band No.  band energies     occupation 
      1     -46.4516      2.00000
      2     -46.4463      2.00000
      3     -46.4234      2.00000
      4     -46.4147      2.00000
      5      -1.0272      2.00000
      6      -0.6826      2.00000
      7       1.3235      0.00000
      8       1.5583      0.00000
      9       4.1327      0.00000
     10       4.2026      0.00000

 k-point   164 :       0.4000    0.4667    0.0000
  band No.  band energies     occupation 
      1     -46.4475      2.00000
      2     -46.4454      2.00000
      3     -46.4219      2.00000
      4     -46.4210      2.00000
      5      -0.7510      2.00000
      6      -0.4397      2.00000
      7       0.8186      0.00830
      8       1.1138      0.00000
      9       4.3717      0.00000
     10       4.4560      0.00000

 k-point   165 :       0.4000    0.0000    0.4667
  band No.  band energies     occupation 
      1     -46.4523      2.00000
      2     -46.4418      2.00000
      3     -46.4267      2.00000
      4     -46.4149      2.00000
      5      -0.7705      2.00000
      6      -0.4481      2.00000
      7       0.8137      0.02188
      8       1.1840      0.00000
      9       4.2322      0.00000
     10       4.5298      0.00000

 k-point   166 :       0.4000    0.0000   -0.4667
  band No.  band energies     occupation 
      1     -46.4511      2.00000
      2     -46.4438      2.00000
      3     -46.4255      2.00000
      4     -46.4153      2.00000
      5      -0.7579      2.00000
      6      -0.4710      2.00000
      7       0.8975      0.00000
      8       1.1048      0.00000
      9       4.3027      0.00000
     10       4.4404      0.00000

 k-point   167 :       0.4667    0.4667    0.0000
  band No.  band energies     occupation 
      1     -46.4463      2.00000
      2     -46.4451      2.00000
      3     -46.4224      2.00000
      4     -46.4220      2.00000
      5      -0.4742      2.00000
      6      -0.3210      2.00000
      7       0.5900      2.00000
      8       0.7403      1.99627
      9       4.5587      0.00000
     10       4.5970      0.00000

 k-point   168 :       0.4667    0.0000    0.4667
  band No.  band energies     occupation 
      1     -46.4516      2.00000
      2     -46.4410      2.00000
      3     -46.4277      2.00000
      4     -46.4155      2.00000
      5      -0.5118      2.00000
      6      -0.3328      2.00000
      7       0.5918      2.00000
      8       0.8247      0.00216
      9       4.3818      0.00000
     10       4.6879      0.00000

 k-point   169 :       0.4667    0.0000   -0.4667
  band No.  band energies     occupation 
      1     -46.4511      2.00000
      2     -46.4419      2.00000
      3     -46.4272      2.00000
      4     -46.4156      2.00000
      5      -0.4886      2.00000
      6      -0.3669      2.00000
      7       0.6778      2.00000
      8       0.7478      1.98221
      9       4.4103      0.00000
     10       4.6448      0.00000

 k-point   170 :       0.0000    0.0667    0.0667
  band No.  band energies     occupation 
      1     -46.4718      2.00000
      2     -46.4294      2.00000
      3     -46.4199      2.00000
      4     -46.4150      2.00000
      5      -2.8785      2.00000
      6       2.0480      0.00000
      7       2.1983      0.00000
      8       3.2245      0.00000
      9       3.4544      0.00000
     10       3.6455      0.00000

 k-point   171 :       0.0667    0.0667    0.0667
  band No.  band energies     occupation 
      1     -46.4715      2.00000
      2     -46.4288      2.00000
      3     -46.4218      2.00000
      4     -46.4142      2.00000
      5      -2.8509      2.00000
      6       2.0671      0.00000
      7       2.1881      0.00000
      8       2.7422      0.00000
      9       3.3493      0.00000
     10       3.7876      0.00000

 k-point   172 :       0.0667   -0.0667   -0.0667
  band No.  band energies     occupation 
      1     -46.4714      2.00000
      2     -46.4302      2.00000
      3     -46.4194      2.00000
      4     -46.4153      2.00000
      5      -2.8508      2.00000
      6       2.0619      0.00000
      7       2.2022      0.00000
      8       2.7558      0.00000
      9       3.3173      0.00000
     10       3.7867      0.00000

 k-point   173 :       0.1333    0.0667    0.0667
  band No.  band energies     occupation 
      1     -46.4703      2.00000
      2     -46.4284      2.00000
      3     -46.4240      2.00000
      4     -46.4136      2.00000
      5      -2.7675      2.00000
      6       1.8352      0.00000
      7       2.1597      0.00000
      8       2.4019      0.00000
      9       3.3735      0.00000
     10       3.8669      0.00000

 k-point   174 :       0.1333   -0.0667   -0.0667
  band No.  band energies     occupation 
      1     -46.4700      2.00000
      2     -46.4315      2.00000
      3     -46.4199      2.00000
      4     -46.4149      2.00000
      5      -2.7674      2.00000
      6       1.8391      0.00000
      7       2.1828      0.00000
      8       2.3899      0.00000
      9       3.3449      0.00000
     10       3.8669      0.00000

 k-point   175 :       0.2000    0.0667    0.0667
  band No.  band energies     occupation 
      1     -46.4683      2.00000
      2     -46.4299      2.00000
      3     -46.4248      2.00000
      4     -46.4133      2.00000
      5      -2.6281      2.00000
      6       1.1820      0.00000
      7       2.2577      0.00000
      8       2.4723      0.00000
      9       3.4182      0.00000
     10       3.9865      0.00000

 k-point   176 :       0.2000   -0.0667   -0.0667
  band No.  band energies     occupation 
      1     -46.4678      2.00000
      2     -46.4334      2.00000
      3     -46.4204      2.00000
      4     -46.4146      2.00000
      5      -2.6280      2.00000
      6       1.1870      0.00000
      7       2.2830      0.00000
      8       2.4538      0.00000
      9       3.3902      0.00000
     10       3.9846      0.00000

 k-point   177 :       0.2667    0.0667    0.0667
  band No.  band energies     occupation 
      1     -46.4655      2.00000
      2     -46.4333      2.00000
      3     -46.4239      2.00000
      4     -46.4134      2.00000
      5      -2.4326      2.00000
      6       0.5381      2.00000
      7       2.3823      0.00000
      8       2.6257      0.00000
      9       3.4684      0.00000
     10       4.1322      0.00000

 k-point   178 :       0.2667   -0.0667   -0.0667
  band No.  band energies     occupation 
      1     -46.4650      2.00000
      2     -46.4362      2.00000
      3     -46.4202      2.00000
      4     -46.4148      2.00000
      5      -2.4325      2.00000
      6       0.5412      2.00000
      7       2.4210      0.00000
      8       2.5895      0.00000
      9       3.4483      0.00000
     10       4.1246      0.00000

 k-point   179 :       0.3333    0.0667    0.0667
  band No.  band energies     occupation 
      1     -46.4622      2.00000
      2     -46.4375      2.00000
      3     -46.4225      2.00000
      4     -46.4139      2.00000
      5      -2.1804      2.00000
      6      -0.0572      2.00000
      7       2.5181      0.00000
      8       2.8082      0.00000
      9       3.5254      0.00000
     10       4.2627      0.00000

 k-point   180 :       0.3333   -0.0667   -0.0667
  band No.  band energies     occupation 
      1     -46.4615      2.00000
      2     -46.4397      2.00000
      3     -46.4195      2.00000
      4     -46.4154      2.00000
      5      -2.1803      2.00000
      6      -0.0553      2.00000
      7       2.5722      0.00000
      8       2.7445      0.00000
      9       3.5277      0.00000
     10       4.2429      0.00000

 k-point   181 :       0.4000    0.0667    0.0667
  band No.  band energies     occupation 
      1     -46.4586      2.00000
      2     -46.4418      2.00000
      3     -46.4209      2.00000
      4     -46.4148      2.00000
      5      -1.8710      2.00000
      6      -0.5971      2.00000
      7       2.6529      0.00000
      8       2.9499      0.00000
      9       3.6283      0.00000
     10       4.2886      0.00000

 k-point   182 :       0.4000   -0.0667   -0.0667
  band No.  band energies     occupation 
      1     -46.4578      2.00000
      2     -46.4434      2.00000
      3     -46.4184      2.00000
      4     -46.4164      2.00000
      5      -1.8710      2.00000
      6      -0.5960      2.00000
      7       2.7187      0.00000
      8       2.8612      0.00000
      9       3.6628      0.00000
     10       4.2509      0.00000

 k-point   183 :       0.4667    0.0667    0.0667
  band No.  band energies     occupation 
      1     -46.4552      2.00000
      2     -46.4456      2.00000
      3     -46.4192      2.00000
      4     -46.4159      2.00000
      5      -1.5041      2.00000
      6      -1.0796      2.00000
      7       2.7662      0.00000
      8       2.9757      0.00000
      9       3.8264      0.00000
     10       4.1399      0.00000

 k-point   184 :       0.4667   -0.0667   -0.0667
  band No.  band energies     occupation 
      1     -46.4547      2.00000
      2     -46.4464      2.00000
      3     -46.4178      2.00000
      4     -46.4171      2.00000
      5      -1.5043      2.00000
      6      -1.0791      2.00000
      7       2.8102      0.00000
      8       2.9190      0.00000
      9       3.8744      0.00000
     10       4.0931      0.00000

 k-point   185 :       0.0000    0.1333    0.0667
  band No.  band energies     occupation 
      1     -46.4706      2.00000
      2     -46.4313      2.00000
      3     -46.4198      2.00000
      4     -46.4145      2.00000
      5      -2.8032      2.00000
      6       1.4140      0.00000
      7       2.2142      0.00000
      8       3.2774      0.00000
      9       3.5237      0.00000
     10       3.7887      0.00000

 k-point   186 :       0.0000   -0.0667    0.1333
  band No.  band energies     occupation 
      1     -46.4707      2.00000
      2     -46.4318      2.00000
      3     -46.4193      2.00000
      4     -46.4144      2.00000
      5      -2.8033      2.00000
      6       1.4290      0.00000
      7       2.1934      0.00000
      8       3.2604      0.00000
      9       3.5473      0.00000
     10       3.7494      0.00000

 k-point   187 :       0.0667    0.1333    0.0667
  band No.  band energies     occupation 
      1     -46.4703      2.00000
      2     -46.4309      2.00000
      3     -46.4211      2.00000
      4     -46.4140      2.00000
      5      -2.7755      2.00000
      6       1.4344      0.00000
      7       2.2104      0.00000
      8       2.7940      0.00000
      9       3.4873      0.00000
     10       4.1869      0.00000

 k-point   188 :       0.0667   -0.0667    0.1333
  band No.  band energies     occupation 
      1     -46.4704      2.00000
      2     -46.4309      2.00000
      3     -46.4214      2.00000
      4     -46.4135      2.00000
      5      -2.7756      2.00000
      6       1.4455      0.00000
      7       2.2019      0.00000
      8       2.7754      0.00000
      9       3.4642      0.00000
     10       4.2338      0.00000

 k-point   189 :       0.0667   -0.1333   -0.0667
  band No.  band energies     occupation 
      1     -46.4701      2.00000
      2     -46.4319      2.00000
      3     -46.4195      2.00000
      4     -46.4147      2.00000
      5      -2.7754      2.00000
      6       1.4319      0.00000
      7       2.2229      0.00000
      8       2.8114      0.00000
      9       3.4380      0.00000
     10       4.2008      0.00000

 k-point   190 :       0.0667    0.0667   -0.1333
  band No.  band energies     occupation 
      1     -46.4701      2.00000
      2     -46.4328      2.00000
      3     -46.4181      2.00000
      4     -46.4152      2.00000
      5      -2.7754      2.00000
      6       1.4470      0.00000
      7       2.1994      0.00000
      8       2.8252      0.00000
      9       3.4199      0.00000
     10       4.1584      0.00000

 k-point   191 :       0.1333    0.1333    0.0667
  band No.  band energies     occupation 
      1     -46.4691      2.00000
      2     -46.4307      2.00000
      3     -46.4230      2.00000
      4     -46.4135      2.00000
      5      -2.6922      2.00000
      6       1.4654      0.00000
      7       1.9924      0.00000
      8       2.4024      0.00000
      9       3.5118      0.00000
     10       4.3402      0.00000

 k-point   192 :       0.1333   -0.0667    0.1333
  band No.  band energies     occupation 
      1     -46.4694      2.00000
      2     -46.4299      2.00000
      3     -46.4242      2.00000
      4     -46.4129      2.00000
      5      -2.6923      2.00000
      6       1.4644      0.00000
      7       2.0179      0.00000
      8       2.3700      0.00000
      9       3.4834      0.00000
     10       4.4000      0.00000

 k-point   193 :       0.1333   -0.1333   -0.0667
  band No.  band energies     occupation 
      1     -46.4688      2.00000
      2     -46.4328      2.00000
      3     -46.4201      2.00000
      4     -46.4146      2.00000
      5      -2.6921      2.00000
      6       1.4598      0.00000
      7       2.0166      0.00000
      8       2.4045      0.00000
      9       3.4679      0.00000
     10       4.3502      0.00000

 k-point   194 :       0.1333    0.0667   -0.1333
  band No.  band energies     occupation 
      1     -46.4688      2.00000
      2     -46.4340      2.00000
      3     -46.4181      2.00000
      4     -46.4154      2.00000
      5      -2.6922      2.00000
      6       1.4639      0.00000
      7       2.0456      0.00000
      8       2.3695      0.00000
      9       3.4510      0.00000
     10       4.3434      0.00000

 k-point   195 :       0.2000    0.1333    0.0667
  band No.  band energies     occupation 
      1     -46.4671      2.00000
      2     -46.4316      2.00000
      3     -46.4242      2.00000
      4     -46.4134      2.00000
      5      -2.5530      2.00000
      6       1.1817      0.00000
      7       1.7567      0.00000
      8       2.4523      0.00000
      9       3.5523      0.00000
     10       4.4019      0.00000

 k-point   196 :       0.2000   -0.0667    0.1333
  band No.  band energies     occupation 
      1     -46.4674      2.00000
      2     -46.4297      2.00000
      3     -46.4264      2.00000
      4     -46.4127      2.00000
      5      -2.5532      2.00000
      6       1.1699      0.00000
      7       1.7861      0.00000
      8       2.4338      0.00000
      9       3.5205      0.00000
     10       4.4620      0.00000

 k-point   197 :       0.2000   -0.1333   -0.0667
  band No.  band energies     occupation 
      1     -46.4667      2.00000
      2     -46.4343      2.00000
      3     -46.4207      2.00000
      4     -46.4145      2.00000
      5      -2.5529      2.00000
      6       1.1829      0.00000
      7       1.7632      0.00000
      8       2.4657      0.00000
      9       3.5049      0.00000
     10       4.4109      0.00000

 k-point   198 :       0.2000    0.0667   -0.1333
  band No.  band energies     occupation 
      1     -46.4666      2.00000
      2     -46.4357      2.00000
      3     -46.4187      2.00000
      4     -46.4153      2.00000
      5      -2.5530      2.00000
      6       1.1708      0.00000
      7       1.8190      0.00000
      8       2.4136      0.00000
      9       3.4931      0.00000
     10       4.4148      0.00000

 k-point   199 :       0.2667    0.1333    0.0667
  band No.  band energies     occupation 
      1     -46.4645      2.00000
      2     -46.4341      2.00000
      3     -46.4240      2.00000
      4     -46.4136      2.00000
      5      -2.3576      2.00000
      6       0.5869      2.00000
      7       1.8807      0.00000
      8       2.5728      0.00000
      9       3.5797      0.00000
     10       4.4310      0.00000

 k-point   200 :       0.2667   -0.0667    0.1333
  band No.  band energies     occupation 
      1     -46.4649      2.00000
      2     -46.4325      2.00000
      3     -46.4259      2.00000
      4     -46.4129      2.00000
      5      -2.3580      2.00000
      6       0.5812      2.00000
      7       1.9001      0.00000
      8       2.5669      0.00000
      9       3.5449      0.00000
     10       4.4824      0.00000

 k-point   201 :       0.2667   -0.1333   -0.0667
  band No.  band energies     occupation 
      1     -46.4639      2.00000
      2     -46.4366      2.00000
      3     -46.4208      2.00000
      4     -46.4148      2.00000
      5      -2.3576      2.00000
      6       0.5895      2.00000
      7       1.8812      0.00000
      8       2.5918      0.00000
      9       3.5321      0.00000
     10       4.4352      0.00000

 k-point   202 :       0.2667    0.0667   -0.1333
  band No.  band energies     occupation 
      1     -46.4637      2.00000
      2     -46.4380      2.00000
      3     -46.4189      2.00000
      4     -46.4155      2.00000
      5      -2.3577      2.00000
      6       0.5844      2.00000
      7       1.9364      0.00000
      8       2.5266      0.00000
      9       3.5301      0.00000
     10       4.4356      0.00000

 k-point   203 :       0.3333    0.1333    0.0667
  band No.  band energies     occupation 
      1     -46.4613      2.00000
      2     -46.4377      2.00000
      3     -46.4229      2.00000
      4     -46.4143      2.00000
      5      -2.1059      2.00000
      6       0.0046      2.00000
      7       2.0734      0.00000
      8       2.7036      0.00000
      9       3.5831      0.00000
     10       4.3964      0.00000

 k-point   204 :       0.3333   -0.0667    0.1333
  band No.  band energies     occupation 
      1     -46.4617      2.00000
      2     -46.4366      2.00000
      3     -46.4243      2.00000
      4     -46.4135      2.00000
      5      -2.1064      2.00000
      6       0.0013      2.00000
      7       2.0857      0.00000
      8       2.7173      0.00000
      9       3.5408      0.00000
     10       4.4228      0.00000

 k-point   205 :       0.3333   -0.1333   -0.0667
  band No.  band energies     occupation 
      1     -46.4606      2.00000
      2     -46.4398      2.00000
      3     -46.4202      2.00000
      4     -46.4156      2.00000
      5      -2.1059      2.00000
      6       0.0064      2.00000
      7       2.0730      0.00000
      8       2.7220      0.00000
      9       3.5473      0.00000
     10       4.3875      0.00000

 k-point   206 :       0.3333    0.0667   -0.1333
  band No.  band energies     occupation 
      1     -46.4603      2.00000
      2     -46.4409      2.00000
      3     -46.4187      2.00000
      4     -46.4162      2.00000
      5      -2.1061      2.00000
      6       0.0036      2.00000
      7       2.1346      0.00000
      8       2.6432      0.00000
      9       3.5595      0.00000
     10       4.3695      0.00000

 k-point   207 :       0.4000    0.1333    0.0667
  band No.  band energies     occupation 
      1     -46.4577      2.00000
      2     -46.4416      2.00000
      3     -46.4214      2.00000
      4     -46.4153      2.00000
      5      -1.7972      2.00000
      6      -0.5295      2.00000
      7       2.2903      0.00000
      8       2.7775      0.00000
      9       3.6102      0.00000
     10       4.2534      0.00000

 k-point   208 :       0.4000   -0.0667    0.1333
  band No.  band energies     occupation 
      1     -46.4583      2.00000
      2     -46.4408      2.00000
      3     -46.4225      2.00000
      4     -46.4144      2.00000
      5      -1.7979      2.00000
      6      -0.5315      2.00000
      7       2.2947      0.00000
      8       2.8189      0.00000
      9       3.5502      0.00000
     10       4.2525      0.00000

 k-point   209 :       0.4000   -0.1333   -0.0667
  band No.  band energies     occupation 
      1     -46.4569      2.00000
      2     -46.4432      2.00000
      3     -46.4192      2.00000
      4     -46.4167      2.00000
      5      -1.7973      2.00000
      6      -0.5284      2.00000
      7       2.2909      0.00000
      8       2.7858      0.00000
      9       3.6016      0.00000
     10       4.2292      0.00000

 k-point   210 :       0.4000    0.0667   -0.1333
  band No.  band energies     occupation 
      1     -46.4567      2.00000
      2     -46.4441      2.00000
      3     -46.4182      2.00000
      4     -46.4170      2.00000
      5      -1.7977      2.00000
      6      -0.5302      2.00000
      7       2.3638      0.00000
      8       2.7040      0.00000
      9       3.6186      0.00000
     10       4.1874      0.00000

 k-point   211 :       0.4667    0.1333    0.0667
  band No.  band energies     occupation 
      1     -46.4545      2.00000
      2     -46.4453      2.00000
      3     -46.4197      2.00000
      4     -46.4165      2.00000
      5      -1.4315      2.00000
      6      -1.0088      2.00000
      7       2.4934      0.00000
      8       2.7291      0.00000
      9       3.7433      0.00000
     10       4.0212      0.00000

 k-point   212 :       0.4667   -0.0667    0.1333
  band No.  band energies     occupation 
      1     -46.4550      2.00000
      2     -46.4448      2.00000
      3     -46.4207      2.00000
      4     -46.4154      2.00000
      5      -1.4324      2.00000
      6      -1.0101      2.00000
      7       2.4966      0.00000
      8       2.7724      0.00000
      9       3.6744      0.00000
     10       4.0134      0.00000

 k-point   213 :       0.4667   -0.1333   -0.0667
  band No.  band energies     occupation 
      1     -46.4539      2.00000
      2     -46.4460      2.00000
      3     -46.4184      2.00000
      4     -46.4176      2.00000
      5      -1.4317      2.00000
      6      -1.0082      2.00000
      7       2.4953      0.00000
      8       2.7281      0.00000
      9       3.7598      0.00000
     10       3.9940      0.00000

 k-point   214 :       0.4667    0.0667   -0.1333
  band No.  band energies     occupation 
      1     -46.4539      2.00000
      2     -46.4464      2.00000
      3     -46.4191      2.00000
      4     -46.4165      2.00000
      5      -1.4325      2.00000
      6      -1.0095      2.00000
      7       2.5909      0.00000
      8       2.6529      0.00000
      9       3.7571      0.00000
     10       3.9405      0.00000

 k-point   215 :       0.0000    0.2000    0.0667
  band No.  band energies     occupation 
      1     -46.4687      2.00000
      2     -46.4342      2.00000
      3     -46.4194      2.00000
      4     -46.4141      2.00000
      5      -2.6775      2.00000
      6       0.7767      1.25334
      7       2.3100      0.00000
      8       3.2896      0.00000
      9       3.6169      0.00000
     10       3.9203      0.00000

 k-point   216 :       0.0000   -0.0667    0.2000
  band No.  band energies     occupation 
      1     -46.4689      2.00000
      2     -46.4351      2.00000
      3     -46.4187      2.00000
      4     -46.4136      2.00000
      5      -2.6776      2.00000
      6       0.7875      0.65997
      7       2.2895      0.00000
      8       3.2685      0.00000
      9       3.6378      0.00000
     10       3.8905      0.00000

 k-point   217 :       0.0667    0.2000    0.0667
  band No.  band energies     occupation 
      1     -46.4683      2.00000
      2     -46.4339      2.00000
      3     -46.4203      2.00000
      4     -46.4137      2.00000
      5      -2.6497      2.00000
      6       0.7995      0.19839
      7       2.3089      0.00000
      8       2.8755      0.00000
      9       3.5457      0.00000
     10       4.3485      0.00000

 k-point   218 :       0.0667   -0.0667    0.2000
  band No.  band energies     occupation 
      1     -46.4687      2.00000
      2     -46.4341      2.00000
      3     -46.4207      2.00000
      4     -46.4128      2.00000
      5      -2.6499      2.00000
      6       0.8085      0.05455
      7       2.3008      0.00000
      8       2.8443      0.00000
      9       3.5263      0.00000
     10       4.4099      0.00000

 k-point   219 :       0.0667   -0.2000   -0.0667
  band No.  band energies     occupation 
      1     -46.4682      2.00000
      2     -46.4345      2.00000
      3     -46.4193      2.00000
      4     -46.4143      2.00000
      5      -2.6497      2.00000
      6       0.7981      0.23451
      7       2.3204      0.00000
      8       2.8992      0.00000
      9       3.4861      0.00000
     10       4.3656      0.00000

 k-point   220 :       0.0667    0.0667   -0.2000
  band No.  band energies     occupation 
      1     -46.4683      2.00000
      2     -46.4360      2.00000
      3     -46.4174      2.00000
      4     -46.4146      2.00000
      5      -2.6497      2.00000
      6       0.8086      0.05360
      7       2.2960      0.00000
      8       2.9222      0.00000
      9       3.4688      0.00000
     10       4.2929      0.00000

 k-point   221 :       0.1333    0.2000    0.0667
  band No.  band energies     occupation 
      1     -46.4671      2.00000
      2     -46.4337      2.00000
      3     -46.4219      2.00000
      4     -46.4135      2.00000
      5      -2.5664      2.00000
      6       0.8591      0.00000
      7       2.0917      0.00000
      8       2.4807      0.00000
      9       3.5605      0.00000
     10       4.6302      0.00000

 k-point   222 :       0.1333   -0.0667    0.2000
  band No.  band energies     occupation 
      1     -46.4677      2.00000
      2     -46.4331      2.00000
      3     -46.4232      2.00000
      4     -46.4123      2.00000
      5      -2.5668      2.00000
      6       0.8636      0.00000
      7       2.1029      0.00000
      8       2.4500      0.00000
      9       3.5341      0.00000
     10       4.7239      0.00000

 k-point   223 :       0.1333   -0.2000   -0.0667
  band No.  band energies     occupation 
      1     -46.4669      2.00000
      2     -46.4350      2.00000
      3     -46.4200      2.00000
      4     -46.4143      2.00000
      5      -2.5664      2.00000
      6       0.8561      0.00000
      7       2.1136      0.00000
      8       2.4869      0.00000
      9       3.5100      0.00000
     10       4.6437      0.00000

 k-point   224 :       0.1333    0.0667   -0.2000
  band No.  band energies     occupation 
      1     -46.4668      2.00000
      2     -46.4370      2.00000
      3     -46.4171      2.00000
      4     -46.4153      2.00000
      5      -2.5664      2.00000
      6       0.8618      0.00000
      7       2.1439      0.00000
      8       2.4493      0.00000
      9       3.4946      0.00000
     10       4.5823      0.00000

 k-point   225 :       0.2000    0.2000    0.0667
  band No.  band energies     occupation 
      1     -46.4652      2.00000
      2     -46.4341      2.00000
      3     -46.4233      2.00000
      4     -46.4136      2.00000
      5      -2.4274      2.00000
      6       0.8975      0.00000
      7       1.5490      0.00000
      8       2.5222      0.00000
      9       3.5935      0.00000
     10       4.6191      0.00000

 k-point   226 :       0.2000   -0.0667    0.2000
  band No.  band energies     occupation 
      1     -46.4659      2.00000
      2     -46.4322      2.00000
      3     -46.4257      2.00000
      4     -46.4123      2.00000
      5      -2.4281      2.00000
      6       0.8898      0.00000
      7       1.5657      0.00000
      8       2.5122      0.00000
      9       3.5614      0.00000
     10       4.7042      0.00000

 k-point   227 :       0.2000   -0.2000   -0.0667
  band No.  band energies     occupation 
      1     -46.4648      2.00000
      2     -46.4359      2.00000
      3     -46.4209      2.00000
      4     -46.4145      2.00000
      5      -2.4274      2.00000
      6       0.8934      0.00000
      7       1.5611      0.00000
      8       2.5403      0.00000
      9       3.5392      0.00000
     10       4.6344      0.00000

 k-point   228 :       0.2000    0.0667   -0.2000
  band No.  band energies     occupation 
      1     -46.4646      2.00000
      2     -46.4383      2.00000
      3     -46.4176      2.00000
      4     -46.4156      2.00000
      5      -2.4276      2.00000
      6       0.8797      0.00000
      7       1.6186      0.00000
      8       2.4832      0.00000
      9       3.5331      0.00000
     10       4.5959      0.00000

 k-point   229 :       0.2667    0.2000    0.0667
  band No.  band energies     occupation 
      1     -46.4627      2.00000
      2     -46.4355      2.00000
      3     -46.4238      2.00000
      4     -46.4141      2.00000
      5      -2.2326      2.00000
      6       0.6177      2.00000
      7       1.3766      0.00000
      8       2.6130      0.00000
      9       3.5971      0.00000
     10       4.4995      0.00000

 k-point   230 :       0.2667   -0.0667    0.2000
  band No.  band energies     occupation 
      1     -46.4636      2.00000
      2     -46.4330      2.00000
      3     -46.4270      2.00000
      4     -46.4126      2.00000
      5      -2.2336      2.00000
      6       0.6039      2.00000
      7       1.3984      0.00000
      8       2.6226      0.00000
      9       3.5574      0.00000
     10       4.5498      0.00000

 k-point   231 :       0.2667   -0.2000   -0.0667
  band No.  band energies     occupation 
      1     -46.4622      2.00000
      2     -46.4376      2.00000
      3     -46.4213      2.00000
      4     -46.4151      2.00000
      5      -2.2327      2.00000
      6       0.6181      2.00000
      7       1.3790      0.00000
      8       2.6393      0.00000
      9       3.5410      0.00000
     10       4.5116      0.00000

 k-point   232 :       0.2667    0.0667   -0.2000
  band No.  band energies     occupation 
      1     -46.4619      2.00000
      2     -46.4401      2.00000
      3     -46.4182      2.00000
      4     -46.4160      2.00000
      5      -2.2331      2.00000
      6       0.5965      2.00000
      7       1.4472      0.00000
      8       2.5682      0.00000
      9       3.5538      0.00000
     10       4.4708      0.00000

 k-point   233 :       0.3333    0.2000    0.0667
  band No.  band energies     occupation 
      1     -46.4596      2.00000
      2     -46.4382      2.00000
      3     -46.4233      2.00000
      4     -46.4150      2.00000
      5      -1.9817      2.00000
      6       0.0956      2.00000
      7       1.5375      0.00000
      8       2.6644      0.00000
      9       3.5683      0.00000
     10       4.3701      0.00000

 k-point   234 :       0.3333   -0.0667    0.2000
  band No.  band energies     occupation 
      1     -46.4607      2.00000
      2     -46.4360      2.00000
      3     -46.4261      2.00000
      4     -46.4133      2.00000
      5      -1.9831      2.00000
      6       0.0875      2.00000
      7       1.5517      0.00000
      8       2.7048      0.00000
      9       3.5090      0.00000
     10       4.3772      0.00000

 k-point   235 :       0.3333   -0.2000   -0.0667
  band No.  band energies     occupation 
      1     -46.4590      2.00000
      2     -46.4400      2.00000
      3     -46.4210      2.00000
      4     -46.4160      2.00000
      5      -1.9818      2.00000
      6       0.0971      2.00000
      7       1.5355      0.00000
      8       2.6924      0.00000
      9       3.5248      0.00000
     10       4.3673      0.00000

 k-point   236 :       0.3333    0.0667   -0.2000
  band No.  band energies     occupation 
      1     -46.4585      2.00000
      2     -46.4423      2.00000
      3     -46.4186      2.00000
      4     -46.4166      2.00000
      5      -1.9825      2.00000
      6       0.0862      2.00000
      7       1.5982      0.00000
      8       2.6138      0.00000
      9       3.5575      0.00000
     10       4.3030      0.00000

 k-point   237 :       0.4000    0.2000    0.0667
  band No.  band energies     occupation 
      1     -46.4563      2.00000
      2     -46.4415      2.00000
      3     -46.4221      2.00000
      4     -46.4161      2.00000
      5      -1.6745      2.00000
      6      -0.4211      2.00000
      7       1.7834      0.00000
      8       2.5820      0.00000
      9       3.6059      0.00000
     10       4.2192      0.00000

 k-point   238 :       0.4000   -0.0667    0.2000
  band No.  band energies     occupation 
      1     -46.4575      2.00000
      2     -46.4399      2.00000
      3     -46.4243      2.00000
      4     -46.4142      2.00000
      5      -1.6765      2.00000
      6      -0.4260      2.00000
      7       1.7910      0.00000
      8       2.6484      0.00000
      9       3.5209      0.00000
     10       4.2014      0.00000

 k-point   239 :       0.4000   -0.2000   -0.0667
  band No.  band energies     occupation 
      1     -46.4556      2.00000
      2     -46.4430      2.00000
      3     -46.4202      2.00000
      4     -46.4173      2.00000
      5      -1.6747      2.00000
      6      -0.4200      2.00000
      7       1.7791      0.00000
      8       2.6009      0.00000
      9       3.5897      0.00000
     10       4.2016      0.00000

 k-point   240 :       0.4000    0.0667   -0.2000
  band No.  band energies     occupation 
      1     -46.4551      2.00000
      2     -46.4448      2.00000
      3     -46.4194      2.00000
      4     -46.4167      2.00000
      5      -1.6759      2.00000
      6      -0.4262      2.00000
      7       1.8454      0.00000
      8       2.5389      0.00000
      9       3.6130      0.00000
     10       4.1176      0.00000

 k-point   241 :       0.4667    0.2000    0.0667
  band No.  band energies     occupation 
      1     -46.4532      2.00000
      2     -46.4448      2.00000
      3     -46.4206      2.00000
      4     -46.4174      2.00000
      5      -1.3112      2.00000
      6      -0.8926      2.00000
      7       2.0566      0.00000
      8       2.3671      0.00000
      9       3.7601      0.00000
     10       4.0150      0.00000

 k-point   242 :       0.4667   -0.0667    0.2000
  band No.  band energies     occupation 
      1     -46.4545      2.00000
      2     -46.4438      2.00000
      3     -46.4225      2.00000
      4     -46.4152      2.00000
      5      -1.3140      2.00000
      6      -0.8957      2.00000
      7       2.0620      0.00000
      8       2.4261      0.00000
      9       3.6655      0.00000
     10       3.9997      0.00000

 k-point   243 :       0.4667   -0.2000   -0.0667
  band No.  band energies     occupation 
      1     -46.4527      2.00000
      2     -46.4455      2.00000
      3     -46.4193      2.00000
      4     -46.4184      2.00000
      5      -1.3116      2.00000
      6      -0.8919      2.00000
      7       2.0508      0.00000
      8       2.3769      0.00000
      9       3.7662      0.00000
     10       3.9970      0.00000

 k-point   244 :       0.4667    0.0667   -0.2000
  band No.  band energies     occupation 
      1     -46.4530      2.00000
      2     -46.4461      2.00000
      3     -46.4208      2.00000
      4     -46.4162      2.00000
      5      -1.3135      2.00000
      6      -0.8959      2.00000
      7       2.1306      0.00000
      8       2.3353      0.00000
      9       3.7516      0.00000
     10       3.9193      0.00000

 k-point   245 :       0.0000    0.2667    0.0667
  band No.  band energies     occupation 
      1     -46.4660      2.00000
      2     -46.4378      2.00000
      3     -46.4187      2.00000
      4     -46.4139      2.00000
      5      -2.5009      2.00000
      6       0.1854      2.00000
      7       2.4394      0.00000
      8       3.2819      0.00000
      9       3.7454      0.00000
     10       4.0841      0.00000

 k-point   246 :       0.0000   -0.0667    0.2667
  band No.  band energies     occupation 
      1     -46.4664      2.00000
      2     -46.4389      2.00000
      3     -46.4182      2.00000
      4     -46.4128      2.00000
      5      -2.5010      2.00000
      6       0.1929      2.00000
      7       2.4194      0.00000
      8       3.2618      0.00000
      9       3.7617      0.00000
     10       4.0631      0.00000

 k-point   247 :       0.0667    0.2667    0.0667
  band No.  band energies     occupation 
      1     -46.4657      2.00000
      2     -46.4375      2.00000
      3     -46.4194      2.00000
      4     -46.4137      2.00000
      5      -2.4733      2.00000
      6       0.2099      2.00000
      7       2.4394      0.00000
      8       2.9721      0.00000
      9       3.6044      0.00000
     10       4.4480      0.00000

 k-point   248 :       0.0667   -0.0667    0.2667
  band No.  band energies     occupation 
      1     -46.4663      2.00000
      2     -46.4380      2.00000
      3     -46.4198      2.00000
      4     -46.4122      2.00000
      5      -2.4735      2.00000
      6       0.2165      2.00000
      7       2.4304      0.00000
      8       2.9350      0.00000
      9       3.5905      0.00000
     10       4.5285      0.00000

 k-point   249 :       0.0667   -0.2667   -0.0667
  band No.  band energies     occupation 
      1     -46.4655      2.00000
      2     -46.4379      2.00000
      3     -46.4188      2.00000
      4     -46.4141      2.00000
      5      -2.4733      2.00000
      6       0.2090      2.00000
      7       2.4498      0.00000
      8       3.0040      0.00000
      9       3.5352      0.00000
     10       4.4700      0.00000

 k-point   250 :       0.0667    0.0667   -0.2667
  band No.  band energies     occupation 
      1     -46.4657      2.00000
      2     -46.4397      2.00000
      3     -46.4172      2.00000
      4     -46.4137      2.00000
      5      -2.4733      2.00000
      6       0.2159      2.00000
      7       2.4254      0.00000
      8       3.0287      0.00000
      9       3.5282      0.00000
     10       4.3775      0.00000

 k-point   251 :       0.1333    0.2667    0.0667
  band No.  band energies     occupation 
      1     -46.4645      2.00000
      2     -46.4372      2.00000
      3     -46.4207      2.00000
      4     -46.4137      2.00000
      5      -2.3902      2.00000
      6       0.2795      2.00000
      7       2.2409      0.00000
      8       2.5904      0.00000
      9       3.5882      0.00000
     10       4.6531      0.00000

 k-point   252 :       0.1333   -0.0667    0.2667
  band No.  band energies     occupation 
      1     -46.4654      2.00000
      2     -46.4368      2.00000
      3     -46.4220      2.00000
      4     -46.4119      2.00000
      5      -2.3908      2.00000
      6       0.2837      2.00000
      7       2.2366      0.00000
      8       2.5718      0.00000
      9       3.5686      0.00000
     10       4.7562      0.00000

 k-point   253 :       0.1333   -0.2667   -0.0667
  band No.  band energies     occupation 
      1     -46.4643      2.00000
      2     -46.4380      2.00000
      3     -46.4196      2.00000
      4     -46.4143      2.00000
      5      -2.3902      2.00000
      6       0.2776      2.00000
      7       2.2620      0.00000
      8       2.6021      0.00000
      9       3.5306      0.00000
     10       4.6731      0.00000

 k-point   254 :       0.1333    0.0667   -0.2667
  band No.  band energies     occupation 
      1     -46.4643      2.00000
      2     -46.4404      2.00000
      3     -46.4170      2.00000
      4     -46.4145      2.00000
      5      -2.3903      2.00000
      6       0.2815      2.00000
      7       2.2984      0.00000
      8       2.5588      0.00000
      9       3.5233      0.00000
     10       4.5818      0.00000

 k-point   255 :       0.2000    0.2667    0.0667
  band No.  band energies     occupation 
      1     -46.4627      2.00000
      2     -46.4372      2.00000
      3     -46.4222      2.00000
      4     -46.4141      2.00000
      5      -2.2516      2.00000
      6       0.3788      2.00000
      7       1.6560      0.00000
      8       2.6098      0.00000
      9       3.5979      0.00000
     10       4.5401      0.00000

 k-point   256 :       0.2000   -0.0667    0.2667
  band No.  band energies     occupation 
      1     -46.4639      2.00000
      2     -46.4357      2.00000
      3     -46.4244      2.00000
      4     -46.4121      2.00000
      5      -2.2527      2.00000
      6       0.3781      2.00000
      7       1.6546      0.00000
      8       2.6170      0.00000
      9       3.5698      0.00000
     10       4.6103      0.00000

 k-point   257 :       0.2000   -0.2667   -0.0667
  band No.  band energies     occupation 
      1     -46.4624      2.00000
      2     -46.4383      2.00000
      3     -46.4207      2.00000
      4     -46.4148      2.00000
      5      -2.2517      2.00000
      6       0.3759      2.00000
      7       1.6681      0.00000
      8       2.6319      0.00000
      9       3.5383      0.00000
     10       4.5631      0.00000

 k-point   258 :       0.2000    0.0667   -0.2667
  band No.  band energies     occupation 
      1     -46.4621      2.00000
      2     -46.4413      2.00000
      3     -46.4175      2.00000
      4     -46.4153      2.00000
      5      -2.2519      2.00000
      6       0.3707      2.00000
      7       1.7189      0.00000
      8       2.5669      0.00000
      9       3.5467      0.00000
     10       4.4964      0.00000

 k-point   259 :       0.2667    0.2667    0.0667
  band No.  band energies     occupation 
      1     -46.4603      2.00000
      2     -46.4377      2.00000
      3     -46.4233      2.00000
      4     -46.4148      2.00000
      5      -2.0576      2.00000
      6       0.4276      2.00000
      7       1.1693      0.00000
      8       2.6331      0.00000
      9       3.5650      0.00000
     10       4.3979      0.00000

 k-point   260 :       0.2667   -0.0667    0.2667
  band No.  band energies     occupation 
      1     -46.4618      2.00000
      2     -46.4352      2.00000
      3     -46.4266      2.00000
      4     -46.4126      2.00000
      5      -2.0593      2.00000
      6       0.4162      2.00000
      7       1.1808      0.00000
      8       2.6707      0.00000
      9       3.5185      0.00000
     10       4.4248      0.00000

 k-point   261 :       0.2667   -0.2667   -0.0667
  band No.  band energies     occupation 
      1     -46.4599      2.00000
      2     -46.4391      2.00000
      3     -46.4215      2.00000
      4     -46.4156      2.00000
      5      -2.0578      2.00000
      6       0.4246      2.00000
      7       1.1763      0.00000
      8       2.6617      0.00000
      9       3.5086      0.00000
     10       4.4147      0.00000

 k-point   262 :       0.2667    0.0667   -0.2667
  band No.  band energies     occupation 
      1     -46.4594      2.00000
      2     -46.4424      2.00000
      3     -46.4184      2.00000
      4     -46.4158      2.00000
      5      -2.0584      2.00000
      6       0.3966      2.00000
      7       1.2498      0.00000
      8       2.5852      0.00000
      9       3.5420      0.00000
     10       4.3448      0.00000

 k-point   263 :       0.3333    0.2667    0.0667
  band No.  band energies     occupation 
      1     -46.4575      2.00000
      2     -46.4392      2.00000
      3     -46.4235      2.00000
      4     -46.4159      2.00000
      5      -1.8082      2.00000
      6       0.1703      2.00000
      7       1.0816      0.00000
      8       2.5292      0.00000
      9       3.5532      0.00000
     10       4.3436      0.00000

 k-point   264 :       0.3333   -0.0667    0.2667
  band No.  band energies     occupation 
      1     -46.4592      2.00000
      2     -46.4363      2.00000
      3     -46.4271      2.00000
      4     -46.4134      2.00000
      5      -1.8108      2.00000
      6       0.1563      2.00000
      7       1.0962      0.00000
      8       2.5976      0.00000
      9       3.4781      0.00000
     10       4.3390      0.00000

 k-point   265 :       0.3333   -0.2667   -0.0667
  band No.  band energies     occupation 
      1     -46.4569      2.00000
      2     -46.4407      2.00000
      3     -46.4217      2.00000
      4     -46.4167      2.00000
      5      -1.8084      2.00000
      6       0.1705      2.00000
      7       1.0821      0.00000
      8       2.5528      0.00000
      9       3.5185      0.00000
     10       4.3430      0.00000

 k-point   266 :       0.3333    0.0667   -0.2667
  band No.  band energies     occupation 
      1     -46.4563      2.00000
      2     -46.4438      2.00000
      3     -46.4195      2.00000
      4     -46.4163      2.00000
      5      -1.8096      2.00000
      6       0.1416      2.00000
      7       1.1587      0.00000
      8       2.4868      0.00000
      9       3.5539      0.00000
     10       4.2540      0.00000

 k-point   267 :       0.4000    0.2667    0.0667
  band No.  band energies     occupation 
      1     -46.4544      2.00000
      2     -46.4416      2.00000
      3     -46.4227      2.00000
      4     -46.4172      2.00000
      5      -1.5036      2.00000
      6      -0.2834      2.00000
      7       1.2876      0.00000
      8       2.2648      0.00000
      9       3.6665      0.00000
     10       4.2756      0.00000

 k-point   268 :       0.4000   -0.0667    0.2667
  band No.  band energies     occupation 
      1     -46.4564      2.00000
      2     -46.4392      2.00000
      3     -46.4261      2.00000
      4     -46.4143      2.00000
      5      -1.5075      2.00000
      6      -0.2922      2.00000
      7       1.2957      0.00000
      8       2.3372      0.00000
      9       3.5780      0.00000
     10       4.2568      0.00000

 k-point   269 :       0.4000   -0.2667   -0.0667
  band No.  band energies     occupation 
      1     -46.4538      2.00000
      2     -46.4429      2.00000
      3     -46.4212      2.00000
      4     -46.4181      2.00000
      5      -1.5040      2.00000
      6      -0.2824      2.00000
      7       1.2847      0.00000
      8       2.2788      0.00000
      9       3.6563      0.00000
     10       4.2612      0.00000

 k-point   270 :       0.4000    0.0667   -0.2667
  band No.  band energies     occupation 
      1     -46.4533      2.00000
      2     -46.4454      2.00000
      3     -46.4209      2.00000
      4     -46.4164      2.00000
      5      -1.5060      2.00000
      6      -0.2982      2.00000
      7       1.3531      0.00000
      8       2.2390      0.00000
      9       3.6656      0.00000
     10       4.1642      0.00000

 k-point   271 :       0.4667    0.2667    0.0667
  band No.  band energies     occupation 
      1     -46.4516      2.00000
      2     -46.4443      2.00000
      3     -46.4215      2.00000
      4     -46.4186      2.00000
      5      -1.1449      2.00000
      6      -0.7351      2.00000
      7       1.5806      0.00000
      8       1.9343      0.00000
      9       3.8634      0.00000
     10       4.1150      0.00000

 k-point   272 :       0.4667   -0.0667    0.2667
  band No.  band energies     occupation 
      1     -46.4537      2.00000
      2     -46.4426      2.00000
      3     -46.4244      2.00000
      4     -46.4153      2.00000
      5      -1.1509      2.00000
      6      -0.7404      2.00000
      7       1.5852      0.00000
      8       1.9954      0.00000
      9       3.7641      0.00000
     10       4.1028      0.00000

 k-point   273 :       0.4667   -0.2667   -0.0667
  band No.  band energies     occupation 
      1     -46.4511      2.00000
      2     -46.4449      2.00000
      3     -46.4204      2.00000
      4     -46.4194      2.00000
      5      -1.1455      2.00000
      6      -0.7342      2.00000
      7       1.5756      0.00000
      8       1.9424      0.00000
      9       3.8690      0.00000
     10       4.1002      0.00000

 k-point   274 :       0.4667    0.0667   -0.2667
  band No.  band energies     occupation 
      1     -46.4520      2.00000
      2     -46.4454      2.00000
      3     -46.4225      2.00000
      4     -46.4160      2.00000
      5      -1.1489      2.00000
      6      -0.7435      2.00000
      7       1.6473      0.00000
      8       1.9192      0.00000
      9       3.8364      0.00000
     10       4.0274      0.00000

 k-point   275 :       0.0000    0.3333    0.0667
  band No.  band energies     occupation 
      1     -46.4627      2.00000
      2     -46.4418      2.00000
      3     -46.4178      2.00000
      4     -46.4140      2.00000
      5      -2.2733      2.00000
      6      -0.3553      2.00000
      7       2.5927      0.00000
      8       3.2461      0.00000
      9       3.9070      0.00000
     10       4.2591      0.00000

 k-point   276 :       0.0000   -0.0667    0.3333
  band No.  band energies     occupation 
      1     -46.4633      2.00000
      2     -46.4430      2.00000
      3     -46.4178      2.00000
      4     -46.4122      2.00000
      5      -2.2733      2.00000
      6      -0.3504      2.00000
      7       2.5720      0.00000
      8       3.2318      0.00000
      9       3.9156      0.00000
     10       4.2474      0.00000

 k-point   277 :       0.0667    0.3333    0.0667
  band No.  band energies     occupation 
      1     -46.4624      2.00000
      2     -46.4416      2.00000
      3     -46.4183      2.00000
      4     -46.4140      2.00000
      5      -2.2457      2.00000
      6      -0.3297      2.00000
      7       2.5909      0.00000
      8       3.0523      0.00000
      9       3.6892      0.00000
     10       4.5031      0.00000

 k-point   278 :       0.0667   -0.0667    0.3333
  band No.  band energies     occupation 
      1     -46.4633      2.00000
      2     -46.4421      2.00000
      3     -46.4190      2.00000
      4     -46.4118      2.00000
      5      -2.2460      2.00000
      6      -0.3252      2.00000
      7       2.5781      0.00000
      8       3.0221      0.00000
      9       3.6719      0.00000
     10       4.6010      0.00000

 k-point   279 :       0.0667   -0.3333   -0.0667
  band No.  band energies     occupation 
      1     -46.4623      2.00000
      2     -46.4417      2.00000
      3     -46.4180      2.00000
      4     -46.4142      2.00000
      5      -2.2458      2.00000
      6      -0.3303      2.00000
      7       2.5999      0.00000
      8       3.0873      0.00000
      9       3.6192      0.00000
     10       4.5257      0.00000

 k-point   280 :       0.0667    0.0667   -0.3333
  band No.  band energies     occupation 
      1     -46.4626      2.00000
      2     -46.4436      2.00000
      3     -46.4171      2.00000
      4     -46.4129      2.00000
      5      -2.2457      2.00000
      6      -0.3259      2.00000
      7       2.5752      0.00000
      8       3.1035      0.00000
      9       3.6342      0.00000
     10       4.4198      0.00000

 k-point   281 :       0.1333    0.3333    0.0667
  band No.  band energies     occupation 
      1     -46.4613      2.00000
      2     -46.4411      2.00000
      3     -46.4195      2.00000
      4     -46.4142      2.00000
      5      -2.1630      2.00000
      6      -0.2549      2.00000
      7       2.4161      0.00000
      8       2.7155      0.00000
      9       3.6029      0.00000
     10       4.5117      0.00000

 k-point   282 :       0.1333   -0.0667    0.3333
  band No.  band energies     occupation 
      1     -46.4626      2.00000
      2     -46.4409      2.00000
      3     -46.4208      2.00000
      4     -46.4118      2.00000
      5      -2.1637      2.00000
      6      -0.2517      2.00000
      7       2.3914      0.00000
      8       2.7218      0.00000
      9       3.5857      0.00000
     10       4.5981      0.00000

 k-point   283 :       0.1333   -0.3333   -0.0667
  band No.  band energies     occupation 
      1     -46.4611      2.00000
      2     -46.4415      2.00000
      3     -46.4189      2.00000
      4     -46.4146      2.00000
      5      -2.1631      2.00000
      6      -0.2561      2.00000
      7       2.4355      0.00000
      8       2.7359      0.00000
      9       3.5395      0.00000
     10       4.5318      0.00000

 k-point   284 :       0.1333    0.0667   -0.3333
  band No.  band energies     occupation 
      1     -46.4612      2.00000
      2     -46.4441      2.00000
      3     -46.4172      2.00000
      4     -46.4137      2.00000
      5      -2.1631      2.00000
      6      -0.2539      2.00000
      7       2.4801      0.00000
      8       2.6802      0.00000
      9       3.5464      0.00000
     10       4.4444      0.00000

 k-point   285 :       0.2000    0.3333    0.0667
  band No.  band energies     occupation 
      1     -46.4597      2.00000
      2     -46.4407      2.00000
      3     -46.4209      2.00000
      4     -46.4148      2.00000
      5      -2.0252      2.00000
      6      -0.1369      2.00000
      7       1.8442      0.00000
      8       2.6792      0.00000
      9       3.5766      0.00000
     10       4.3311      0.00000

 k-point   286 :       0.2000   -0.0667    0.3333
  band No.  band energies     occupation 
      1     -46.4613      2.00000
      2     -46.4396      2.00000
      3     -46.4231      2.00000
      4     -46.4121      2.00000
      5      -2.0268      2.00000
      6      -0.1364      2.00000
      7       1.8290      0.00000
      8       2.7159      0.00000
      9       3.5426      0.00000
     10       4.3740      0.00000

 k-point   287 :       0.2000   -0.3333   -0.0667
  band No.  band energies     occupation 
      1     -46.4594      2.00000
      2     -46.4413      2.00000
      3     -46.4201      2.00000
      4     -46.4153      2.00000
      5      -2.0254      2.00000
      6      -0.1388      2.00000
      7       1.8567      0.00000
      8       2.7051      0.00000
      9       3.5159      0.00000
     10       4.3519      0.00000

 k-point   288 :       0.2000    0.0667   -0.3333
  band No.  band energies     occupation 
      1     -46.4592      2.00000
      2     -46.4445      2.00000
      3     -46.4180      2.00000
      4     -46.4145      2.00000
      5      -2.0257      2.00000
      6      -0.1418      2.00000
      7       1.9093      0.00000
      8       2.6278      0.00000
      9       3.5440      0.00000
     10       4.2874      0.00000

 k-point   289 :       0.2667    0.3333    0.0667
  band No.  band energies     occupation 
      1     -46.4575      2.00000
      2     -46.4405      2.00000
      3     -46.4223      2.00000
      4     -46.4158      2.00000
      5      -1.8326      2.00000
      6       0.0031      2.00000
      7       1.2831      0.00000
      8       2.5592      0.00000
      9       3.5467      0.00000
     10       4.2766      0.00000

 k-point   290 :       0.2667   -0.0667    0.3333
  band No.  band energies     occupation 
      1     -46.4595      2.00000
      2     -46.4384      2.00000
      3     -46.4254      2.00000
      4     -46.4127      2.00000
      5      -1.8353      2.00000
      6      -0.0015      2.00000
      7       1.2792      0.00000
      8       2.6282      0.00000
      9       3.4830      0.00000
     10       4.2923      0.00000

 k-point   291 :       0.2667   -0.3333   -0.0667
  band No.  band energies     occupation 
      1     -46.4571      2.00000
      2     -46.4414      2.00000
      3     -46.4212      2.00000
      4     -46.4163      2.00000
      5      -1.8329      2.00000
      6       0.0005      2.00000
      7       1.2910      0.00000
      8       2.5838      0.00000
      9       3.5012      0.00000
     10       4.2892      0.00000

 k-point   292 :       0.2667    0.0667   -0.3333
  band No.  band energies     occupation 
      1     -46.4566      2.00000
      2     -46.4449      2.00000
      3     -46.4192      2.00000
      4     -46.4153      2.00000
      5      -1.8337      2.00000
      6      -0.0151      2.00000
      7       1.3530      0.00000
      8       2.5101      0.00000
      9       3.5426      0.00000
     10       4.2176      0.00000

 k-point   293 :       0.3333    0.3333    0.0667
  band No.  band energies     occupation 
      1     -46.4549      2.00000
      2     -46.4409      2.00000
      3     -46.4231      2.00000
      4     -46.4170      2.00000
      5      -1.5857      2.00000
      6       0.0687      2.00000
      7       0.8856      0.00000
      8       2.2639      0.00000
      9       3.6215      0.00000
     10       4.3411      0.00000

 k-point   294 :       0.3333   -0.0667    0.3333
  band No.  band energies     occupation 
      1     -46.4574      2.00000
      2     -46.4379      2.00000
      3     -46.4271      2.00000
      4     -46.4136      2.00000
      5      -1.5900      2.00000
      6       0.0553      2.00000
      7       0.8936      0.00000
      8       2.3397      0.00000
      9       3.5440      0.00000
     10       4.3432      0.00000

 k-point   295 :       0.3333   -0.3333   -0.0667
  band No.  band energies     occupation 
      1     -46.4545      2.00000
      2     -46.4419      2.00000
      3     -46.4219      2.00000
      4     -46.4177      2.00000
      5      -1.5861      2.00000
      6       0.0666      2.00000
      7       0.8897      0.00000
      8       2.2794      0.00000
      9       3.5995      0.00000
     10       4.3412      0.00000

 k-point   296 :       0.3333    0.0667   -0.3333
  band No.  band energies     occupation 
      1     -46.4538      2.00000
      2     -46.4455      2.00000
      3     -46.4208      2.00000
      4     -46.4159      2.00000
      5      -1.5878      2.00000
      6       0.0281      2.00000
      7       0.9745      0.00000
      8       2.2310      0.00000
      9       3.6227      0.00000
     10       4.2535      0.00000

 k-point   297 :       0.4000    0.3333    0.0667
  band No.  band energies     occupation 
      1     -46.4522      2.00000
      2     -46.4422      2.00000
      3     -46.4231      2.00000
      4     -46.4185      2.00000
      5      -1.2857      2.00000
      6      -0.1568      2.00000
      7       0.8781      0.00000
      8       1.8791      0.00000
      9       3.8029      0.00000
     10       4.3758      0.00000

 k-point   298 :       0.4000   -0.0667    0.3333
  band No.  band energies     occupation 
      1     -46.4550      2.00000
      2     -46.4390      2.00000
      3     -46.4273      2.00000
      4     -46.4145      2.00000
      5      -1.2926      2.00000
      6      -0.1701      2.00000
      7       0.8867      0.00000
      8       1.9487      0.00000
      9       3.7188      0.00000
     10       4.3703      0.00000

 k-point   299 :       0.4000   -0.3333   -0.0667
  band No.  band energies     occupation 
      1     -46.4517      2.00000
      2     -46.4431      2.00000
      3     -46.4220      2.00000
      4     -46.4192      2.00000
      5      -1.2864      2.00000
      6      -0.1564      2.00000
      7       0.8774      0.00000
      8       1.8885      0.00000
      9       3.7978      0.00000
     10       4.3657      0.00000

 k-point   300 :       0.4000    0.0667   -0.3333
  band No.  band energies     occupation 
      1     -46.4515      2.00000
      2     -46.4458      2.00000
      3     -46.4225      2.00000
      4     -46.4162      2.00000
      5      -1.2893      2.00000
      6      -0.1902      2.00000
      7       0.9596      0.00000
      8       1.8618      0.00000
      9       3.7958      0.00000
     10       4.2695      0.00000

 k-point   301 :       0.4667    0.3333    0.0667
  band No.  band energies     occupation 
      1     -46.4498      2.00000
      2     -46.4440      2.00000
      3     -46.4223      2.00000
      4     -46.4199      2.00000
      5      -0.9363      2.00000
      6      -0.5468      2.00000
      7       1.1321      0.00000
      8       1.4929      0.00000
      9       4.0280      0.00000
     10       4.2719      0.00000

 k-point   302 :       0.4667   -0.0667    0.3333
  band No.  band energies     occupation 
      1     -46.4528      2.00000
      2     -46.4415      2.00000
      3     -46.4262      2.00000
      4     -46.4154      2.00000
      5      -0.9476      2.00000
      6      -0.5551      2.00000
      7       1.1358      0.00000
      8       1.5558      0.00000
      9       3.9266      0.00000
     10       4.2730      0.00000

 k-point   303 :       0.4667   -0.3333   -0.0667
  band No.  band energies     occupation 
      1     -46.4494      2.00000
      2     -46.4445      2.00000
      3     -46.4215      2.00000
      4     -46.4205      2.00000
      5      -0.9372      2.00000
      6      -0.5459      2.00000
      7       1.1286      0.00000
      8       1.4987      0.00000
      9       4.0335      0.00000
     10       4.2601      0.00000

 k-point   304 :       0.4667    0.0667   -0.3333
  band No.  band energies     occupation 
      1     -46.4512      2.00000
      2     -46.4443      2.00000
      3     -46.4244      2.00000
      4     -46.4160      2.00000
      5      -0.9423      2.00000
      6      -0.5648      2.00000
      7       1.2016      0.00000
      8       1.4847      0.00000
      9       3.9888      0.00000
     10       4.1985      0.00000

 k-point   305 :       0.0000    0.4000    0.0667
  band No.  band energies     occupation 
      1     -46.4589      2.00000
      2     -46.4461      2.00000
      3     -46.4168      2.00000
      4     -46.4144      2.00000
      5      -1.9943      2.00000
      6      -0.8439      2.00000
      7       2.7578      0.00000
      8       3.1739      0.00000
      9       4.0919      0.00000
     10       4.3914      0.00000

 k-point   306 :       0.0000   -0.0667    0.4000
  band No.  band energies     occupation 
      1     -46.4598      2.00000
      2     -46.4472      2.00000
      3     -46.4174      2.00000
      4     -46.4118      2.00000
      5      -1.9940      2.00000
      6      -0.8408      2.00000
      7       2.7327      0.00000
      8       3.1702      0.00000
      9       4.0842      0.00000
     10       4.3986      0.00000

 k-point   307 :       0.0667    0.4000    0.0667
  band No.  band energies     occupation 
      1     -46.4587      2.00000
      2     -46.4459      2.00000
      3     -46.4173      2.00000
      4     -46.4145      2.00000
      5      -1.9668      2.00000
      6      -0.8175      2.00000
      7       2.7494      0.00000
      8       3.0716      0.00000
      9       3.8334      0.00000
     10       4.4528      0.00000

 k-point   308 :       0.0667   -0.0667    0.4000
  band No.  band energies     occupation 
      1     -46.4599      2.00000
      2     -46.4464      2.00000
      3     -46.4183      2.00000
      4     -46.4116      2.00000
      5      -1.9670      2.00000
      6      -0.8146      2.00000
      7       2.7278      0.00000
      8       3.0643      0.00000
      9       3.7985      0.00000
     10       4.5494      0.00000

 k-point   309 :       0.0667   -0.4000   -0.0667
  band No.  band energies     occupation 
      1     -46.4586      2.00000
      2     -46.4459      2.00000
      3     -46.4171      2.00000
      4     -46.4146      2.00000
      5      -1.9669      2.00000
      6      -0.8179      2.00000
      7       2.7576      0.00000
      8       3.0978      0.00000
      9       3.7795      0.00000
     10       4.4650      0.00000

 k-point   310 :       0.0667    0.0667   -0.4000
  band No.  band energies     occupation 
      1     -46.4591      2.00000
      2     -46.4477      2.00000
      3     -46.4172      2.00000
      4     -46.4123      2.00000
      5      -1.9665      2.00000
      6      -0.8154      2.00000
      7       2.7283      0.00000
      8       3.1071      0.00000
      9       3.8187      0.00000
     10       4.3679      0.00000

 k-point   311 :       0.1333    0.4000    0.0667
  band No.  band energies     occupation 
      1     -46.4577      2.00000
      2     -46.4453      2.00000
      3     -46.4182      2.00000
      4     -46.4149      2.00000
      5      -1.8846      2.00000
      6      -0.7395      2.00000
      7       2.5952      0.00000
      8       2.8187      0.00000
      9       3.6369      0.00000
     10       4.2638      0.00000

 k-point   312 :       0.1333   -0.0667    0.4000
  band No.  band energies     occupation 
      1     -46.4594      2.00000
      2     -46.4451      2.00000
      3     -46.4198      2.00000
      4     -46.4118      2.00000
      5      -1.8855      2.00000
      6      -0.7375      2.00000
      7       2.5476      0.00000
      8       2.8631      0.00000
      9       3.6100      0.00000
     10       4.3190      0.00000

 k-point   313 :       0.1333   -0.4000   -0.0667
  band No.  band energies     occupation 
      1     -46.4576      2.00000
      2     -46.4455      2.00000
      3     -46.4179      2.00000
      4     -46.4152      2.00000
      5      -1.8848      2.00000
      6      -0.7404      2.00000
      7       2.6122      0.00000
      8       2.8466      0.00000
      9       3.5760      0.00000
     10       4.2715      0.00000

 k-point   314 :       0.1333    0.0667   -0.4000
  band No.  band energies     occupation 
      1     -46.4577      2.00000
      2     -46.4479      2.00000
      3     -46.4176      2.00000
      4     -46.4130      2.00000
      5      -1.8846      2.00000
      6      -0.7395      2.00000
      7       2.6595      0.00000
      8       2.7793      0.00000
      9       3.6012      0.00000
     10       4.2098      0.00000

 k-point   315 :       0.2000    0.4000    0.0667
  band No.  band energies     occupation 
      1     -46.4562      2.00000
      2     -46.4445      2.00000
      3     -46.4196      2.00000
      4     -46.4158      2.00000
      5      -1.7480      2.00000
      6      -0.6128      2.00000
      7       2.0707      0.00000
      8       2.6666      0.00000
      9       3.5843      0.00000
     10       4.0956      0.00000

 k-point   316 :       0.2000   -0.0667    0.4000
  band No.  band energies     occupation 
      1     -46.4584      2.00000
      2     -46.4436      2.00000
      3     -46.4218      2.00000
      4     -46.4123      2.00000
      5      -1.7501      2.00000
      6      -0.6124      2.00000
      7       2.0416      0.00000
      8       2.7384      0.00000
      9       3.5320      0.00000
     10       4.1200      0.00000

 k-point   317 :       0.2000   -0.4000   -0.0667
  band No.  band energies     occupation 
      1     -46.4560      2.00000
      2     -46.4449      2.00000
      3     -46.4191      2.00000
      4     -46.4161      2.00000
      5      -1.7484      2.00000
      6      -0.6141      2.00000
      7       2.0840      0.00000
      8       2.6914      0.00000
      9       3.5339      0.00000
     10       4.1030      0.00000

 k-point   318 :       0.2000    0.0667   -0.4000
  band No.  band energies     occupation 
      1     -46.4558      2.00000
      2     -46.4478      2.00000
      3     -46.4186      2.00000
      4     -46.4138      2.00000
      5      -1.7485      2.00000
      6      -0.6165      2.00000
      7       2.1422      0.00000
      8       2.6071      0.00000
      9       3.5747      0.00000
     10       4.0530      0.00000

 k-point   319 :       0.2667    0.4000    0.0667
  band No.  band energies     occupation 
      1     -46.4543      2.00000
      2     -46.4438      2.00000
      3     -46.4210      2.00000
      4     -46.4169      2.00000
      5      -1.5577      2.00000
      6      -0.4450      2.00000
      7       1.5072      0.00000
      8       2.3551      0.00000
      9       3.6210      0.00000
     10       4.1373      0.00000

 k-point   320 :       0.2667   -0.0667    0.4000
  band No.  band energies     occupation 
      1     -46.4570      2.00000
      2     -46.4419      2.00000
      3     -46.4240      2.00000
      4     -46.4131      2.00000
      5      -1.5616      2.00000
      6      -0.4475      2.00000
      7       1.4924      0.00000
      8       2.4343      0.00000
      9       3.5517      0.00000
     10       4.1533      0.00000

 k-point   321 :       0.2667   -0.4000   -0.0667
  band No.  band energies     occupation 
      1     -46.4540      2.00000
      2     -46.4442      2.00000
      3     -46.4205      2.00000
      4     -46.4173      2.00000
      5      -1.5582      2.00000
      6      -0.4468      2.00000
      7       1.5158      0.00000
      8       2.3720      0.00000
      9       3.5912      0.00000
     10       4.1405      0.00000

 k-point   322 :       0.2667    0.0667   -0.4000
  band No.  band energies     occupation 
      1     -46.4536      2.00000
      2     -46.4475      2.00000
      3     -46.4202      2.00000
      4     -46.4147      2.00000
      5      -1.5591      2.00000
      6      -0.4562      2.00000
      7       1.5742      0.00000
      8       2.3118      0.00000
      9       3.6245      0.00000
     10       4.0831      0.00000

 k-point   323 :       0.3333    0.4000    0.0667
  band No.  band energies     occupation 
      1     -46.4521      2.00000
      2     -46.4433      2.00000
      3     -46.4223      2.00000
      4     -46.4183      2.00000
      5      -1.3151      2.00000
      6      -0.2624      2.00000
      7       1.0079      0.00000
      8       1.9283      0.00000
      9       3.7705      0.00000
     10       4.2891      0.00000

 k-point   324 :       0.3333   -0.0667    0.4000
  band No.  band energies     occupation 
      1     -46.4553      2.00000
      2     -46.4405      2.00000
      3     -46.4262      2.00000
      4     -46.4140      2.00000
      5      -1.3219      2.00000
      6      -0.2700      2.00000
      7       1.0042      0.00000
      8       2.0007      0.00000
      9       3.6974      0.00000
     10       4.3038      0.00000

 k-point   325 :       0.3333   -0.4000   -0.0667
  band No.  band energies     occupation 
      1     -46.4517      2.00000
      2     -46.4438      2.00000
      3     -46.4216      2.00000
      4     -46.4188      2.00000
      5      -1.3158      2.00000
      6      -0.2646      2.00000
      7       1.0134      0.00000
      8       1.9387      0.00000
      9       3.7571      0.00000
     10       4.2886      0.00000

 k-point   326 :       0.3333    0.0667   -0.4000
  band No.  band energies     occupation 
      1     -46.4515      2.00000
      2     -46.4469      2.00000
      3     -46.4221      2.00000
      4     -46.4154      2.00000
      5      -1.3180      2.00000
      6      -0.2889      2.00000
      7       1.0843      0.00000
      8       1.9033      0.00000
      9       3.7696      0.00000
     10       4.2189      0.00000

 k-point   327 :       0.4000    0.4000    0.0667
  band No.  band energies     occupation 
      1     -46.4498      2.00000
      2     -46.4434      2.00000
      3     -46.4229      2.00000
      4     -46.4198      2.00000
      5      -1.0239      2.00000
      6      -0.1731      2.00000
      7       0.6980      2.00000
      8       1.4864      0.00000
      9       3.9900      0.00000
     10       4.4353      0.00000

 k-point   328 :       0.4000   -0.0667    0.4000
  band No.  band energies     occupation 
      1     -46.4535      2.00000
      2     -46.4399      2.00000
      3     -46.4276      2.00000
      4     -46.4149      2.00000
      5      -1.0356      2.00000
      6      -0.1873      2.00000
      7       0.7035      2.00000
      8       1.5545      0.00000
      9       3.9070      0.00000
     10       4.4517      0.00000

 k-point   329 :       0.4000   -0.4000   -0.0667
  band No.  band energies     occupation 
      1     -46.4494      2.00000
      2     -46.4439      2.00000
      3     -46.4223      2.00000
      4     -46.4203      2.00000
      5      -1.0249      2.00000
      6      -0.1744      2.00000
      7       0.7002      2.00000
      8       1.4931      0.00000
      9       3.9874      0.00000
     10       4.4306      0.00000

 k-point   330 :       0.4000    0.0667   -0.4000
  band No.  band energies     occupation 
      1     -46.4505      2.00000
      2     -46.4453      2.00000
      3     -46.4242      2.00000
      4     -46.4159      2.00000
      5      -1.0290      2.00000
      6      -0.2196      2.00000
      7       0.7921      0.44354
      8       1.4742      0.00000
      9       3.9775      0.00000
     10       4.3484      0.00000

 k-point   331 :       0.4667    0.4000    0.0667
  band No.  band energies     occupation 
      1     -46.4479      2.00000
      2     -46.4442      2.00000
      3     -46.4228      2.00000
      4     -46.4211      2.00000
      5      -0.6946      2.00000
      6      -0.3625      2.00000
      7       0.7664      1.70613
      8       1.0851      0.00000
      9       4.2273      0.00000
     10       4.4357      0.00000

 k-point   332 :       0.4667   -0.0667    0.4000
  band No.  band energies     occupation 
      1     -46.4520      2.00000
      2     -46.4408      2.00000
      3     -46.4275      2.00000
      4     -46.4156      2.00000
      5      -0.7152      2.00000
      6      -0.3741      2.00000
      7       0.7704      1.55719
      8       1.1545      0.00000
      9       4.1166      0.00000
     10       4.4621      0.00000

 k-point   333 :       0.4667   -0.4000   -0.0667
  band No.  band energies     occupation 
      1     -46.4476      2.00000
      2     -46.4445      2.00000
      3     -46.4223      2.00000
      4     -46.4215      2.00000
      5      -0.6957      2.00000
      6      -0.3618      2.00000
      7       0.7647      1.75830
      8       1.0893      0.00000
      9       4.2318      0.00000
     10       4.4282      0.00000

 k-point   334 :       0.4667    0.0667   -0.4000
  band No.  band energies     occupation 
      1     -46.4508      2.00000
      2     -46.4429      2.00000
      3     -46.4261      2.00000
      4     -46.4160      2.00000
      5      -0.7034      2.00000
      6      -0.3973      2.00000
      7       0.8491      0.00000
      8       1.0817      0.00000
      9       4.1702      0.00000
     10       4.3872      0.00000

 k-point   335 :       0.0000    0.4667    0.0667
  band No.  band energies     occupation 
      1     -46.4548      2.00000
      2     -46.4505      2.00000
      3     -46.4159      2.00000
      4     -46.4151      2.00000
      5      -1.6633      2.00000
      6      -1.2799      2.00000
      7       2.9199      0.00000
      8       3.0630      0.00000
      9       4.2750      0.00000
     10       4.3999      0.00000

 k-point   336 :       0.0000   -0.0667    0.4667
  band No.  band energies     occupation 
      1     -46.4560      2.00000
      2     -46.4514      2.00000
      3     -46.4173      2.00000
      4     -46.4116      2.00000
      5      -1.6625      2.00000
      6      -1.2782      2.00000
      7       2.8733      0.00000
      8       3.0852      0.00000
      9       4.2242      0.00000
     10       4.4570      0.00000

 k-point   337 :       0.0667    0.4667    0.0667
  band No.  band energies     occupation 
      1     -46.4546      2.00000
      2     -46.4503      2.00000
      3     -46.4162      2.00000
      4     -46.4153      2.00000
      5      -1.6360      2.00000
      6      -1.2530      2.00000
      7       2.8976      0.00000
      8       3.0136      0.00000
      9       4.0423      0.00000
     10       4.2748      0.00000

 k-point   338 :       0.0667   -0.0667    0.4667
  band No.  band energies     occupation 
      1     -46.4562      2.00000
      2     -46.4506      2.00000
      3     -46.4178      2.00000
      4     -46.4117      2.00000
      5      -1.6358      2.00000
      6      -1.2513      2.00000
      7       2.8508      0.00000
      8       3.0459      0.00000
      9       3.9836      0.00000
     10       4.3457      0.00000

 k-point   339 :       0.0667   -0.4667   -0.0667
  band No.  band energies     occupation 
      1     -46.4545      2.00000
      2     -46.4503      2.00000
      3     -46.4162      2.00000
      4     -46.4153      2.00000
      5      -1.6362      2.00000
      6      -1.2533      2.00000
      7       2.9070      0.00000
      8       3.0287      0.00000
      9       4.0120      0.00000
     10       4.2672      0.00000

 k-point   340 :       0.0667    0.0667   -0.4667
  band No.  band energies     occupation 
      1     -46.4553      2.00000
      2     -46.4517      2.00000
      3     -46.4174      2.00000
      4     -46.4119      2.00000
      5      -1.6353      2.00000
      6      -1.2520      2.00000
      7       2.8520      0.00000
      8       3.0565      0.00000
      9       4.0615      0.00000
     10       4.2111      0.00000

 k-point   341 :       0.1333    0.4667    0.0667
  band No.  band energies     occupation 
      1     -46.4537      2.00000
      2     -46.4496      2.00000
      3     -46.4170      2.00000
      4     -46.4159      2.00000
      5      -1.5547      2.00000
      6      -1.1730      2.00000
      7       2.7489      0.00000
      8       2.8368      0.00000
      9       3.7575      0.00000
     10       3.9856      0.00000

 k-point   342 :       0.1333   -0.0667    0.4667
  band No.  band energies     occupation 
      1     -46.4559      2.00000
      2     -46.4493      2.00000
      3     -46.4189      2.00000
      4     -46.4120      2.00000
      5      -1.5556      2.00000
      6      -1.1719      2.00000
      7       2.6817      0.00000
      8       2.9161      0.00000
      9       3.7160      0.00000
     10       4.0109      0.00000

 k-point   343 :       0.1333   -0.4667   -0.0667
  band No.  band energies     occupation 
      1     -46.4537      2.00000
      2     -46.4496      2.00000
      3     -46.4169      2.00000
      4     -46.4160      2.00000
      5      -1.5551      2.00000
      6      -1.1736      2.00000
      7       2.7664      0.00000
      8       2.8607      0.00000
      9       3.7169      0.00000
     10       3.9718      0.00000

 k-point   344 :       0.1333    0.0667   -0.4667
  band No.  band energies     occupation 
      1     -46.4542      2.00000
      2     -46.4514      2.00000
      3     -46.4182      2.00000
      4     -46.4124      2.00000
      5      -1.5543      2.00000
      6      -1.1735      2.00000
      7       2.7512      0.00000
      8       2.8523      0.00000
      9       3.7506      0.00000
     10       3.9410      0.00000

 k-point   345 :       0.2000    0.4667    0.0667
  band No.  band energies     occupation 
      1     -46.4525      2.00000
      2     -46.4485      2.00000
      3     -46.4182      2.00000
      4     -46.4169      2.00000
      5      -1.4200      2.00000
      6      -1.0413      2.00000
      7       2.3114      0.00000
      8       2.5299      0.00000
      9       3.6865      0.00000
     10       3.8708      0.00000

 k-point   346 :       0.2000   -0.0667    0.4667
  band No.  band energies     occupation 
      1     -46.4552      2.00000
      2     -46.4476      2.00000
      3     -46.4206      2.00000
      4     -46.4127      2.00000
      5      -1.4227      2.00000
      6      -1.0412      2.00000
      7       2.2677      0.00000
      8       2.6152      0.00000
      9       3.6271      0.00000
     10       3.8874      0.00000

 k-point   347 :       0.2000   -0.4667   -0.0667
  band No.  band energies     occupation 
      1     -46.4524      2.00000
      2     -46.4486      2.00000
      3     -46.4181      2.00000
      4     -46.4170      2.00000
      5      -1.4206      2.00000
      6      -1.0422      2.00000
      7       2.3264      0.00000
      8       2.5488      0.00000
      9       3.6556      0.00000
     10       3.8598      0.00000

 k-point   348 :       0.2000    0.0667   -0.4667
  band No.  band energies     occupation 
      1     -46.4530      2.00000
      2     -46.4503      2.00000
      3     -46.4195      2.00000
      4     -46.4132      2.00000
      5      -1.4204      2.00000
      6      -1.0443      2.00000
      7       2.3906      0.00000
      8       2.4746      0.00000
      9       3.6881      0.00000
     10       3.8261      0.00000

 k-point   349 :       0.2667    0.4667    0.0667
  band No.  band energies     occupation 
      1     -46.4508      2.00000
      2     -46.4473      2.00000
      3     -46.4196      2.00000
      4     -46.4182      2.00000
      5      -1.2334      2.00000
      6      -0.8612      2.00000
      7       1.7802      0.00000
      8       2.0748      0.00000
      9       3.7760      0.00000
     10       3.9625      0.00000

 k-point   350 :       0.2667   -0.0667    0.4667
  band No.  band energies     occupation 
      1     -46.4542      2.00000
      2     -46.4455      2.00000
      3     -46.4226      2.00000
      4     -46.4135      2.00000
      5      -1.2391      2.00000
      6      -0.8630      2.00000
      7       1.7555      0.00000
      8       2.1501      0.00000
      9       3.7080      0.00000
     10       3.9828      0.00000

 k-point   351 :       0.2667   -0.4667   -0.0667
  band No.  band energies     occupation 
      1     -46.4507      2.00000
      2     -46.4474      2.00000
      3     -46.4195      2.00000
      4     -46.4184      2.00000
      5      -1.2343      2.00000
      6      -0.8625      2.00000
      7       1.7899      0.00000
      8       2.0869      0.00000
      9       3.7585      0.00000
     10       3.9555      0.00000

 k-point   352 :       0.2667    0.0667   -0.4667
  band No.  band energies     occupation 
      1     -46.4520      2.00000
      2     -46.4485      2.00000
      3     -46.4214      2.00000
      4     -46.4141      2.00000
      5      -1.2352      2.00000
      6      -0.8687      2.00000
      7       1.8493      0.00000
      8       2.0412      0.00000
      9       3.7725      0.00000
     10       3.9205      0.00000

 k-point   353 :       0.3333    0.4667    0.0667
  band No.  band energies     occupation 
      1     -46.4490      2.00000
      2     -46.4461      2.00000
      3     -46.4211      2.00000
      4     -46.4197      2.00000
      5      -0.9987      2.00000
      6      -0.6420      2.00000
      7       1.2663      0.00000
      8       1.5837      0.00000
      9       3.9613      0.00000
     10       4.1512      0.00000

 k-point   354 :       0.3333   -0.0667    0.4667
  band No.  band energies     occupation 
      1     -46.4532      2.00000
      2     -46.4434      2.00000
      3     -46.4249      2.00000
      4     -46.4144      2.00000
      5      -1.0093      2.00000
      6      -0.6466      2.00000
      7       1.2541      0.00000
      8       1.6531      0.00000
      9       3.8843      0.00000
     10       4.1777      0.00000

 k-point   355 :       0.3333   -0.4667   -0.0667
  band No.  band energies     occupation 
      1     -46.4489      2.00000
      2     -46.4462      2.00000
      3     -46.4209      2.00000
      4     -46.4199      2.00000
      5      -0.9998      2.00000
      6      -0.6436      2.00000
      7       1.2727      0.00000
      8       1.5915      0.00000
      9       3.9533      0.00000
     10       4.1476      0.00000

 k-point   356 :       0.3333    0.0667   -0.4667
  band No.  band energies     occupation 
      1     -46.4513      2.00000
      2     -46.4461      2.00000
      3     -46.4235      2.00000
      4     -46.4149      2.00000
      5      -1.0026      2.00000
      6      -0.6578      2.00000
      7       1.3352      0.00000
      8       1.5658      0.00000
      9       3.9431      0.00000
     10       4.1139      0.00000

 k-point   357 :       0.4000    0.4667    0.0667
  band No.  band energies     occupation 
      1     -46.4474      2.00000
      2     -46.4452      2.00000
      3     -46.4222      2.00000
      4     -46.4211      2.00000
      5      -0.7256      2.00000
      6      -0.4138      2.00000
      7       0.8318      0.00035
      8       1.1249      0.00000
      9       4.1958      0.00000
     10       4.3695      0.00000

 k-point   358 :       0.4000   -0.0667    0.4667
  band No.  band energies     occupation 
      1     -46.4521      2.00000
      2     -46.4416      2.00000
      3     -46.4269      2.00000
      4     -46.4152      2.00000
      5      -0.7454      2.00000
      6      -0.4229      2.00000
      7       0.8289      0.00076
      8       1.1965      0.00000
      9       4.0975      0.00000
     10       4.4094      0.00000

 k-point   359 :       0.4000   -0.4667   -0.0667
  band No.  band energies     occupation 
      1     -46.4472      2.00000
      2     -46.4453      2.00000
      3     -46.4220      2.00000
      4     -46.4213      2.00000
      5      -0.7270      2.00000
      6      -0.4155      2.00000
      7       0.8358      0.00012
      8       1.1300      0.00000
      9       4.1944      0.00000
     10       4.3681      0.00000

 k-point   360 :       0.4000    0.0667   -0.4667
  band No.  band energies     occupation 
      1     -46.4509      2.00000
      2     -46.4436      2.00000
      3     -46.4257      2.00000
      4     -46.4156      2.00000
      5      -0.7332      2.00000
      6      -0.4453      2.00000
      7       0.9118      0.00000
      8       1.1182      0.00000
      9       4.1503      0.00000
     10       4.3410      0.00000

 k-point   361 :       0.4667    0.4667    0.0667
  band No.  band energies     occupation 
      1     -46.4461      2.00000
      2     -46.4449      2.00000
      3     -46.4227      2.00000
      4     -46.4221      2.00000
      5      -0.4484      2.00000
      6      -0.2949      2.00000
      7       0.6051      2.00000
      8       0.7546      1.94074
      9       4.4192      0.00000
     10       4.5133      0.00000

 k-point   362 :       0.4667   -0.0667    0.4667
  band No.  band energies     occupation 
      1     -46.4513      2.00000
      2     -46.4408      2.00000
      3     -46.4280      2.00000
      4     -46.4158      2.00000
      5      -0.4861      2.00000
      6      -0.3066      2.00000
      7       0.6071      2.00000
      8       0.8393      0.00004
      9       4.2779      0.00000
     10       4.5807      0.00000

 k-point   363 :       0.4667   -0.4667   -0.0667
  band No.  band energies     occupation 
      1     -46.4460      2.00000
      2     -46.4450      2.00000
      3     -46.4225      2.00000
      4     -46.4223      2.00000
      5      -0.4495      2.00000
      6      -0.2953      2.00000
      7       0.6058      2.00000
      8       0.7574      1.90933
      9       4.4216      0.00000
     10       4.5115      0.00000

 k-point   364 :       0.4667    0.0667   -0.4667
  band No.  band energies     occupation 
      1     -46.4509      2.00000
      2     -46.4416      2.00000
      3     -46.4274      2.00000
      4     -46.4159      2.00000
      5      -0.4634      2.00000
      6      -0.3403      2.00000
      7       0.6925      2.00000
      8       0.7631      1.80159
      9       4.3056      0.00000
     10       4.5371      0.00000

 k-point   365 :       0.0000    0.1333    0.1333
  band No.  band energies     occupation 
      1     -46.4695      2.00000
      2     -46.4332      2.00000
      3     -46.4195      2.00000
      4     -46.4140      2.00000
      5      -2.7279      2.00000
      6       1.3378      0.00000
      7       1.6886      0.00000
      8       3.3300      0.00000
      9       3.6169      0.00000
     10       4.1225      0.00000

 k-point   366 :       0.0667    0.1333    0.1333
  band No.  band energies     occupation 
      1     -46.4693      2.00000
      2     -46.4324      2.00000
      3     -46.4212      2.00000
      4     -46.4134      2.00000
      5      -2.7003      2.00000
      6       1.3631      0.00000
      7       1.6942      0.00000
      8       2.8217      0.00000
      9       3.7572      0.00000
     10       4.4290      0.00000

 k-point   367 :       0.0667   -0.1333   -0.1333
  band No.  band energies     occupation 
      1     -46.4690      2.00000
      2     -46.4340      2.00000
      3     -46.4187      2.00000
      4     -46.4146      2.00000
      5      -2.7002      2.00000
      6       1.3601      0.00000
      7       1.6982      0.00000
      8       2.8734      0.00000
      9       3.6648      0.00000
     10       4.4241      0.00000

 k-point   368 :       0.1333    0.1333    0.1333
  band No.  band energies     occupation 
      1     -46.4682      2.00000
      2     -46.4317      2.00000
      3     -46.4234      2.00000
      4     -46.4129      2.00000
      5      -2.6170      2.00000
      6       1.4171      0.00000
      7       1.6754      0.00000
      8       2.2387      0.00000
      9       3.7810      0.00000
     10       4.6441      0.00000

 k-point   369 :       0.1333   -0.1333   -0.1333
  band No.  band energies     occupation 
      1     -46.4676      2.00000
      2     -46.4349      2.00000
      3     -46.4189      2.00000
      4     -46.4148      2.00000
      5      -2.6169      2.00000
      6       1.4065      0.00000
      7       1.6903      0.00000
      8       2.2683      0.00000
      9       3.7098      0.00000
     10       4.6256      0.00000

 k-point   370 :       0.2000    0.1333    0.1333
  band No.  band energies     occupation 
      1     -46.4663      2.00000
      2     -46.4316      2.00000
      3     -46.4254      2.00000
      4     -46.4129      2.00000
      5      -2.4780      2.00000
      6       1.1971      0.00000
      7       1.6487      0.00000
      8       2.0410      0.00000
      9       3.7844      0.00000
     10       4.6918      0.00000

 k-point   371 :       0.2000   -0.1333   -0.1333
  band No.  band energies     occupation 
      1     -46.4655      2.00000
      2     -46.4363      2.00000
      3     -46.4194      2.00000
      4     -46.4150      2.00000
      5      -2.4778      2.00000
      6       1.1928      0.00000
      7       1.6697      0.00000
      8       2.0493      0.00000
      9       3.7208      0.00000
     10       4.6716      0.00000

 k-point   372 :       0.2667    0.1333    0.1333
  band No.  band energies     occupation 
      1     -46.4638      2.00000
      2     -46.4334      2.00000
      3     -46.4258      2.00000
      4     -46.4133      2.00000
      5      -2.2830      2.00000
      6       0.6345      2.00000
      7       1.8040      0.00000
      8       2.1284      0.00000
      9       3.7415      0.00000
     10       4.6516      0.00000

 k-point   373 :       0.2667   -0.1333   -0.1333
  band No.  band energies     occupation 
      1     -46.4627      2.00000
      2     -46.4383      2.00000
      3     -46.4197      2.00000
      4     -46.4155      2.00000
      5      -2.2829      2.00000
      6       0.6369      2.00000
      7       1.8226      0.00000
      8       2.1266      0.00000
      9       3.6886      0.00000
     10       4.6232      0.00000

 k-point   374 :       0.3333    0.1333    0.1333
  band No.  band energies     occupation 
      1     -46.4607      2.00000
      2     -46.4367      2.00000
      3     -46.4246      2.00000
      4     -46.4139      2.00000
      5      -2.0318      2.00000
      6       0.0645      2.00000
      7       2.0050      0.00000
      8       2.2906      0.00000
      9       3.6401      0.00000
     10       4.4611      0.00000

 k-point   375 :       0.3333   -0.1333   -0.1333
  band No.  band energies     occupation 
      1     -46.4593      2.00000
      2     -46.4409      2.00000
      3     -46.4195      2.00000
      4     -46.4163      2.00000
      5      -2.0316      2.00000
      6       0.0668      2.00000
      7       2.0328      0.00000
      8       2.2725      0.00000
      9       3.6108      0.00000
     10       4.4230      0.00000

 k-point   376 :       0.4000    0.1333    0.1333
  band No.  band energies     occupation 
      1     -46.4574      2.00000
      2     -46.4406      2.00000
      3     -46.4230      2.00000
      4     -46.4149      2.00000
      5      -1.7240      2.00000
      6      -0.4633      2.00000
      7       2.2102      0.00000
      8       2.4693      0.00000
      9       3.5263      0.00000
     10       4.1359      0.00000

 k-point   377 :       0.4000   -0.1333   -0.1333
  band No.  band energies     occupation 
      1     -46.4558      2.00000
      2     -46.4438      2.00000
      3     -46.4190      2.00000
      4     -46.4173      2.00000
      5      -1.7240      2.00000
      6      -0.4619      2.00000
      7       2.2548      0.00000
      8       2.4234      0.00000
      9       3.5353      0.00000
     10       4.0913      0.00000

 k-point   378 :       0.4667    0.1333    0.1333
  band No.  band energies     occupation 
      1     -46.4542      2.00000
      2     -46.4444      2.00000
      3     -46.4212      2.00000
      4     -46.4160      2.00000
      5      -1.3595      2.00000
      6      -0.9390      2.00000
      7       2.3783      0.00000
      8       2.5657      0.00000
      9       3.5219      0.00000
     10       3.8074      0.00000

 k-point   379 :       0.4667   -0.1333   -0.1333
  band No.  band energies     occupation 
      1     -46.4532      2.00000
      2     -46.4460      2.00000
      3     -46.4196      2.00000
      4     -46.4171      2.00000
      5      -1.3598      2.00000
      6      -0.9382      2.00000
      7       2.4200      0.00000
      8       2.5174      0.00000
      9       3.5633      0.00000
     10       3.7601      0.00000

 k-point   380 :       0.0000    0.2000    0.1333
  band No.  band energies     occupation 
      1     -46.4676      2.00000
      2     -46.4355      2.00000
      3     -46.4194      2.00000
      4     -46.4138      2.00000
      5      -2.6024      2.00000
      6       0.8145      0.01896
      7       1.6931      0.00000
      8       3.3352      0.00000
      9       3.6928      0.00000
     10       4.2931      0.00000

 k-point   381 :       0.0000   -0.1333    0.2000
  band No.  band energies     occupation 
      1     -46.4678      2.00000
      2     -46.4360      2.00000
      3     -46.4191      2.00000
      4     -46.4134      2.00000
      5      -2.6024      2.00000
      6       0.8237      0.00269
      7       1.6797      0.00000
      8       3.3242      0.00000
      9       3.7064      0.00000
     10       4.2706      0.00000

 k-point   382 :       0.0667    0.2000    0.1333
  band No.  band energies     occupation 
      1     -46.4673      2.00000
      2     -46.4349      2.00000
      3     -46.4206      2.00000
      4     -46.4133      2.00000
      5      -2.5747      2.00000
      6       0.8394      0.00004
      7       1.7023      0.00000
      8       2.8919      0.00000
      9       3.8116      0.00000
     10       4.5608      0.00000

 k-point   383 :       0.0667   -0.1333    0.2000
  band No.  band energies     occupation 
      1     -46.4675      2.00000
      2     -46.4351      2.00000
      3     -46.4207      2.00000
      4     -46.4128      2.00000
      5      -2.5748      2.00000
      6       0.8466      0.00000
      7       1.6948      0.00000
      8       2.8764      0.00000
      9       3.8095      0.00000
     10       4.5846      0.00000

 k-point   384 :       0.0667   -0.2000   -0.1333
  band No.  band energies     occupation 
      1     -46.4671      2.00000
      2     -46.4360      2.00000
      3     -46.4190      2.00000
      4     -46.4142      2.00000
      5      -2.5746      2.00000
      6       0.8367      0.00009
      7       1.7076      0.00000
      8       2.9448      0.00000
      9       3.7098      0.00000
     10       4.5779      0.00000

 k-point   385 :       0.0667    0.1333   -0.2000
  band No.  band energies     occupation 
      1     -46.4671      2.00000
      2     -46.4368      2.00000
      3     -46.4181      2.00000
      4     -46.4142      2.00000
      5      -2.5746      2.00000
      6       0.8464      0.00000
      7       1.6914      0.00000
      8       2.9571      0.00000
      9       3.7021      0.00000
     10       4.5304      0.00000

 k-point   386 :       0.1333    0.2000    0.1333
  band No.  band energies     occupation 
      1     -46.4663      2.00000
      2     -46.4343      2.00000
      3     -46.4225      2.00000
      4     -46.4131      2.00000
      5      -2.4915      2.00000
      6       0.9051      0.00000
      7       1.7044      0.00000
      8       2.3070      0.00000
      9       3.8406      0.00000
     10       4.8160      0.00000

 k-point   387 :       0.1333   -0.1333    0.2000
  band No.  band energies     occupation 
      1     -46.4666      2.00000
      2     -46.4341      2.00000
      3     -46.4230      2.00000
      4     -46.4125      2.00000
      5      -2.4917      2.00000
      6       0.9078      0.00000
      7       1.7097      0.00000
      8       2.2898      0.00000
      9       3.8329      0.00000
     10       4.8650      0.00000

 k-point   388 :       0.1333   -0.2000   -0.1333
  band No.  band energies     occupation 
      1     -46.4658      2.00000
      2     -46.4366      2.00000
      3     -46.4193      2.00000
      4     -46.4145      2.00000
      5      -2.4914      2.00000
      6       0.8990      0.00000
      7       1.7157      0.00000
      8       2.3395      0.00000
      9       3.7585      0.00000
     10       4.8165      0.00000

 k-point   389 :       0.1333    0.1333   -0.2000
  band No.  band energies     occupation 
      1     -46.4657      2.00000
      2     -46.4376      2.00000
      3     -46.4181      2.00000
      4     -46.4148      2.00000
      5      -2.4914      2.00000
      6       0.9056      0.00000
      7       1.7068      0.00000
      8       2.3440      0.00000
      9       3.7505      0.00000
     10       4.7697      0.00000

 k-point   390 :       0.2000    0.2000    0.1333
  band No.  band energies     occupation 
      1     -46.4645      2.00000
      2     -46.4341      2.00000
      3     -46.4243      2.00000
      4     -46.4133      2.00000
      5      -2.3527      2.00000
      6       0.9556      0.00000
      7       1.4912      0.00000
      8       2.0391      0.00000
      9       3.8399      0.00000
     10       4.8013      0.00000

 k-point   391 :       0.2000   -0.1333    0.2000
  band No.  band energies     occupation 
      1     -46.4649      2.00000
      2     -46.4333      2.00000
      3     -46.4254      2.00000
      4     -46.4126      2.00000
      5      -2.3530      2.00000
      6       0.9474      0.00000
      7       1.5150      0.00000
      8       2.0203      0.00000
      9       3.8327      0.00000
     10       4.8475      0.00000

 k-point   392 :       0.2000   -0.2000   -0.1333
  band No.  band energies     occupation 
      1     -46.4637      2.00000
      2     -46.4375      2.00000
      3     -46.4201      2.00000
      4     -46.4150      2.00000
      5      -2.3526      2.00000
      6       0.9459      0.00000
      7       1.5098      0.00000
      8       2.0606      0.00000
      9       3.7655      0.00000
     10       4.8026      0.00000

 k-point   393 :       0.2000    0.1333   -0.2000
  band No.  band energies     occupation 
      1     -46.4636      2.00000
      2     -46.4387      2.00000
      3     -46.4186      2.00000
      4     -46.4153      2.00000
      5      -2.3527      2.00000
      6       0.9363      0.00000
      7       1.5505      0.00000
      8       2.0269      0.00000
      9       3.7620      0.00000
     10       4.7651      0.00000

 k-point   394 :       0.2667    0.2000    0.1333
  band No.  band energies     occupation 
      1     -46.4621      2.00000
      2     -46.4349      2.00000
      3     -46.4253      2.00000
      4     -46.4139      2.00000
      5      -2.1581      2.00000
      6       0.6768      2.00000
      7       1.3868      0.00000
      8       2.1073      0.00000
      9       3.7614      0.00000
     10       4.6524      0.00000

 k-point   395 :       0.2667   -0.1333    0.2000
  band No.  band energies     occupation 
      1     -46.4625      2.00000
      2     -46.4336      2.00000
      3     -46.4269      2.00000
      4     -46.4131      2.00000
      5      -2.1587      2.00000
      6       0.6668      2.00000
      7       1.4066      0.00000
      8       2.1011      0.00000
      9       3.7584      0.00000
     10       4.6679      0.00000

 k-point   396 :       0.2667   -0.2000   -0.1333
  band No.  band energies     occupation 
      1     -46.4610      2.00000
      2     -46.4389      2.00000
      3     -46.4205      2.00000
      4     -46.4157      2.00000
      5      -2.1581      2.00000
      6       0.6757      2.00000
      7       1.3923      0.00000
      8       2.1306      0.00000
      9       3.6981      0.00000
     10       4.6448      0.00000

 k-point   397 :       0.2667    0.1333   -0.2000
  band No.  band energies     occupation 
      1     -46.4609      2.00000
      2     -46.4401      2.00000
      3     -46.4191      2.00000
      4     -46.4160      2.00000
      5      -2.1583      2.00000
      6       0.6592      2.00000
      7       1.4505      0.00000
      8       2.0816      0.00000
      9       3.7055      0.00000
     10       4.6036      0.00000

 k-point   398 :       0.3333    0.2000    0.1333
  band No.  band energies     occupation 
      1     -46.4592      2.00000
      2     -46.4373      2.00000
      3     -46.4249      2.00000
      4     -46.4147      2.00000
      5      -1.9076      2.00000
      6       0.1584      2.00000
      7       1.5629      0.00000
      8       2.2350      0.00000
      9       3.5962      0.00000
     10       4.3933      0.00000

 k-point   399 :       0.3333   -0.1333    0.2000
  band No.  band energies     occupation 
      1     -46.4597      2.00000
      2     -46.4361      2.00000
      3     -46.4264      2.00000
      4     -46.4139      2.00000
      5      -1.9085      2.00000
      6       0.1534      2.00000
      7       1.5728      0.00000
      8       2.2443      0.00000
      9       3.5915      0.00000
     10       4.3746      0.00000

 k-point   400 :       0.3333   -0.2000   -0.1333
  band No.  band energies     occupation 
      1     -46.4579      2.00000
      2     -46.4410      2.00000
      3     -46.4205      2.00000
      4     -46.4167      2.00000
      5      -1.9077      2.00000
      6       0.1603      2.00000
      7       1.5607      0.00000
      8       2.2613      0.00000
      9       3.5540      0.00000
     10       4.3677      0.00000

 k-point   401 :       0.3333    0.1333   -0.2000
  band No.  band energies     occupation 
      1     -46.4576      2.00000
      2     -46.4421      2.00000
      3     -46.4195      2.00000
      4     -46.4168      2.00000
      5      -1.9081      2.00000
      6       0.1523      2.00000
      7       1.6172      0.00000
      8       2.2014      0.00000
      9       3.5767      0.00000
     10       4.3199      0.00000

 k-point   402 :       0.4000    0.2000    0.1333
  band No.  band energies     occupation 
      1     -46.4560      2.00000
      2     -46.4405      2.00000
      3     -46.4236      2.00000
      4     -46.4158      2.00000
      5      -1.6011      2.00000
      6      -0.3539      2.00000
      7       1.8045      0.00000
      8       2.3255      0.00000
      9       3.4453      0.00000
     10       4.0522      0.00000

 k-point   403 :       0.4000   -0.1333    0.2000
  band No.  band energies     occupation 
      1     -46.4566      2.00000
      2     -46.4397      2.00000
      3     -46.4248      2.00000
      4     -46.4148      2.00000
      5      -1.6024      2.00000
      6      -0.3568      2.00000
      7       1.8060      0.00000
      8       2.3583      0.00000
      9       3.4217      0.00000
     10       4.0263      0.00000

 k-point   404 :       0.4000   -0.2000   -0.1333
  band No.  band energies     occupation 
      1     -46.4545      2.00000
      2     -46.4435      2.00000
      3     -46.4201      2.00000
      4     -46.4179      2.00000
      5      -1.6014      2.00000
      6      -0.3523      2.00000
      7       1.7988      0.00000
      8       2.3496      0.00000
      9       3.4289      0.00000
     10       4.0206      0.00000

 k-point   405 :       0.4000    0.1333   -0.2000
  band No.  band energies     occupation 
      1     -46.4543      2.00000
      2     -46.4444      2.00000
      3     -46.4200      2.00000
      4     -46.4173      2.00000
      5      -1.6021      2.00000
      6      -0.3567      2.00000
      7       1.8610      0.00000
      8       2.2843      0.00000
      9       3.4590      0.00000
     10       3.9697      0.00000

 k-point   406 :       0.4667    0.2000    0.1333
  band No.  band energies     occupation 
      1     -46.4530      2.00000
      2     -46.4439      2.00000
      3     -46.4220      2.00000
      4     -46.4171      2.00000
      5      -1.2390      2.00000
      6      -0.8224      2.00000
      7       2.0487      0.00000
      8       2.2822      0.00000
      9       3.4570      0.00000
     10       3.7268      0.00000

 k-point   407 :       0.4667   -0.1333    0.2000
  band No.  band energies     occupation 
      1     -46.4537      2.00000
      2     -46.4433      2.00000
      3     -46.4230      2.00000
      4     -46.4159      2.00000
      5      -1.2409      2.00000
      6      -0.8242      2.00000
      7       2.0459      0.00000
      8       2.3257      0.00000
      9       3.4141      0.00000
     10       3.7112      0.00000

 k-point   408 :       0.4667   -0.2000   -0.1333
  band No.  band energies     occupation 
      1     -46.4520      2.00000
      2     -46.4454      2.00000
      3     -46.4205      2.00000
      4     -46.4181      2.00000
      5      -1.2396      2.00000
      6      -0.8214      2.00000
      7       2.0411      0.00000
      8       2.2961      0.00000
      9       3.4648      0.00000
     10       3.7026      0.00000

 k-point   409 :       0.4667    0.1333   -0.2000
  band No.  band energies     occupation 
      1     -46.4522      2.00000
      2     -46.4456      2.00000
      3     -46.4213      2.00000
      4     -46.4169      2.00000
      5      -1.2407      2.00000
      6      -0.8241      2.00000
      7       2.1157      0.00000
      8       2.2405      0.00000
      9       3.4779      0.00000
     10       3.6505      0.00000

 k-point   410 :       0.0000    0.2667    0.1333
  band No.  band energies     occupation 
      1     -46.4650      2.00000
      2     -46.4385      2.00000
      3     -46.4189      2.00000
      4     -46.4138      2.00000
      5      -2.4261      2.00000
      6       0.2422      2.00000
      7       1.8328      0.00000
      8       3.2820      0.00000
      9       3.8047      0.00000
     10       4.3833      0.00000

 k-point   411 :       0.0000   -0.1333    0.2667
  band No.  band energies     occupation 
      1     -46.4653      2.00000
      2     -46.4394      2.00000
      3     -46.4186      2.00000
      4     -46.4129      2.00000
      5      -2.4261      2.00000
      6       0.2492      2.00000
      7       1.8188      0.00000
      8       3.2678      0.00000
      9       3.8215      0.00000
     10       4.3615      0.00000

 k-point   412 :       0.0667    0.2667    0.1333
  band No.  band energies     occupation 
      1     -46.4648      2.00000
      2     -46.4381      2.00000
      3     -46.4198      2.00000
      4     -46.4135      2.00000
      5      -2.3985      2.00000
      6       0.2677      2.00000
      7       1.8433      0.00000
      8       2.9615      0.00000
      9       3.7946      0.00000
     10       4.6163      0.00000

 k-point   413 :       0.0667   -0.1333    0.2667
  band No.  band energies     occupation 
      1     -46.4653      2.00000
      2     -46.4385      2.00000
      3     -46.4201      2.00000
      4     -46.4125      2.00000
      5      -2.3987      2.00000
      6       0.2733      2.00000
      7       1.8367      0.00000
      8       2.9343      0.00000
      9       3.7950      0.00000
     10       4.6700      0.00000

 k-point   414 :       0.0667   -0.2667   -0.1333
  band No.  band energies     occupation 
      1     -46.4646      2.00000
      2     -46.4388      2.00000
      3     -46.4188      2.00000
      4     -46.4141      2.00000
      5      -2.3985      2.00000
      6       0.2659      2.00000
      7       1.8490      0.00000
      8       3.0137      0.00000
      9       3.7012      0.00000
     10       4.6320      0.00000

 k-point   415 :       0.0667    0.1333   -0.2667
  band No.  band energies     occupation 
      1     -46.4647      2.00000
      2     -46.4401      2.00000
      3     -46.4178      2.00000
      4     -46.4137      2.00000
      5      -2.3985      2.00000
      6       0.2730      2.00000
      7       1.8305      0.00000
      8       3.0330      0.00000
      9       3.6968      0.00000
     10       4.5591      0.00000

 k-point   416 :       0.1333    0.2667    0.1333
  band No.  band energies     occupation 
      1     -46.4638      2.00000
      2     -46.4376      2.00000
      3     -46.4213      2.00000
      4     -46.4136      2.00000
      5      -2.3155      2.00000
      6       0.3396      2.00000
      7       1.8539      0.00000
      8       2.4166      0.00000
      9       3.7905      0.00000
     10       4.7553      0.00000

 k-point   417 :       0.1333   -0.1333    0.2667
  band No.  band energies     occupation 
      1     -46.4644      2.00000
      2     -46.4374      2.00000
      3     -46.4221      2.00000
      4     -46.4123      2.00000
      5      -2.3159      2.00000
      6       0.3426      2.00000
      7       1.8608      0.00000
      8       2.3900      0.00000
      9       3.7872      0.00000
     10       4.8364      0.00000

 k-point   418 :       0.1333   -0.2667   -0.1333
  band No.  band energies     occupation 
      1     -46.4633      2.00000
      2     -46.4390      2.00000
      3     -46.4194      2.00000
      4     -46.4146      2.00000
      5      -2.3155      2.00000
      6       0.3359      2.00000
      7       1.8658      0.00000
      8       2.4505      0.00000
      9       3.7115      0.00000
     10       4.7669      0.00000

 k-point   419 :       0.1333    0.1333   -0.2667
  band No.  band energies     occupation 
      1     -46.4633      2.00000
      2     -46.4407      2.00000
      3     -46.4177      2.00000
      4     -46.4145      2.00000
      5      -2.3156      2.00000
      6       0.3408      2.00000
      7       1.8523      0.00000
      8       2.4637      0.00000
      9       3.7035      0.00000
     10       4.6906      0.00000

 k-point   420 :       0.2000    0.2667    0.1333
  band No.  band energies     occupation 
      1     -46.4620      2.00000
      2     -46.4371      2.00000
      3     -46.4230      2.00000
      4     -46.4140      2.00000
      5      -2.1770      2.00000
      6       0.4432      2.00000
      7       1.6163      0.00000
      8       2.1339      0.00000
      9       3.7787      0.00000
     10       4.6165      0.00000

 k-point   421 :       0.2000   -0.1333    0.2667
  band No.  band energies     occupation 
      1     -46.4629      2.00000
      2     -46.4362      2.00000
      3     -46.4245      2.00000
      4     -46.4125      2.00000
      5      -2.1778      2.00000
      6       0.4411      2.00000
      7       1.6306      0.00000
      8       2.1175      0.00000
      9       3.7777      0.00000
     10       4.6736      0.00000

 k-point   422 :       0.2000   -0.2667   -0.1333
  band No.  band energies     occupation 
      1     -46.4614      2.00000
      2     -46.4393      2.00000
      3     -46.4203      2.00000
      4     -46.4152      2.00000
      5      -2.1771      2.00000
      6       0.4373      2.00000
      7       1.6337      0.00000
      8       2.1576      0.00000
      9       3.7062      0.00000
     10       4.6383      0.00000

 k-point   423 :       0.2000    0.1333   -0.2667
  band No.  band energies     occupation 
      1     -46.4612      2.00000
      2     -46.4414      2.00000
      3     -46.4183      2.00000
      4     -46.4153      2.00000
      5      -2.1773      2.00000
      6       0.4344      2.00000
      7       1.6711      0.00000
      8       2.1191      0.00000
      9       3.7064      0.00000
     10       4.5777      0.00000

 k-point   424 :       0.2667    0.2667    0.1333
  band No.  band energies     occupation 
      1     -46.4597      2.00000
      2     -46.4372      2.00000
      3     -46.4244      2.00000
      4     -46.4147      2.00000
      5      -1.9832      2.00000
      6       0.4987      2.00000
      7       1.1857      0.00000
      8       2.1804      0.00000
      9       3.6502      0.00000
     10       4.4765      0.00000

 k-point   425 :       0.2667   -0.1333    0.2667
  band No.  band energies     occupation 
      1     -46.4608      2.00000
      2     -46.4355      2.00000
      3     -46.4267      2.00000
      4     -46.4131      2.00000
      5      -1.9846      2.00000
      6       0.4865      2.00000
      7       1.2027      0.00000
      8       2.1866      0.00000
      9       3.6525      0.00000
     10       4.4866      0.00000

 k-point   426 :       0.2667   -0.2667   -0.1333
  band No.  band energies     occupation 
      1     -46.4588      2.00000
      2     -46.4400      2.00000
      3     -46.4211      2.00000
      4     -46.4162      2.00000
      5      -1.9834      2.00000
      6       0.4920      2.00000
      7       1.1983      0.00000
      8       2.2083      0.00000
      9       3.5907      0.00000
     10       4.4875      0.00000

 k-point   427 :       0.2667    0.1333   -0.2667
  band No.  band energies     occupation 
      1     -46.4586      2.00000
      2     -46.4423      2.00000
      3     -46.4192      2.00000
      4     -46.4161      2.00000
      5      -1.9838      2.00000
      6       0.4675      2.00000
      7       1.2661      0.00000
      8       2.1524      0.00000
      9       3.6095      0.00000
     10       4.4226      0.00000

 k-point   428 :       0.3333    0.2667    0.1333
  band No.  band energies     occupation 
      1     -46.4570      2.00000
      2     -46.4384      2.00000
      3     -46.4248      2.00000
      4     -46.4158      2.00000
      5      -1.7341      2.00000
      6       0.2395      2.00000
      7       1.1170      0.00000
      8       2.2306      0.00000
      9       3.4464      0.00000
     10       4.3589      0.00000

 k-point   429 :       0.3333   -0.1333    0.2667
  band No.  band energies     occupation 
      1     -46.4583      2.00000
      2     -46.4363      2.00000
      3     -46.4275      2.00000
      4     -46.4140      2.00000
      5      -1.7362      2.00000
      6       0.2273      2.00000
      7       1.1307      0.00000
      8       2.2629      0.00000
      9       3.4309      0.00000
     10       4.3311      0.00000

 k-point   430 :       0.3333   -0.2667   -0.1333
  band No.  band energies     occupation 
      1     -46.4559      2.00000
      2     -46.4413      2.00000
      3     -46.4214      2.00000
      4     -46.4174      2.00000
      5      -1.7345      2.00000
      6       0.2392      2.00000
      7       1.1179      0.00000
      8       2.2627      0.00000
      9       3.4068      0.00000
     10       4.3427      0.00000

 k-point   431 :       0.3333    0.1333   -0.2667
  band No.  band energies     occupation 
      1     -46.4555      2.00000
      2     -46.4435      2.00000
      3     -46.4202      2.00000
      4     -46.4168      2.00000
      5      -1.7353      2.00000
      6       0.2134      2.00000
      7       1.1905      0.00000
      8       2.1995      0.00000
      9       3.4401      0.00000
     10       4.2686      0.00000

 k-point   432 :       0.4000    0.2667    0.1333
  band No.  band energies     occupation 
      1     -46.4540      2.00000
      2     -46.4407      2.00000
      3     -46.4241      2.00000
      4     -46.4171      2.00000
      5      -1.4300      2.00000
      6      -0.2143      2.00000
      7       1.3268      0.00000
      8       2.1506      0.00000
      9       3.3720      0.00000
     10       4.1132      0.00000

 k-point   433 :       0.4000   -0.1333    0.2667
  band No.  band energies     occupation 
      1     -46.4555      2.00000
      2     -46.4388      2.00000
      3     -46.4266      2.00000
      4     -46.4150      2.00000
      5      -1.4333      2.00000
      6      -0.2212      2.00000
      7       1.3313      0.00000
      8       2.2078      0.00000
      9       3.3279      0.00000
     10       4.0782      0.00000

 k-point   434 :       0.4000   -0.2667   -0.1333
  band No.  band energies     occupation 
      1     -46.4527      2.00000
      2     -46.4432      2.00000
      3     -46.4212      2.00000
      4     -46.4188      2.00000
      5      -1.4307      2.00000
      6      -0.2127      2.00000
      7       1.3211      0.00000
      8       2.1773      0.00000
      9       3.3545      0.00000
     10       4.0879      0.00000

 k-point   435 :       0.4000    0.1333   -0.2667
  band No.  band energies     occupation 
      1     -46.4525      2.00000
      2     -46.4449      2.00000
      3     -46.4214      2.00000
      4     -46.4171      2.00000
      5      -1.4321      2.00000
      6      -0.2265      2.00000
      7       1.3873      0.00000
      8       2.1246      0.00000
      9       3.3776      0.00000
     10       4.0211      0.00000

 k-point   436 :       0.4667    0.2667    0.1333
  band No.  band energies     occupation 
      1     -46.4513      2.00000
      2     -46.4434      2.00000
      3     -46.4228      2.00000
      4     -46.4184      2.00000
      5      -1.0723      2.00000
      6      -0.6641      2.00000
      7       1.6082      0.00000
      8       1.9206      0.00000
      9       3.5002      0.00000
     10       3.8074      0.00000

 k-point   437 :       0.4667   -0.1333    0.2667
  band No.  band energies     occupation 
      1     -46.4529      2.00000
      2     -46.4421      2.00000
      3     -46.4249      2.00000
      4     -46.4160      2.00000
      5      -1.0774      2.00000
      6      -0.6682      2.00000
      7       1.6075      0.00000
      8       1.9774      0.00000
      9       3.4447      0.00000
     10       3.7850      0.00000

 k-point   438 :       0.4667   -0.2667   -0.1333
  band No.  band energies     occupation 
      1     -46.4504      2.00000
      2     -46.4447      2.00000
      3     -46.4214      2.00000
      4     -46.4193      2.00000
      5      -1.0733      2.00000
      6      -0.6628      2.00000
      7       1.5984      0.00000
      8       1.9370      0.00000
      9       3.5029      0.00000
     10       3.7903      0.00000

 k-point   439 :       0.4667    0.1333   -0.2667
  band No.  band energies     occupation 
      1     -46.4512      2.00000
      2     -46.4448      2.00000
      3     -46.4231      2.00000
      4     -46.4168      2.00000
      5      -1.0758      2.00000
      6      -0.6707      2.00000
      7       1.6690      0.00000
      8       1.9029      0.00000
      9       3.4966      0.00000
     10       3.7353      0.00000

 k-point   440 :       0.0000    0.3333    0.1333
  band No.  band energies     occupation 
      1     -46.4619      2.00000
      2     -46.4421      2.00000
      3     -46.4182      2.00000
      4     -46.4141      2.00000
      5      -2.1990      2.00000
      6      -0.2908      2.00000
      7       2.0200      0.00000
      8       3.1565      0.00000
      9       3.9491      0.00000
     10       4.4402      0.00000

 k-point   441 :       0.0000   -0.1333    0.3333
  band No.  band energies     occupation 
      1     -46.4624      2.00000
      2     -46.4431      2.00000
      3     -46.4181      2.00000
      4     -46.4126      2.00000
      5      -2.1989      2.00000
      6      -0.2861      2.00000
      7       2.0061      0.00000
      8       3.1446      0.00000
      9       3.9584      0.00000
     10       4.4310      0.00000

 k-point   442 :       0.0667    0.3333    0.1333
  band No.  band energies     occupation 
      1     -46.4616      2.00000
      2     -46.4418      2.00000
      3     -46.4189      2.00000
      4     -46.4140      2.00000
      5      -2.1714      2.00000
      6      -0.2646      2.00000
      7       2.0297      0.00000
      8       2.9794      0.00000
      9       3.7915      0.00000
     10       4.5855      0.00000

 k-point   443 :       0.0667   -0.1333    0.3333
  band No.  band energies     occupation 
      1     -46.4624      2.00000
      2     -46.4423      2.00000
      3     -46.4193      2.00000
      4     -46.4122      2.00000
      5      -2.1716      2.00000
      6      -0.2607      2.00000
      7       2.0246      0.00000
      8       2.9506      0.00000
      9       3.7808      0.00000
     10       4.6733      0.00000

 k-point   444 :       0.0667   -0.3333   -0.1333
  band No.  band energies     occupation 
      1     -46.4614      2.00000
      2     -46.4422      2.00000
      3     -46.4182      2.00000
      4     -46.4144      2.00000
      5      -2.1715      2.00000
      6      -0.2658      2.00000
      7       2.0363      0.00000
      8       3.0224      0.00000
      9       3.7184      0.00000
     10       4.5950      0.00000

 k-point   445 :       0.0667    0.1333   -0.3333
  band No.  band energies     occupation 
      1     -46.4617      2.00000
      2     -46.4437      2.00000
      3     -46.4176      2.00000
      4     -46.4132      2.00000
      5      -2.1713      2.00000
      6      -0.2613      2.00000
      7       2.0161      0.00000
      8       3.0371      0.00000
      9       3.7341      0.00000
     10       4.5059      0.00000

 k-point   446 :       0.1333    0.3333    0.1333
  band No.  band energies     occupation 
      1     -46.4607      2.00000
      2     -46.4412      2.00000
      3     -46.4201      2.00000
      4     -46.4142      2.00000
      5      -2.0886      2.00000
      6      -0.1886      2.00000
      7       2.0427      0.00000
      8       2.5379      0.00000
      9       3.6941      0.00000
     10       4.5116      0.00000

 k-point   447 :       0.1333   -0.1333    0.3333
  band No.  band energies     occupation 
      1     -46.4617      2.00000
      2     -46.4411      2.00000
      3     -46.4211      2.00000
      4     -46.4123      2.00000
      5      -2.0893      2.00000
      6      -0.1864      2.00000
      7       2.0505      0.00000
      8       2.5079      0.00000
      9       3.6905      0.00000
     10       4.5961      0.00000

 k-point   448 :       0.1333   -0.3333   -0.1333
  band No.  band energies     occupation 
      1     -46.4603      2.00000
      2     -46.4420      2.00000
      3     -46.4189      2.00000
      4     -46.4149      2.00000
      5      -2.0889      2.00000
      6      -0.1912      2.00000
      7       2.0565      0.00000
      8       2.5740      0.00000
      9       3.6222      0.00000
     10       4.5222      0.00000

 k-point   449 :       0.1333    0.1333   -0.3333
  band No.  band energies     occupation 
      1     -46.4603      2.00000
      2     -46.4441      2.00000
      3     -46.4177      2.00000
      4     -46.4141      2.00000
      5      -2.0888      2.00000
      6      -0.1881      2.00000
      7       2.0379      0.00000
      8       2.5934      0.00000
      9       3.6221      0.00000
     10       4.4484      0.00000

 k-point   450 :       0.2000    0.3333    0.1333
  band No.  band energies     occupation 
      1     -46.4591      2.00000
      2     -46.4406      2.00000
      3     -46.4216      2.00000
      4     -46.4149      2.00000
      5      -1.9508      2.00000
      6      -0.0687      2.00000
      7       1.8113      0.00000
      8       2.2523      0.00000
      9       3.6489      0.00000
     10       4.2717      0.00000

 k-point   451 :       0.2000   -0.1333    0.3333
  band No.  band energies     occupation 
      1     -46.4604      2.00000
      2     -46.4397      2.00000
      3     -46.4233      2.00000
      4     -46.4127      2.00000
      5      -1.9523      2.00000
      6      -0.0694      2.00000
      7       1.8153      0.00000
      8       2.2490      0.00000
      9       3.6483      0.00000
     10       4.3149      0.00000

 k-point   452 :       0.2000   -0.3333   -0.1333
  band No.  band energies     occupation 
      1     -46.4585      2.00000
      2     -46.4418      2.00000
      3     -46.4200      2.00000
      4     -46.4158      2.00000
      5      -1.9513      2.00000
      6      -0.0727      2.00000
      7       1.8307      0.00000
      8       2.2780      0.00000
      9       3.5833      0.00000
     10       4.2900      0.00000

 k-point   453 :       0.2000    0.1333   -0.3333
  band No.  band energies     occupation 
      1     -46.4583      2.00000
      2     -46.4443      2.00000
      3     -46.4185      2.00000
      4     -46.4150      2.00000
      5      -1.9514      2.00000
      6      -0.0741      2.00000
      7       1.8675      0.00000
      8       2.2355      0.00000
      9       3.5921      0.00000
     10       4.2403      0.00000

 k-point   454 :       0.2667    0.3333    0.1333
  band No.  band energies     occupation 
      1     -46.4569      2.00000
      2     -46.4401      2.00000
      3     -46.4232      2.00000
      4     -46.4158      2.00000
      5      -1.7583      2.00000
      6       0.0744      2.00000
      7       1.3053      0.00000
      8       2.2372      0.00000
      9       3.4790      0.00000
     10       4.2183      0.00000

 k-point   455 :       0.2667   -0.1333    0.3333
  band No.  band energies     occupation 
      1     -46.4586      2.00000
      2     -46.4384      2.00000
      3     -46.4257      2.00000
      4     -46.4134      2.00000
      5      -1.7607      2.00000
      6       0.0685      2.00000
      7       1.3087      0.00000
      8       2.2666      0.00000
      9       3.4690      0.00000
     10       4.2271      0.00000

 k-point   456 :       0.2667   -0.3333   -0.1333
  band No.  band energies     occupation 
      1     -46.4562      2.00000
      2     -46.4418      2.00000
      3     -46.4212      2.00000
      4     -46.4169      2.00000
      5      -1.7589      2.00000
      6       0.0691      2.00000
      7       1.3195      0.00000
      8       2.2678      0.00000
      9       3.4287      0.00000
     10       4.2272      0.00000

 k-point   457 :       0.2667    0.1333   -0.3333
  band No.  band energies     occupation 
      1     -46.4558      2.00000
      2     -46.4446      2.00000
      3     -46.4197      2.00000
      4     -46.4159      2.00000
      5      -1.7594      2.00000
      6       0.0560      2.00000
      7       1.3760      0.00000
      8       2.2069      0.00000
      9       3.4564      0.00000
     10       4.1757      0.00000

 k-point   458 :       0.3333    0.3333    0.1333
  band No.  band energies     occupation 
      1     -46.4545      2.00000
      2     -46.4402      2.00000
      3     -46.4242      2.00000
      4     -46.4171      2.00000
      5      -1.5115      2.00000
      6       0.1441      2.00000
      7       0.9207      0.00000
      8       2.1274      0.00000
      9       3.3500      0.00000
     10       4.2960      0.00000

 k-point   459 :       0.3333   -0.1333    0.3333
  band No.  band energies     occupation 
      1     -46.4565      2.00000
      2     -46.4377      2.00000
      3     -46.4275      2.00000
      4     -46.4143      2.00000
      5      -1.5155      2.00000
      6       0.1301      2.00000
      7       0.9315      0.00000
      8       2.1851      0.00000
      9       3.3123      0.00000
     10       4.2850      0.00000

 k-point   460 :       0.3333   -0.3333   -0.1333
  band No.  band energies     occupation 
      1     -46.4535      2.00000
      2     -46.4422      2.00000
      3     -46.4219      2.00000
      4     -46.4183      2.00000
      5      -1.5124      2.00000
      6       0.1396      2.00000
      7       0.9286      0.00000
      8       2.1562      0.00000
      9       3.3194      0.00000
     10       4.2907      0.00000

 k-point   461 :       0.3333    0.1333   -0.3333
  band No.  band energies     occupation 
      1     -46.4530      2.00000
      2     -46.4451      2.00000
      3     -46.4213      2.00000
      4     -46.4166      2.00000
      5      -1.5137      2.00000
      6       0.1039      2.00000
      7       1.0091      0.00000
      8       2.1001      0.00000
      9       3.3466      0.00000
     10       4.2226      0.00000

 k-point   462 :       0.4000    0.3333    0.1333
  band No.  band energies     occupation 
      1     -46.4518      2.00000
      2     -46.4413      2.00000
      3     -46.4243      2.00000
      4     -46.4185      2.00000
      5      -1.2120      2.00000
      6      -0.0837      2.00000
      7       0.9215      0.00000
      8       1.8547      0.00000
      9       3.4265      0.00000
     10       4.2338      0.00000

 k-point   463 :       0.4000   -0.1333    0.3333
  band No.  band energies     occupation 
      1     -46.4542      2.00000
      2     -46.4385      2.00000
      3     -46.4279      2.00000
      4     -46.4153      2.00000
      5      -1.2183      2.00000
      6      -0.0959      2.00000
      7       0.9287      0.00000
      8       1.9204      0.00000
      9       3.3758      0.00000
     10       4.2073      0.00000

 k-point   464 :       0.4000   -0.3333   -0.1333
  band No.  band energies     occupation 
      1     -46.4507      2.00000
      2     -46.4432      2.00000
      3     -46.4221      2.00000
      4     -46.4199      2.00000
      5      -1.2132      2.00000
      6      -0.0833      2.00000
      7       0.9198      0.00000
      8       1.8742      0.00000
      9       3.4160      0.00000
     10       4.2160      0.00000

 k-point   465 :       0.4000    0.1333   -0.3333
  band No.  band energies     occupation 
      1     -46.4507      2.00000
      2     -46.4452      2.00000
      3     -46.4230      2.00000
      4     -46.4169      2.00000
      5      -1.2155      2.00000
      6      -0.1149      2.00000
      7       0.9994      0.00000
      8       1.8383      0.00000
      9       3.4221      0.00000
     10       4.1452      0.00000

 k-point   466 :       0.4667    0.3333    0.1333
  band No.  band energies     occupation 
      1     -46.4494      2.00000
      2     -46.4431      2.00000
      3     -46.4235      2.00000
      4     -46.4198      2.00000
      5      -0.8632      2.00000
      6      -0.4747      2.00000
      7       1.1737      0.00000
      8       1.5147      0.00000
      9       3.6434      0.00000
     10       3.9737      0.00000

 k-point   467 :       0.4667   -0.1333    0.3333
  band No.  band energies     occupation 
      1     -46.4520      2.00000
      2     -46.4409      2.00000
      3     -46.4267      2.00000
      4     -46.4162      2.00000
      5      -0.8736      2.00000
      6      -0.4817      2.00000
      7       1.1743      0.00000
      8       1.5760      0.00000
      9       3.5861      0.00000
     10       3.9549      0.00000

 k-point   468 :       0.4667   -0.3333   -0.1333
  band No.  band energies     occupation 
      1     -46.4487      2.00000
      2     -46.4442      2.00000
      3     -46.4224      2.00000
      4     -46.4207      2.00000
      5      -0.8647      2.00000
      6      -0.4730      2.00000
      7       1.1667      0.00000
      8       1.5268      0.00000
      9       3.6471      0.00000
     10       3.9595      0.00000

 k-point   469 :       0.4667    0.1333   -0.3333
  band No.  band energies     occupation 
      1     -46.4504      2.00000
      2     -46.4437      2.00000
      3     -46.4249      2.00000
      4     -46.4168      2.00000
      5      -0.8690      2.00000
      6      -0.4905      2.00000
      7       1.2385      0.00000
      8       1.5063      0.00000
      9       3.6265      0.00000
     10       3.9107      0.00000

 k-point   470 :       0.0000    0.4000    0.1333
  band No.  band energies     occupation 
      1     -46.4583      2.00000
      2     -46.4461      2.00000
      3     -46.4173      2.00000
      4     -46.4146      2.00000
      5      -1.9206      2.00000
      6      -0.7753      2.00000
      7       2.2407      0.00000
      8       2.9654      0.00000
      9       4.1112      0.00000
     10       4.4497      0.00000

 k-point   471 :       0.0000   -0.1333    0.4000
  band No.  band energies     occupation 
      1     -46.4590      2.00000
      2     -46.4471      2.00000
      3     -46.4178      2.00000
      4     -46.4123      2.00000
      5      -1.9203      2.00000
      6      -0.7723      2.00000
      7       2.2263      0.00000
      8       2.9574      0.00000
      9       4.1005      0.00000
     10       4.4678      0.00000

 k-point   472 :       0.0667    0.4000    0.1333
  band No.  band energies     occupation 
      1     -46.4580      2.00000
      2     -46.4458      2.00000
      3     -46.4177      2.00000
      4     -46.4147      2.00000
      5      -1.8931      2.00000
      6      -0.7485      2.00000
      7       2.2469      0.00000
      8       2.8906      0.00000
      9       3.8724      0.00000
     10       4.4515      0.00000

 k-point   473 :       0.0667   -0.1333    0.4000
  band No.  band energies     occupation 
      1     -46.4591      2.00000
      2     -46.4463      2.00000
      3     -46.4187      2.00000
      4     -46.4122      2.00000
      5      -1.8932      2.00000
      6      -0.7461      2.00000
      7       2.2428      0.00000
      8       2.8714      0.00000
      9       3.8352      0.00000
     10       4.5521      0.00000

 k-point   474 :       0.0667   -0.4000   -0.1333
  band No.  band energies     occupation 
      1     -46.4579      2.00000
      2     -46.4460      2.00000
      3     -46.4174      2.00000
      4     -46.4149      2.00000
      5      -1.8933      2.00000
      6      -0.7494      2.00000
      7       2.2548      0.00000
      8       2.9170      0.00000
      9       3.8266      0.00000
     10       4.4518      0.00000

 k-point   475 :       0.0667    0.1333   -0.4000
  band No.  band energies     occupation 
      1     -46.4583      2.00000
      2     -46.4475      2.00000
      3     -46.4176      2.00000
      4     -46.4128      2.00000
      5      -1.8928      2.00000
      6      -0.7467      2.00000
      7       2.2315      0.00000
      8       2.9228      0.00000
      9       3.8697      0.00000
     10       4.3664      0.00000

 k-point   476 :       0.1333    0.4000    0.1333
  band No.  band energies     occupation 
      1     -46.4571      2.00000
      2     -46.4452      2.00000
      3     -46.4188      2.00000
      4     -46.4151      2.00000
      5      -1.8108      2.00000
      6      -0.6699      2.00000
      7       2.2513      0.00000
      8       2.6224      0.00000
      9       3.6251      0.00000
     10       4.1911      0.00000

 k-point   477 :       0.1333   -0.1333    0.4000
  band No.  band energies     occupation 
      1     -46.4586      2.00000
      2     -46.4450      2.00000
      3     -46.4201      2.00000
      4     -46.4124      2.00000
      5      -1.8117      2.00000
      6      -0.6686      2.00000
      7       2.2588      0.00000
      8       2.5999      0.00000
      9       3.6092      0.00000
     10       4.2582      0.00000

 k-point   478 :       0.1333   -0.4000   -0.1333
  band No.  band energies     occupation 
      1     -46.4569      2.00000
      2     -46.4456      2.00000
      3     -46.4182      2.00000
      4     -46.4155      2.00000
      5      -1.8113      2.00000
      6      -0.6717      2.00000
      7       2.2680      0.00000
      8       2.6590      0.00000
      9       3.5642      0.00000
     10       4.1893      0.00000

 k-point   479 :       0.1333    0.1333   -0.4000
  band No.  band energies     occupation 
      1     -46.4570      2.00000
      2     -46.4476      2.00000
      3     -46.4180      2.00000
      4     -46.4136      2.00000
      5      -1.8109      2.00000
      6      -0.6701      2.00000
      7       2.2422      0.00000
      8       2.6766      0.00000
      9       3.5828      0.00000
     10       4.1345      0.00000

 k-point   480 :       0.2000    0.4000    0.1333
  band No.  band energies     occupation 
      1     -46.4557      2.00000
      2     -46.4443      2.00000
      3     -46.4202      2.00000
      4     -46.4160      2.00000
      5      -1.6741      2.00000
      6      -0.5422      2.00000
      7       2.0318      0.00000
      8       2.3521      0.00000
      9       3.5170      0.00000
     10       3.9146      0.00000

 k-point   481 :       0.2000   -0.1333    0.4000
  band No.  band energies     occupation 
      1     -46.4576      2.00000
      2     -46.4435      2.00000
      3     -46.4221      2.00000
      4     -46.4130      2.00000
      5      -1.6761      2.00000
      6      -0.5427      2.00000
      7       2.0227      0.00000
      8       2.3753      0.00000
      9       3.5020      0.00000
     10       3.9426      0.00000

 k-point   482 :       0.2000   -0.4000   -0.1333
  band No.  band energies     occupation 
      1     -46.4553      2.00000
      2     -46.4449      2.00000
      3     -46.4194      2.00000
      4     -46.4165      2.00000
      5      -1.6749      2.00000
      6      -0.5449      2.00000
      7       2.0545      0.00000
      8       2.3814      0.00000
      9       3.4605      0.00000
     10       3.9161      0.00000

 k-point   483 :       0.2000    0.1333   -0.4000
  band No.  band energies     occupation 
      1     -46.4551      2.00000
      2     -46.4475      2.00000
      3     -46.4191      2.00000
      4     -46.4145      2.00000
      5      -1.6748      2.00000
      6      -0.5461      2.00000
      7       2.0915      0.00000
      8       2.3314      0.00000
      9       3.4837      0.00000
     10       3.8820      0.00000

 k-point   484 :       0.2667    0.4000    0.1333
  band No.  band energies     occupation 
      1     -46.4538      2.00000
      2     -46.4434      2.00000
      3     -46.4217      2.00000
      4     -46.4172      2.00000
      5      -1.4837      2.00000
      6      -0.3730      2.00000
      7       1.5262      0.00000
      8       2.2002      0.00000
      9       3.3854      0.00000
     10       3.9303      0.00000

 k-point   485 :       0.2667   -0.1333    0.4000
  band No.  band energies     occupation 
      1     -46.4562      2.00000
      2     -46.4417      2.00000
      3     -46.4244      2.00000
      4     -46.4138      2.00000
      5      -1.4874      2.00000
      6      -0.3765      2.00000
      7       1.5190      0.00000
      8       2.2576      0.00000
      9       3.3504      0.00000
     10       3.9391      0.00000

 k-point   486 :       0.2667   -0.4000   -0.1333
  band No.  band energies     occupation 
      1     -46.4533      2.00000
      2     -46.4442      2.00000
      3     -46.4207      2.00000
      4     -46.4179      2.00000
      5      -1.4848      2.00000
      6      -0.3767      2.00000
      7       1.5422      0.00000
      8       2.2296      0.00000
      9       3.3462      0.00000
     10       3.9276      0.00000

 k-point   487 :       0.2667    0.1333   -0.4000
  band No.  band energies     occupation 
      1     -46.4529      2.00000
      2     -46.4471      2.00000
      3     -46.4206      2.00000
      4     -46.4154      2.00000
      5      -1.4853      2.00000
      6      -0.3842      2.00000
      7       1.5942      0.00000
      8       2.1689      0.00000
      9       3.3771      0.00000
     10       3.8938      0.00000

 k-point   488 :       0.3333    0.4000    0.1333
  band No.  band energies     occupation 
      1     -46.4516      2.00000
      2     -46.4427      2.00000
      3     -46.4231      2.00000
      4     -46.4186      2.00000
      5      -1.2411      2.00000
      6      -0.1881      2.00000
      7       1.0443      0.00000
      8       1.8939      0.00000
      9       3.4102      0.00000
     10       4.1020      0.00000

 k-point   489 :       0.3333   -0.1333    0.4000
  band No.  band energies     occupation 
      1     -46.4544      2.00000
      2     -46.4401      2.00000
      3     -46.4267      2.00000
      4     -46.4147      2.00000
      5      -1.2476      2.00000
      6      -0.1966      2.00000
      7       1.0444      0.00000
      8       1.9618      0.00000
      9       3.3632      0.00000
     10       4.1052      0.00000

 k-point   490 :       0.3333   -0.4000   -0.1333
  band No.  band energies     occupation 
      1     -46.4509      2.00000
      2     -46.4437      2.00000
      3     -46.4219      2.00000
      4     -46.4194      2.00000
      5      -1.2425      2.00000
      6      -0.1925      2.00000
      7       1.0549      0.00000
      8       1.9152      0.00000
      9       3.3902      0.00000
     10       4.0990      0.00000

 k-point   491 :       0.3333    0.1333   -0.4000
  band No.  band energies     occupation 
      1     -46.4508      2.00000
      2     -46.4464      2.00000
      3     -46.4226      2.00000
      4     -46.4162      2.00000
      5      -1.2442      2.00000
      6      -0.2142      2.00000
      7       1.1208      0.00000
      8       1.8726      0.00000
      9       3.4054      0.00000
     10       4.0563      0.00000

 k-point   492 :       0.4000    0.4000    0.1333
  band No.  band energies     occupation 
      1     -46.4493      2.00000
      2     -46.4426      2.00000
      3     -46.4238      2.00000
      4     -46.4200      2.00000
      5      -0.9499      2.00000
      6      -0.0961      2.00000
      7       0.7402      1.99632
      8       1.5034      0.00000
      9       3.5927      0.00000
     10       4.2633      0.00000

 k-point   493 :       0.4000   -0.1333    0.4000
  band No.  band energies     occupation 
      1     -46.4527      2.00000
      2     -46.4393      2.00000
      3     -46.4282      2.00000
      4     -46.4157      2.00000
      5      -0.9610      2.00000
      6      -0.1105      2.00000
      7       0.7467      1.98556
      8       1.5706      0.00000
      9       3.5427      0.00000
     10       4.2600      0.00000

 k-point   494 :       0.4000   -0.4000   -0.1333
  band No.  band energies     occupation 
      1     -46.4486      2.00000
      2     -46.4437      2.00000
      3     -46.4226      2.00000
      4     -46.4209      2.00000
      5      -0.9518      2.00000
      6      -0.0988      2.00000
      7       0.7445      1.99073
      8       1.5173      0.00000
      9       3.5871      0.00000
     10       4.2577      0.00000

 k-point   495 :       0.4000    0.1333   -0.4000
  band No.  band energies     occupation 
      1     -46.4497      2.00000
      2     -46.4447      2.00000
      3     -46.4247      2.00000
      4     -46.4167      2.00000
      5      -0.9552      2.00000
      6      -0.1416      2.00000
      7       0.8328      0.00027
      8       1.4929      0.00000
      9       3.5826      0.00000
     10       4.1955      0.00000

 k-point   496 :       0.4667    0.4000    0.1333
  band No.  band energies     occupation 
      1     -46.4474      2.00000
      2     -46.4434      2.00000
      3     -46.4237      2.00000
      4     -46.4213      2.00000
      5      -0.6206      2.00000
      6      -0.2878      2.00000
      7       0.8124      0.02786
      8       1.1232      0.00000
      9       3.8531      0.00000
     10       4.1701      0.00000

 k-point   497 :       0.4667   -0.1333    0.4000
  band No.  band energies     occupation 
      1     -46.4512      2.00000
      2     -46.4401      2.00000
      3     -46.4282      2.00000
      4     -46.4164      2.00000
      5      -0.6402      2.00000
      6      -0.2985      2.00000
      7       0.8148      0.01791
      8       1.1912      0.00000
      9       3.7912      0.00000
     10       4.1663      0.00000

 k-point   498 :       0.4667   -0.4000   -0.1333
  band No.  band energies     occupation 
      1     -46.4469      2.00000
      2     -46.4440      2.00000
      3     -46.4230      2.00000
      4     -46.4219      2.00000
      5      -0.6227      2.00000
      6      -0.2865      2.00000
      7       0.8089      0.05117
      8       1.1317      0.00000
      9       3.8571      0.00000
     10       4.1601      0.00000

 k-point   499 :       0.4667    0.1333   -0.4000
  band No.  band energies     occupation 
      1     -46.4500      2.00000
      2     -46.4423      2.00000
      3     -46.4267      2.00000
      4     -46.4168      2.00000
      5      -0.6295      2.00000
      6      -0.3203      2.00000
      7       0.8912      0.00000
      8       1.1203      0.00000
      9       3.8254      0.00000
     10       4.1183      0.00000

 k-point   500 :       0.0000    0.4667    0.1333
  band No.  band energies     occupation 
      1     -46.4544      2.00000
      2     -46.4502      2.00000
      3     -46.4163      2.00000
      4     -46.4154      2.00000
      5      -1.5906      2.00000
      6      -1.2088      2.00000
      7       2.4833      0.00000
      8       2.7321      0.00000
      9       4.2686      0.00000
     10       4.3910      0.00000

 k-point   501 :       0.0000   -0.1333    0.4667
  band No.  band energies     occupation 
      1     -46.4554      2.00000
      2     -46.4511      2.00000
      3     -46.4176      2.00000
      4     -46.4123      2.00000
      5      -1.5899      2.00000
      6      -1.2071      2.00000
      7       2.4626      0.00000
      8       2.7322      0.00000
      9       4.2095      0.00000
     10       4.4642      0.00000

 k-point   502 :       0.0667    0.4667    0.1333
  band No.  band energies     occupation 
      1     -46.4541      2.00000
      2     -46.4500      2.00000
      3     -46.4166      2.00000
      4     -46.4156      2.00000
      5      -1.5633      2.00000
      6      -1.1817      2.00000
      7       2.4802      0.00000
      8       2.7073      0.00000
      9       4.0403      0.00000
     10       4.2505      0.00000

 k-point   503 :       0.0667   -0.1333    0.4667
  band No.  band energies     occupation 
      1     -46.4556      2.00000
      2     -46.4503      2.00000
      3     -46.4181      2.00000
      4     -46.4123      2.00000
      5      -1.5631      2.00000
      6      -1.1802      2.00000
      7       2.4720      0.00000
      8       2.7035      0.00000
      9       3.9731      0.00000
     10       4.3381      0.00000

 k-point   504 :       0.0667   -0.4667   -0.1333
  band No.  band energies     occupation 
      1     -46.4540      2.00000
      2     -46.4500      2.00000
      3     -46.4166      2.00000
      4     -46.4157      2.00000
      5      -1.5636      2.00000
      6      -1.1823      2.00000
      7       2.4904      0.00000
      8       2.7226      0.00000
      9       4.0152      0.00000
     10       4.2395      0.00000

 k-point   505 :       0.0667    0.1333   -0.4667
  band No.  band energies     occupation 
      1     -46.4547      2.00000
      2     -46.4513      2.00000
      3     -46.4177      2.00000
      4     -46.4125      2.00000
      5      -1.5626      2.00000
      6      -1.1808      2.00000
      7       2.4572      0.00000
      8       2.7292      0.00000
      9       4.0651      0.00000
     10       4.1933      0.00000

 k-point   506 :       0.1333    0.4667    0.1333
  band No.  band energies     occupation 
      1     -46.4533      2.00000
      2     -46.4492      2.00000
      3     -46.4175      2.00000
      4     -46.4162      2.00000
      5      -1.4817      2.00000
      6      -1.1013      2.00000
      7       2.4523      0.00000
      8       2.5967      0.00000
      9       3.6818      0.00000
     10       3.8902      0.00000

 k-point   507 :       0.1333   -0.1333    0.4667
  band No.  band energies     occupation 
      1     -46.4553      2.00000
      2     -46.4490      2.00000
      3     -46.4192      2.00000
      4     -46.4127      2.00000
      5      -1.4826      2.00000
      6      -1.1006      2.00000
      7       2.4510      0.00000
      8       2.6008      0.00000
      9       3.6448      0.00000
     10       3.9316      0.00000

 k-point   508 :       0.1333   -0.4667   -0.1333
  band No.  band energies     occupation 
      1     -46.4532      2.00000
      2     -46.4493      2.00000
      3     -46.4173      2.00000
      4     -46.4164      2.00000
      5      -1.4825      2.00000
      6      -1.1025      2.00000
      7       2.4737      0.00000
      8       2.6264      0.00000
      9       3.6406      0.00000
     10       3.8707      0.00000

 k-point   509 :       0.1333    0.1333   -0.4667
  band No.  band energies     occupation 
      1     -46.4536      2.00000
      2     -46.4510      2.00000
      3     -46.4185      2.00000
      4     -46.4131      2.00000
      5      -1.4816      2.00000
      6      -1.1019      2.00000
      7       2.4313      0.00000
      8       2.6421      0.00000
      9       3.6814      0.00000
     10       3.8432      0.00000

 k-point   510 :       0.2000    0.4667    0.1333
  band No.  band energies     occupation 
      1     -46.4520      2.00000
      2     -46.4482      2.00000
      3     -46.4187      2.00000
      4     -46.4173      2.00000
      5      -1.3468      2.00000
      6      -0.9691      2.00000
      7       2.2378      0.00000
      8       2.3622      0.00000
      9       3.4860      0.00000
     10       3.6296      0.00000

 k-point   511 :       0.2000   -0.1333    0.4667
  band No.  band energies     occupation 
      1     -46.4546      2.00000
      2     -46.4472      2.00000
      3     -46.4209      2.00000
      4     -46.4134      2.00000
      5      -1.3494      2.00000
      6      -0.9696      2.00000
      7       2.2126      0.00000
      8       2.4197      0.00000
      9       3.4492      0.00000
     10       3.6439      0.00000

 k-point   512 :       0.2000   -0.4667   -0.1333
  band No.  band energies     occupation 
      1     -46.4518      2.00000
      2     -46.4483      2.00000
      3     -46.4185      2.00000
      4     -46.4175      2.00000
      5      -1.3480      2.00000
      6      -0.9709      2.00000
      7       2.2647      0.00000
      8       2.3927      0.00000
      9       3.4444      0.00000
     10       3.6097      0.00000

 k-point   513 :       0.2000    0.1333   -0.4667
  band No.  band energies     occupation 
      1     -46.4524      2.00000
      2     -46.4499      2.00000
      3     -46.4199      2.00000
      4     -46.4139      2.00000
      5      -1.3476      2.00000
      6      -0.9722      2.00000
      7       2.2851      0.00000
      8       2.3527      0.00000
      9       3.4791      0.00000
     10       3.5907      0.00000

 k-point   514 :       0.2667    0.4667    0.1333
  band No.  band energies     occupation 
      1     -46.4504      2.00000
      2     -46.4468      2.00000
      3     -46.4202      2.00000
      4     -46.4186      2.00000
      5      -1.1599      2.00000
      6      -0.7884      2.00000
      7       1.7820      0.00000
      8       2.0292      0.00000
      9       3.4578      0.00000
     10       3.6604      0.00000

 k-point   515 :       0.2667   -0.1333    0.4667
  band No.  band energies     occupation 
      1     -46.4535      2.00000
      2     -46.4451      2.00000
      3     -46.4230      2.00000
      4     -46.4143      2.00000
      5      -1.1654      2.00000
      6      -0.7908      2.00000
      7       1.7649      0.00000
      8       2.0992      0.00000
      9       3.4096      0.00000
     10       3.6703      0.00000

 k-point   516 :       0.2667   -0.4667   -0.1333
  band No.  band energies     occupation 
      1     -46.4502      2.00000
      2     -46.4471      2.00000
      3     -46.4199      2.00000
      4     -46.4189      2.00000
      5      -1.1616      2.00000
      6      -0.7909      2.00000
      7       1.8010      0.00000
      8       2.0530      0.00000
      9       3.4317      0.00000
     10       3.6461      0.00000

 k-point   517 :       0.2667    0.1333   -0.4667
  band No.  band energies     occupation 
      1     -46.4514      2.00000
      2     -46.4480      2.00000
      3     -46.4218      2.00000
      4     -46.4148      2.00000
      5      -1.1621      2.00000
      6      -0.7958      2.00000
      7       1.8514      0.00000
      8       2.0033      0.00000
      9       3.4525      0.00000
     10       3.6265      0.00000

 k-point   518 :       0.3333    0.4667    0.1333
  band No.  band energies     occupation 
      1     -46.4486      2.00000
      2     -46.4455      2.00000
      3     -46.4217      2.00000
      4     -46.4201      2.00000
      5      -0.9248      2.00000
      6      -0.5681      2.00000
      7       1.2967      0.00000
      8       1.5952      0.00000
      9       3.5929      0.00000
     10       3.8409      0.00000

 k-point   519 :       0.3333   -0.1333    0.4667
  band No.  band energies     occupation 
      1     -46.4524      2.00000
      2     -46.4429      2.00000
      3     -46.4254      2.00000
      4     -46.4152      2.00000
      5      -0.9351      2.00000
      6      -0.5734      2.00000
      7       1.2885      0.00000
      8       1.6639      0.00000
      9       3.5425      0.00000
     10       3.8513      0.00000

 k-point   520 :       0.3333   -0.4667   -0.1333
  band No.  band energies     occupation 
      1     -46.4483      2.00000
      2     -46.4458      2.00000
      3     -46.4213      2.00000
      4     -46.4204      2.00000
      5      -0.9270      2.00000
      6      -0.5713      2.00000
      7       1.3094      0.00000
      8       1.6110      0.00000
      9       3.5804      0.00000
     10       3.8338      0.00000

 k-point   521 :       0.3333    0.1333   -0.4667
  band No.  band energies     occupation 
      1     -46.4506      2.00000
      2     -46.4456      2.00000
      3     -46.4240      2.00000
      4     -46.4157      2.00000
      5      -0.9292      2.00000
      6      -0.5835      2.00000
      7       1.3662      0.00000
      8       1.5807      0.00000
      9       3.5804      0.00000
     10       3.8132      0.00000

 k-point   522 :       0.4000    0.4667    0.1333
  band No.  band energies     occupation 
      1     -46.4469      2.00000
      2     -46.4445      2.00000
      3     -46.4229      2.00000
      4     -46.4216      2.00000
      5      -0.6511      2.00000
      6      -0.3381      2.00000
      7       0.8735      0.00000
      8       1.1600      0.00000
      9       3.8255      0.00000
     10       4.0813      0.00000

 k-point   523 :       0.4000   -0.1333    0.4667
  band No.  band energies     occupation 
      1     -46.4513      2.00000
      2     -46.4409      2.00000
      3     -46.4275      2.00000
      4     -46.4161      2.00000
      5      -0.6703      2.00000
      6      -0.3477      2.00000
      7       0.8726      0.00000
      8       1.2310      0.00000
      9       3.7676      0.00000
     10       4.0976      0.00000

 k-point   524 :       0.4000   -0.4667   -0.1333
  band No.  band energies     occupation 
      1     -46.4466      2.00000
      2     -46.4449      2.00000
      3     -46.4225      2.00000
      4     -46.4219      2.00000
      5      -0.6538      2.00000
      6      -0.3415      2.00000
      7       0.8814      0.00000
      8       1.1704      0.00000
      9       3.8227      0.00000
     10       4.0799      0.00000

 k-point   525 :       0.4000    0.1333   -0.4667
  band No.  band energies     occupation 
      1     -46.4502      2.00000
      2     -46.4430      2.00000
      3     -46.4262      2.00000
      4     -46.4164      2.00000
      5      -0.6592      2.00000
      6      -0.3688      2.00000
      7       0.9528      0.00000
      8       1.1551      0.00000
      9       3.8011      0.00000
     10       4.0560      0.00000

 k-point   526 :       0.4667    0.4667    0.1333
  band No.  band energies     occupation 
      1     -46.4456      2.00000
      2     -46.4442      2.00000
      3     -46.4234      2.00000
      4     -46.4225      2.00000
      5      -0.3726      2.00000
      6      -0.2175      2.00000
      7       0.6502      2.00000
      8       0.7989      0.21384
      9       4.0930      0.00000
     10       4.2611      0.00000

 k-point   527 :       0.4667   -0.1333    0.4667
  band No.  band energies     occupation 
      1     -46.4505      2.00000
      2     -46.4400      2.00000
      3     -46.4287      2.00000
      4     -46.4166      2.00000
      5      -0.4095      2.00000
      6      -0.2286      2.00000
      7       0.6520      2.00000
      8       0.8817      0.00000
      9       4.0030      0.00000
     10       4.3024      0.00000

 k-point   528 :       0.4667   -0.4667   -0.1333
  band No.  band energies     occupation 
      1     -46.4454      2.00000
      2     -46.4444      2.00000
      3     -46.4232      2.00000
      4     -46.4228      2.00000
      5      -0.3749      2.00000
      6      -0.2184      2.00000
      7       0.6516      2.00000
      8       0.8045      0.10133
      9       4.0962      0.00000
     10       4.2596      0.00000

 k-point   529 :       0.4667    0.1333   -0.4667
  band No.  band energies     occupation 
      1     -46.4501      2.00000
      2     -46.4408      2.00000
      3     -46.4281      2.00000
      4     -46.4167      2.00000
      5      -0.3882      2.00000
      6      -0.2609      2.00000
      7       0.7355      1.99881
      8       0.8075      0.06378
      9       4.0276      0.00000
     10       4.2597      0.00000

 k-point   530 :       0.0000    0.2000    0.2000
  band No.  band energies     occupation 
      1     -46.4660      2.00000
      2     -46.4375      2.00000
      3     -46.4192      2.00000
      4     -46.4134      2.00000
      5      -2.4771      2.00000
      6       0.7420      1.99452
      7       1.2592      0.00000
      8       3.2782      0.00000
      9       3.7861      0.00000
     10       4.4487      0.00000

 k-point   531 :       0.0667    0.2000    0.2000
  band No.  band energies     occupation 
      1     -46.4658      2.00000
      2     -46.4368      2.00000
      3     -46.4206      2.00000
      4     -46.4130      2.00000
      5      -2.4495      2.00000
      6       0.7697      1.58900
      7       1.2718      0.00000
      8       2.9169      0.00000
      9       3.8442      0.00000
     10       4.6983      0.00000

 k-point   532 :       0.0667   -0.2000   -0.2000
  band No.  band energies     occupation 
      1     -46.4654      2.00000
      2     -46.4381      2.00000
      3     -46.4187      2.00000
      4     -46.4140      2.00000
      5      -2.4494      2.00000
      6       0.7675      1.67177
      7       1.2725      0.00000
      8       2.9929      0.00000
      9       3.7372      0.00000
     10       4.6652      0.00000

 k-point   533 :       0.1333    0.2000    0.2000
  band No.  band energies     occupation 
      1     -46.4648      2.00000
      2     -46.4359      2.00000
      3     -46.4225      2.00000
      4     -46.4129      2.00000
      5      -2.3664      2.00000
      6       0.8461      0.00000
      7       1.2996      0.00000
      8       2.3490      0.00000
      9       3.8700      0.00000
     10       4.9172      0.00000

 k-point   534 :       0.1333   -0.2000   -0.2000
  band No.  band energies     occupation 
      1     -46.4640      2.00000
      2     -46.4387      2.00000
      3     -46.4188      2.00000
      4     -46.4146      2.00000
      5      -2.3663      2.00000
      6       0.8403      0.00003
      7       1.3017      0.00000
      8       2.4059      0.00000
      9       3.7807      0.00000
     10       4.8525      0.00000

 k-point   535 :       0.2000    0.2000    0.2000
  band No.  band energies     occupation 
      1     -46.4631      2.00000
      2     -46.4351      2.00000
      3     -46.4247      2.00000
      4     -46.4132      2.00000
      5      -2.2279      2.00000
      6       0.9327      0.00000
      7       1.2812      0.00000
      8       1.8801      0.00000
      9       3.8843      0.00000
     10       4.8671      0.00000

 k-point   536 :       0.2000   -0.2000   -0.2000
  band No.  band energies     occupation 
      1     -46.4620      2.00000
      2     -46.4394      2.00000
      3     -46.4195      2.00000
      4     -46.4153      2.00000
      5      -2.2278      2.00000
      6       0.9174      0.00000
      7       1.2947      0.00000
      8       1.9198      0.00000
      9       3.8050      0.00000
     10       4.8120      0.00000

 k-point   537 :       0.2667    0.2000    0.2000
  band No.  band energies     occupation 
      1     -46.4609      2.00000
      2     -46.4350      2.00000
      3     -46.4264      2.00000
      4     -46.4138      2.00000
      5      -2.0339      2.00000
      6       0.7365      1.99845
      7       1.2923      0.00000
      8       1.7751      0.00000
      9       3.8074      0.00000
     10       4.6591      0.00000

 k-point   538 :       0.2667   -0.2000   -0.2000
  band No.  band energies     occupation 
      1     -46.4593      2.00000
      2     -46.4404      2.00000
      3     -46.4201      2.00000
      4     -46.4162      2.00000
      5      -2.0338      2.00000
      6       0.7263      1.99990
      7       1.3140      0.00000
      8       1.7916      0.00000
      9       3.7420      0.00000
     10       4.6099      0.00000

 k-point   539 :       0.3333    0.2000    0.2000
  band No.  band energies     occupation 
      1     -46.4582      2.00000
      2     -46.4365      2.00000
      3     -46.4266      2.00000
      4     -46.4148      2.00000
      5      -1.7844      2.00000
      6       0.2530      2.00000
      7       1.4903      0.00000
      8       1.8800      0.00000
      9       3.6073      0.00000
     10       4.2365      0.00000

 k-point   540 :       0.3333   -0.2000   -0.2000
  band No.  band energies     occupation 
      1     -46.4562      2.00000
      2     -46.4420      2.00000
      3     -46.4205      2.00000
      4     -46.4173      2.00000
      5      -1.7843      2.00000
      6       0.2519      2.00000
      7       1.5093      0.00000
      8       1.8821      0.00000
      9       3.5721      0.00000
     10       4.1974      0.00000

 k-point   541 :       0.4000    0.2000    0.2000
  band No.  band energies     occupation 
      1     -46.4552      2.00000
      2     -46.4395      2.00000
      3     -46.4254      2.00000
      4     -46.4159      2.00000
      5      -1.4794      2.00000
      6      -0.2455      2.00000
      7       1.7303      0.00000
      8       2.0248      0.00000
      9       3.3753      0.00000
     10       3.7930      0.00000

 k-point   542 :       0.4000   -0.2000   -0.2000
  band No.  band energies     occupation 
      1     -46.4530      2.00000
      2     -46.4439      2.00000
      3     -46.4209      2.00000
      4     -46.4182      2.00000
      5      -1.4796      2.00000
      6      -0.2449      2.00000
      7       1.7546      0.00000
      8       2.0098      0.00000
      9       3.3797      0.00000
     10       3.7502      0.00000

 k-point   543 :       0.4667    0.2000    0.2000
  band No.  band energies     occupation 
      1     -46.4524      2.00000
      2     -46.4428      2.00000
      3     -46.4237      2.00000
      4     -46.4170      2.00000
      5      -1.1198      2.00000
      6      -0.7068      2.00000
      7       1.9366      0.00000
      8       2.1087      0.00000
      9       3.2535      0.00000
     10       3.4591      0.00000

 k-point   544 :       0.4667   -0.2000   -0.2000
  band No.  band energies     occupation 
      1     -46.4510      2.00000
      2     -46.4449      2.00000
      3     -46.4220      2.00000
      4     -46.4180      2.00000
      5      -1.1202      2.00000
      6      -0.7062      2.00000
      7       1.9625      0.00000
      8       2.0831      0.00000
      9       3.2889      0.00000
     10       3.4142      0.00000

 k-point   545 :       0.0000    0.2667    0.2000
  band No.  band energies     occupation 
      1     -46.4635      2.00000
      2     -46.4399      2.00000
      3     -46.4191      2.00000
      4     -46.4137      2.00000
      5      -2.3014      2.00000
      6       0.3116      2.00000
      7       1.2738      0.00000
      8       3.1315      0.00000
      9       3.9008      0.00000
     10       4.4825      0.00000

 k-point   546 :       0.0000   -0.2000    0.2667
  band No.  band energies     occupation 
      1     -46.4637      2.00000
      2     -46.4403      2.00000
      3     -46.4190      2.00000
      4     -46.4133      2.00000
      5      -2.3014      2.00000
      6       0.3171      2.00000
      7       1.2654      0.00000
      8       3.1266      0.00000
      9       3.9060      0.00000
     10       4.4768      0.00000

 k-point   547 :       0.0667    0.2667    0.2000
  band No.  band energies     occupation 
      1     -46.4633      2.00000
      2     -46.4393      2.00000
      3     -46.4201      2.00000
      4     -46.4135      2.00000
      5      -2.2738      2.00000
      6       0.3389      2.00000
      7       1.2881      0.00000
      8       2.9136      0.00000
      9       3.7965      0.00000
     10       4.7009      0.00000

 k-point   548 :       0.0667   -0.2000    0.2667
  band No.  band energies     occupation 
      1     -46.4636      2.00000
      2     -46.4395      2.00000
      3     -46.4203      2.00000
      4     -46.4129      2.00000
      5      -2.2739      2.00000
      6       0.3428      2.00000
      7       1.2837      0.00000
      8       2.9022      0.00000
      9       3.7943      0.00000
     10       4.7364      0.00000

 k-point   549 :       0.0667   -0.2667   -0.2000
  band No.  band energies     occupation 
      1     -46.4630      2.00000
      2     -46.4402      2.00000
      3     -46.4189      2.00000
      4     -46.4142      2.00000
      5      -2.2738      2.00000
      6       0.3364      2.00000
      7       1.2909      0.00000
      8       2.9741      0.00000
      9       3.7207      0.00000
     10       4.6680      0.00000

 k-point   550 :       0.0667    0.2000   -0.2667
  band No.  band energies     occupation 
      1     -46.4631      2.00000
      2     -46.4408      2.00000
      3     -46.4184      2.00000
      4     -46.4139      2.00000
      5      -2.2737      2.00000
      6       0.3425      2.00000
      7       1.2799      0.00000
      8       2.9805      0.00000
      9       3.7247      0.00000
     10       4.6301      0.00000

 k-point   551 :       0.1333    0.2667    0.2000
  band No.  band energies     occupation 
      1     -46.4624      2.00000
      2     -46.4385      2.00000
      3     -46.4217      2.00000
      4     -46.4136      2.00000
      5      -2.1908      2.00000
      6       0.4157      2.00000
      7       1.3260      0.00000
      8       2.4333      0.00000
      9       3.7509      0.00000
     10       4.7833      0.00000

 k-point   552 :       0.1333   -0.2000    0.2667
  band No.  band energies     occupation 
      1     -46.4627      2.00000
      2     -46.4384      2.00000
      3     -46.4221      2.00000
      4     -46.4129      2.00000
      5      -2.1911      2.00000
      6       0.4171      2.00000
      7       1.3276      0.00000
      8       2.4216      0.00000
      9       3.7499      0.00000
     10       4.8395      0.00000

 k-point   553 :       0.1333   -0.2667   -0.2000
  band No.  band energies     occupation 
      1     -46.4617      2.00000
      2     -46.4404      2.00000
      3     -46.4192      2.00000
      4     -46.4148      2.00000
      5      -2.1909      2.00000
      6       0.4103      2.00000
      7       1.3312      0.00000
      8       2.4886      0.00000
      9       3.6771      0.00000
     10       4.7451      0.00000

 k-point   554 :       0.1333    0.2000   -0.2667
  band No.  band energies     occupation 
      1     -46.4617      2.00000
      2     -46.4412      2.00000
      3     -46.4186      2.00000
      4     -46.4147      2.00000
      5      -2.1909      2.00000
      6       0.4155      2.00000
      7       1.3204      0.00000
      8       2.4975      0.00000
      9       3.6757      0.00000
     10       4.7016      0.00000

 k-point   555 :       0.2000    0.2667    0.2000
  band No.  band energies     occupation 
      1     -46.4608      2.00000
      2     -46.4377      2.00000
      3     -46.4237      2.00000
      4     -46.4140      2.00000
      5      -2.0526      2.00000
      6       0.5289      2.00000
      7       1.3340      0.00000
      8       1.9472      0.00000
      9       3.7765      0.00000
     10       4.5873      0.00000

 k-point   556 :       0.2000   -0.2000    0.2667
  band No.  band energies     occupation 
      1     -46.4612      2.00000
      2     -46.4372      2.00000
      3     -46.4244      2.00000
      4     -46.4133      2.00000
      5      -2.0531      2.00000
      6       0.5257      2.00000
      7       1.3469      0.00000
      8       1.9342      0.00000
      9       3.7776      0.00000
     10       4.6417      0.00000

 k-point   557 :       0.2000   -0.2667   -0.2000
  band No.  band energies     occupation 
      1     -46.4598      2.00000
      2     -46.4406      2.00000
      3     -46.4201      2.00000
      4     -46.4157      2.00000
      5      -2.0528      2.00000
      6       0.5197      2.00000
      7       1.3416      0.00000
      8       1.9909      0.00000
      9       3.7087      0.00000
     10       4.5814      0.00000

 k-point   558 :       0.2000    0.2000   -0.2667
  band No.  band energies     occupation 
      1     -46.4597      2.00000
      2     -46.4416      2.00000
      3     -46.4192      2.00000
      4     -46.4156      2.00000
      5      -2.0528      2.00000
      6       0.5195      2.00000
      7       1.3450      0.00000
      8       1.9878      0.00000
      9       3.7091      0.00000
     10       4.5429      0.00000

 k-point   559 :       0.2667    0.2667    0.2000
  band No.  band energies     occupation 
      1     -46.4587      2.00000
      2     -46.4371      2.00000
      3     -46.4255      2.00000
      4     -46.4149      2.00000
      5      -1.8592      2.00000
      6       0.6009      2.00000
      7       1.1564      0.00000
      8       1.7726      0.00000
      9       3.7088      0.00000
     10       4.3882      0.00000

 k-point   560 :       0.2667   -0.2000    0.2667
  band No.  band energies     occupation 
      1     -46.4592      2.00000
      2     -46.4363      2.00000
      3     -46.4266      2.00000
      4     -46.4140      2.00000
      5      -1.8601      2.00000
      6       0.5893      2.00000
      7       1.1771      0.00000
      8       1.7665      0.00000
      9       3.7188      0.00000
     10       4.4147      0.00000

 k-point   561 :       0.2667   -0.2667   -0.2000
  band No.  band energies     occupation 
      1     -46.4573      2.00000
      2     -46.4411      2.00000
      3     -46.4210      2.00000
      4     -46.4168      2.00000
      5      -1.8595      2.00000
      6       0.5881      2.00000
      7       1.1710      0.00000
      8       1.8055      0.00000
      9       3.6498      0.00000
     10       4.3968      0.00000

 k-point   562 :       0.2667    0.2000   -0.2667
  band No.  band energies     occupation 
      1     -46.4571      2.00000
      2     -46.4422      2.00000
      3     -46.4201      2.00000
      4     -46.4167      2.00000
      5      -1.8597      2.00000
      6       0.5704      2.00000
      7       1.2197      0.00000
      8       1.7708      0.00000
      9       3.6594      0.00000
     10       4.3500      0.00000

 k-point   563 :       0.3333    0.2667    0.2000
  band No.  band energies     occupation 
      1     -46.4561      2.00000
      2     -46.4376      2.00000
      3     -46.4263      2.00000
      4     -46.4160      2.00000
      5      -1.6108      2.00000
      6       0.3461      2.00000
      7       1.1499      0.00000
      8       1.8416      0.00000
      9       3.4629      0.00000
     10       4.1641      0.00000

 k-point   564 :       0.3333   -0.2000    0.2667
  band No.  band energies     occupation 
      1     -46.4568      2.00000
      2     -46.4364      2.00000
      3     -46.4278      2.00000
      4     -46.4150      2.00000
      5      -1.6121      2.00000
      6       0.3376      2.00000
      7       1.1606      0.00000
      8       1.8513      0.00000
      9       3.4730      0.00000
     10       4.1408      0.00000

 k-point   565 :       0.3333   -0.2667   -0.2000
  band No.  band energies     occupation 
      1     -46.4543      2.00000
      2     -46.4420      2.00000
      3     -46.4215      2.00000
      4     -46.4181      2.00000
      5      -1.6113      2.00000
      6       0.3429      2.00000
      7       1.1533      0.00000
      8       1.8715      0.00000
      9       3.4285      0.00000
     10       4.1388      0.00000

 k-point   566 :       0.3333    0.2000   -0.2667
  band No.  band energies     occupation 
      1     -46.4542      2.00000
      2     -46.4432      2.00000
      3     -46.4211      2.00000
      4     -46.4177      2.00000
      5      -1.6117      2.00000
      6       0.3246      2.00000
      7       1.2122      0.00000
      8       1.8240      0.00000
      9       3.4508      0.00000
     10       4.0921      0.00000

 k-point   567 :       0.4000    0.2667    0.2000
  band No.  band energies     occupation 
      1     -46.4533      2.00000
      2     -46.4395      2.00000
      3     -46.4258      2.00000
      4     -46.4172      2.00000
      5      -1.3081      2.00000
      6      -0.1026      2.00000
      7       1.3682      0.00000
      8       1.9093      0.00000
      9       3.2296      0.00000
     10       3.7750      0.00000

 k-point   568 :       0.4000   -0.2000    0.2667
  band No.  band energies     occupation 
      1     -46.4541      2.00000
      2     -46.4385      2.00000
      3     -46.4272      2.00000
      4     -46.4161      2.00000
      5      -1.3101      2.00000
      6      -0.1067      2.00000
      7       1.3678      0.00000
      8       1.9392      0.00000
      9       3.2212      0.00000
     10       3.7493      0.00000

 k-point   569 :       0.4000   -0.2667   -0.2000
  band No.  band energies     occupation 
      1     -46.4513      2.00000
      2     -46.4434      2.00000
      3     -46.4219      2.00000
      4     -46.4193      2.00000
      5      -1.3088      2.00000
      6      -0.1018      2.00000
      7       1.3628      0.00000
      8       1.9374      0.00000
      9       3.2157      0.00000
     10       3.7458      0.00000

 k-point   570 :       0.4000    0.2000   -0.2667
  band No.  band energies     occupation 
      1     -46.4512      2.00000
      2     -46.4443      2.00000
      3     -46.4222      2.00000
      4     -46.4182      2.00000
      5      -1.3096      2.00000
      6      -0.1110      2.00000
      7       1.4194      0.00000
      8       1.8857      0.00000
      9       3.2435      0.00000
     10       3.7065      0.00000

 k-point   571 :       0.4667    0.2667    0.2000
  band No.  band energies     occupation 
      1     -46.4507      2.00000
      2     -46.4422      2.00000
      3     -46.4245      2.00000
      4     -46.4184      2.00000
      5      -0.9526      2.00000
      6      -0.5475      2.00000
      7       1.6219      0.00000
      8       1.8518      0.00000
      9       3.1875      0.00000
     10       3.4328      0.00000

 k-point   572 :       0.4667   -0.2000    0.2667
  band No.  band energies     occupation 
      1     -46.4516      2.00000
      2     -46.4415      2.00000
      3     -46.4256      2.00000
      4     -46.4172      2.00000
      5      -0.9558      2.00000
      6      -0.5498      2.00000
      7       1.6150      0.00000
      8       1.8926      0.00000
      9       3.1625      0.00000
     10       3.4188      0.00000

 k-point   573 :       0.4667   -0.2667   -0.2000
  band No.  band energies     occupation 
      1     -46.4494      2.00000
      2     -46.4441      2.00000
      3     -46.4229      2.00000
      4     -46.4194      2.00000
      5      -0.9537      2.00000
      6      -0.5462      2.00000
      7       1.6114      0.00000
      8       1.8708      0.00000
      9       3.1913      0.00000
     10       3.4137      0.00000

 k-point   574 :       0.4667    0.2000   -0.2667
  band No.  band energies     occupation 
      1     -46.4500      2.00000
      2     -46.4441      2.00000
      3     -46.4238      2.00000
      4     -46.4180      2.00000
      5      -0.9551      2.00000
      6      -0.5513      2.00000
      7       1.6722      0.00000
      8       1.8283      0.00000
      9       3.2078      0.00000
     10       3.3737      0.00000

 k-point   575 :       0.0000    0.3333    0.2000
  band No.  band energies     occupation 
      1     -46.4606      2.00000
      2     -46.4428      2.00000
      3     -46.4186      2.00000
      4     -46.4142      2.00000
      5      -2.0751      2.00000
      6      -0.1913      2.00000
      7       1.4517      0.00000
      8       2.8892      0.00000
      9       4.0452      0.00000
     10       4.4946      0.00000

 k-point   576 :       0.0000   -0.2000    0.3333
  band No.  band energies     occupation 
      1     -46.4609      2.00000
      2     -46.4435      2.00000
      3     -46.4186      2.00000
      4     -46.4132      2.00000
      5      -2.0750      2.00000
      6      -0.1870      2.00000
      7       1.4425      0.00000
      8       2.8835      0.00000
      9       4.0447      0.00000
     10       4.4983      0.00000

 k-point   577 :       0.0667    0.3333    0.2000
  band No.  band energies     occupation 
      1     -46.4604      2.00000
      2     -46.4424      2.00000
      3     -46.4194      2.00000
      4     -46.4141      2.00000
      5      -2.0475      2.00000
      6      -0.1642      2.00000
      7       1.4663      0.00000
      8       2.7950      0.00000
      9       3.8056      0.00000
     10       4.6353      0.00000

 k-point   578 :       0.0667   -0.2000    0.3333
  band No.  band energies     occupation 
      1     -46.4609      2.00000
      2     -46.4427      2.00000
      3     -46.4197      2.00000
      4     -46.4129      2.00000
      5      -2.0476      2.00000
      6      -0.1611      2.00000
      7       1.4627      0.00000
      8       2.7816      0.00000
      9       3.7869      0.00000
     10       4.7136      0.00000

 k-point   579 :       0.0667   -0.3333   -0.2000
  band No.  band energies     occupation 
      1     -46.4601      2.00000
      2     -46.4429      2.00000
      3     -46.4186      2.00000
      4     -46.4147      2.00000
      5      -2.0477      2.00000
      6      -0.1660      2.00000
      7       1.4702      0.00000
      8       2.8309      0.00000
      9       3.7675      0.00000
     10       4.6082      0.00000

 k-point   580 :       0.0667    0.2000   -0.3333
  band No.  band energies     occupation 
      1     -46.4603      2.00000
      2     -46.4439      2.00000
      3     -46.4182      2.00000
      4     -46.4138      2.00000
      5      -2.0475      2.00000
      6      -0.1614      2.00000
      7       1.4566      0.00000
      8       2.8345      0.00000
      9       3.7910      0.00000
     10       4.5403      0.00000

 k-point   581 :       0.1333    0.3333    0.2000
  band No.  band energies     occupation 
      1     -46.4595      2.00000
      2     -46.4416      2.00000
      3     -46.4207      2.00000
      4     -46.4144      2.00000
      5      -1.9648      2.00000
      6      -0.0862      2.00000
      7       1.5067      0.00000
      8       2.4868      0.00000
      9       3.6020      0.00000
     10       4.5220      0.00000

 k-point   582 :       0.1333   -0.2000    0.3333
  band No.  band energies     occupation 
      1     -46.4602      2.00000
      2     -46.4415      2.00000
      3     -46.4214      2.00000
      4     -46.4131      2.00000
      5      -1.9653      2.00000
      6      -0.0850      2.00000
      7       1.5109      0.00000
      8       2.4687      0.00000
      9       3.5942      0.00000
     10       4.6056      0.00000

 k-point   583 :       0.1333   -0.3333   -0.2000
  band No.  band energies     occupation 
      1     -46.4589      2.00000
      2     -46.4428      2.00000
      3     -46.4192      2.00000
      4     -46.4154      2.00000
      5      -1.9651      2.00000
      6      -0.0900      2.00000
      7       1.5141      0.00000
      8       2.5370      0.00000
      9       3.5460      0.00000
     10       4.5025      0.00000

 k-point   584 :       0.1333    0.2000   -0.3333
  band No.  band energies     occupation 
      1     -46.4589      2.00000
      2     -46.4442      2.00000
      3     -46.4184      2.00000
      4     -46.4147      2.00000
      5      -1.9650      2.00000
      6      -0.0862      2.00000
      7       1.4987      0.00000
      8       2.5504      0.00000
      9       3.5539      0.00000
     10       4.4415      0.00000

 k-point   585 :       0.2000    0.3333    0.2000
  band No.  band energies     occupation 
      1     -46.4580      2.00000
      2     -46.4407      2.00000
      3     -46.4224      2.00000
      4     -46.4151      2.00000
      5      -1.8271      2.00000
      6       0.0372      2.00000
      7       1.5242      0.00000
      8       2.0546      0.00000
      9       3.5840      0.00000
     10       4.1784      0.00000

 k-point   586 :       0.2000   -0.2000    0.3333
  band No.  band energies     occupation 
      1     -46.4589      2.00000
      2     -46.4401      2.00000
      3     -46.4235      2.00000
      4     -46.4136      2.00000
      5      -1.8281      2.00000
      6       0.0353      2.00000
      7       1.5404      0.00000
      8       2.0367      0.00000
      9       3.5801      0.00000
     10       4.2381      0.00000

 k-point   587 :       0.2000   -0.3333   -0.2000
  band No.  band energies     occupation 
      1     -46.4571      2.00000
      2     -46.4425      2.00000
      3     -46.4202      2.00000
      4     -46.4163      2.00000
      5      -1.8276      2.00000
      6       0.0313      2.00000
      7       1.5340      0.00000
      8       2.0973      0.00000
      9       3.5304      0.00000
     10       4.1799      0.00000

 k-point   588 :       0.2000    0.2000   -0.3333
  band No.  band energies     occupation 
      1     -46.4570      2.00000
      2     -46.4442      2.00000
      3     -46.4193      2.00000
      4     -46.4157      2.00000
      5      -1.8277      2.00000
      6       0.0317      2.00000
      7       1.5308      0.00000
      8       2.0995      0.00000
      9       3.5361      0.00000
     10       4.1409      0.00000

 k-point   589 :       0.2667    0.3333    0.2000
  band No.  band energies     occupation 
      1     -46.4559      2.00000
      2     -46.4398      2.00000
      3     -46.4241      2.00000
      4     -46.4161      2.00000
      5      -1.6347      2.00000
      6       0.1862      2.00000
      7       1.2951      0.00000
      8       1.8595      0.00000
      9       3.5015      0.00000
     10       3.9678      0.00000

 k-point   590 :       0.2667   -0.2000    0.3333
  band No.  band energies     occupation 
      1     -46.4572      2.00000
      2     -46.4385      2.00000
      3     -46.4259      2.00000
      4     -46.4144      2.00000
      5      -1.6367      2.00000
      6       0.1791      2.00000
      7       1.3099      0.00000
      8       1.8617      0.00000
      9       3.5080      0.00000
     10       3.9911      0.00000

 k-point   591 :       0.2667   -0.3333   -0.2000
  band No.  band energies     occupation 
      1     -46.4548      2.00000
      2     -46.4423      2.00000
      3     -46.4213      2.00000
      4     -46.4176      2.00000
      5      -1.6356      2.00000
      6       0.1778      2.00000
      7       1.3091      0.00000
      8       1.8944      0.00000
      9       3.4542      0.00000
     10       3.9794      0.00000

 k-point   592 :       0.2667    0.2000   -0.3333
  band No.  band energies     occupation 
      1     -46.4545      2.00000
      2     -46.4443      2.00000
      3     -46.4205      2.00000
      4     -46.4167      2.00000
      5      -1.6359      2.00000
      6       0.1684      2.00000
      7       1.3535      0.00000
      8       1.8528      0.00000
      9       3.4719      0.00000
     10       3.9442      0.00000

 k-point   593 :       0.3333    0.3333    0.2000
  band No.  band energies     occupation 
      1     -46.4536      2.00000
      2     -46.4395      2.00000
      3     -46.4255      2.00000
      4     -46.4174      2.00000
      5      -1.3886      2.00000
      6       0.2642      2.00000
      7       0.9656      0.00000
      8       1.8584      0.00000
      9       3.2430      0.00000
     10       4.0482      0.00000

 k-point   594 :       0.3333   -0.2000    0.3333
  band No.  band energies     occupation 
      1     -46.4551      2.00000
      2     -46.4375      2.00000
      3     -46.4280      2.00000
      4     -46.4154      2.00000
      5      -1.3917      2.00000
      6       0.2500      2.00000
      7       0.9794      0.00000
      8       1.8878      0.00000
      9       3.2386      0.00000
     10       4.0464      0.00000

 k-point   595 :       0.3333   -0.3333   -0.2000
  band No.  band energies     occupation 
      1     -46.4521      2.00000
      2     -46.4425      2.00000
      3     -46.4222      2.00000
      4     -46.4191      2.00000
      5      -1.3897      2.00000
      6       0.2561      2.00000
      7       0.9763      0.00000
      8       1.8921      0.00000
      9       3.2142      0.00000
     10       4.0469      0.00000

 k-point   596 :       0.3333    0.2000   -0.3333
  band No.  band energies     occupation 
      1     -46.4518      2.00000
      2     -46.4445      2.00000
      3     -46.4220      2.00000
      4     -46.4177      2.00000
      5      -1.3905      2.00000
      6       0.2254      2.00000
      7       1.0499      0.00000
      8       1.8393      0.00000
      9       3.2395      0.00000
     10       3.9971      0.00000

 k-point   597 :       0.4000    0.3333    0.2000
  band No.  band energies     occupation 
      1     -46.4511      2.00000
      2     -46.4402      2.00000
      3     -46.4258      2.00000
      4     -46.4188      2.00000
      5      -1.0899      2.00000
      6       0.0346      2.00000
      7       0.9841      0.00000
      8       1.7629      0.00000
      9       3.1330      0.00000
     10       3.9114      0.00000

 k-point   598 :       0.4000   -0.2000    0.3333
  band No.  band energies     occupation 
      1     -46.4528      2.00000
      2     -46.4379      2.00000
      3     -46.4287      2.00000
      4     -46.4165      2.00000
      5      -1.0950      2.00000
      6       0.0244      2.00000
      7       0.9889      0.00000
      8       1.8143      0.00000
      9       3.1072      0.00000
     10       3.8859      0.00000

 k-point   599 :       0.4000   -0.3333   -0.2000
  band No.  band energies     occupation 
      1     -46.4494      2.00000
      2     -46.4432      2.00000
      3     -46.4228      2.00000
      4     -46.4205      2.00000
      5      -1.0915      2.00000
      6       0.0341      2.00000
      7       0.9819      0.00000
      8       1.7913      0.00000
      9       3.1192      0.00000
     10       3.8910      0.00000

 k-point   600 :       0.4000    0.2000   -0.3333
  band No.  band energies     occupation 
      1     -46.4495      2.00000
      2     -46.4444      2.00000
      3     -46.4238      2.00000
      4     -46.4182      2.00000
      5      -1.0932      2.00000
      6       0.0072      2.00000
      7       1.0557      0.00000
      8       1.7461      0.00000
      9       3.1374      0.00000
     10       3.8444      0.00000

 k-point   601 :       0.4667    0.3333    0.2000
  band No.  band energies     occupation 
      1     -46.4488      2.00000
      2     -46.4420      2.00000
      3     -46.4250      2.00000
      4     -46.4201      2.00000
      5      -0.7428      2.00000
      6      -0.3561      2.00000
      7       1.2294      0.00000
      8       1.5287      0.00000
      9       3.2513      0.00000
     10       3.5718      0.00000

 k-point   602 :       0.4667   -0.2000    0.3333
  band No.  band energies     occupation 
      1     -46.4507      2.00000
      2     -46.4401      2.00000
      3     -46.4276      2.00000
      4     -46.4175      2.00000
      5      -0.7512      2.00000
      6      -0.3614      2.00000
      7       1.2256      0.00000
      8       1.5835      0.00000
      9       3.2188      0.00000
     10       3.5533      0.00000

 k-point   603 :       0.4667   -0.3333   -0.2000
  band No.  band energies     occupation 
      1     -46.4477      2.00000
      2     -46.4435      2.00000
      3     -46.4238      2.00000
      4     -46.4209      2.00000
      5      -0.7447      2.00000
      6      -0.3543      2.00000
      7       1.2193      0.00000
      8       1.5468      0.00000
      9       3.2528      0.00000
     10       3.5579      0.00000

 k-point   604 :       0.4667    0.2000   -0.3333
  band No.  band energies     occupation 
      1     -46.4492      2.00000
      2     -46.4428      2.00000
      3     -46.4257      2.00000
      4     -46.4181      2.00000
      5      -0.7478      2.00000
      6      -0.3686      2.00000
      7       1.2870      0.00000
      8       1.5176      0.00000
      9       3.2522      0.00000
     10       3.5215      0.00000

 k-point   605 :       0.0000    0.4000    0.2000
  band No.  band energies     occupation 
      1     -46.4572      2.00000
      2     -46.4462      2.00000
      3     -46.4179      2.00000
      4     -46.4150      2.00000
      5      -1.7981      2.00000
      6      -0.6642      2.00000
      7       1.6897      0.00000
      8       2.5899      0.00000
      9       4.2027      0.00000
     10       4.4949      0.00000

 k-point   606 :       0.0000   -0.2000    0.4000
  band No.  band energies     occupation 
      1     -46.4578      2.00000
      2     -46.4469      2.00000
      3     -46.4183      2.00000
      4     -46.4132      2.00000
      5      -1.7977      2.00000
      6      -0.6614      2.00000
      7       1.6804      0.00000
      8       2.5844      0.00000
      9       4.1831      0.00000
     10       4.5239      0.00000

 k-point   607 :       0.0667    0.4000    0.2000
  band No.  band energies     occupation 
      1     -46.4570      2.00000
      2     -46.4458      2.00000
      3     -46.4184      2.00000
      4     -46.4150      2.00000
      5      -1.7705      2.00000
      6      -0.6370      2.00000
      7       1.7023      0.00000
      8       2.5591      0.00000
      9       3.9216      0.00000
     10       4.5018      0.00000

 k-point   608 :       0.0667   -0.2000    0.4000
  band No.  band energies     occupation 
      1     -46.4579      2.00000
      2     -46.4462      2.00000
      3     -46.4191      2.00000
      4     -46.4131      2.00000
      5      -1.7705      2.00000
      6      -0.6350      2.00000
      7       1.7004      0.00000
      8       2.5486      0.00000
      9       3.8780      0.00000
     10       4.6031      0.00000

 k-point   609 :       0.0667   -0.4000   -0.2000
  band No.  band energies     occupation 
      1     -46.4568      2.00000
      2     -46.4461      2.00000
      3     -46.4180      2.00000
      4     -46.4154      2.00000
      5      -1.7708      2.00000
      6      -0.6382      2.00000
      7       1.7077      0.00000
      8       2.5780      0.00000
      9       3.9056      0.00000
     10       4.4847      0.00000

 k-point   610 :       0.0667    0.2000   -0.4000
  band No.  band energies     occupation 
      1     -46.4571      2.00000
      2     -46.4473      2.00000
      3     -46.4181      2.00000
      4     -46.4137      2.00000
      5      -1.7703      2.00000
      6      -0.6353      2.00000
      7       1.6920      0.00000
      8       2.5780      0.00000
      9       3.9531      0.00000
     10       4.4049      0.00000

 k-point   611 :       0.1333    0.4000    0.2000
  band No.  band energies     occupation 
      1     -46.4562      2.00000
      2     -46.4451      2.00000
      3     -46.4194      2.00000
      4     -46.4155      2.00000
      5      -1.6881      2.00000
      6      -0.5573      2.00000
      7       1.7378      0.00000
      8       2.4313      0.00000
      9       3.5598      0.00000
     10       4.2147      0.00000

 k-point   612 :       0.1333   -0.2000    0.4000
  band No.  band energies     occupation 
      1     -46.4573      2.00000
      2     -46.4449      2.00000
      3     -46.4206      2.00000
      4     -46.4134      2.00000
      5      -1.6888      2.00000
      6      -0.5567      2.00000
      7       1.7455      0.00000
      8       2.4150      0.00000
      9       3.5361      0.00000
     10       4.2932      0.00000

 k-point   613 :       0.1333   -0.4000   -0.2000
  band No.  band energies     occupation 
      1     -46.4557      2.00000
      2     -46.4457      2.00000
      3     -46.4187      2.00000
      4     -46.4161      2.00000
      5      -1.6888      2.00000
      6      -0.5600      2.00000
      7       1.7485      0.00000
      8       2.4688      0.00000
      9       3.5229      0.00000
     10       4.2008      0.00000

 k-point   614 :       0.1333    0.2000   -0.4000
  band No.  band energies     occupation 
      1     -46.4558      2.00000
      2     -46.4473      2.00000
      3     -46.4186      2.00000
      4     -46.4145      2.00000
      5      -1.6883      2.00000
      6      -0.5576      2.00000
      7       1.7282      0.00000
      8       2.4778      0.00000
      9       3.5518      0.00000
     10       4.1443      0.00000

 k-point   615 :       0.2000    0.4000    0.2000
  band No.  band energies     occupation 
      1     -46.4547      2.00000
      2     -46.4441      2.00000
      3     -46.4209      2.00000
      4     -46.4164      2.00000
      5      -1.5513      2.00000
      6      -0.4280      2.00000
      7       1.7499      0.00000
      8       2.1388      0.00000
      9       3.4059      0.00000
     10       3.7970      0.00000

 k-point   616 :       0.2000   -0.2000    0.4000
  band No.  band energies     occupation 
      1     -46.4563      2.00000
      2     -46.4433      2.00000
      3     -46.4225      2.00000
      4     -46.4140      2.00000
      5      -1.5530      2.00000
      6      -0.4294      2.00000
      7       1.7693      0.00000
      8       2.1233      0.00000
      9       3.3905      0.00000
     10       3.8470      0.00000

 k-point   617 :       0.2000   -0.4000   -0.2000
  band No.  band energies     occupation 
      1     -46.4541      2.00000
      2     -46.4450      2.00000
      3     -46.4198      2.00000
      4     -46.4172      2.00000
      5      -1.5524      2.00000
      6      -0.4321      2.00000
      7       1.7652      0.00000
      8       2.1790      0.00000
      9       3.3634      0.00000
     10       3.7898      0.00000

 k-point   618 :       0.2000    0.2000   -0.4000
  band No.  band energies     occupation 
      1     -46.4540      2.00000
      2     -46.4470      2.00000
      3     -46.4197      2.00000
      4     -46.4155      2.00000
      5      -1.5522      2.00000
      6      -0.4319      2.00000
      7       1.7525      0.00000
      8       2.1853      0.00000
      9       3.3811      0.00000
     10       3.7590      0.00000

 k-point   619 :       0.2667    0.4000    0.2000
  band No.  band energies     occupation 
      1     -46.4529      2.00000
      2     -46.4429      2.00000
      3     -46.4226      2.00000
      4     -46.4176      2.00000
      5      -1.3609      2.00000
      6      -0.2565      2.00000
      7       1.5148      0.00000
      8       1.9290      0.00000
      9       3.2942      0.00000
     10       3.5963      0.00000

 k-point   620 :       0.2667   -0.2000    0.4000
  band No.  band energies     occupation 
      1     -46.4548      2.00000
      2     -46.4414      2.00000
      3     -46.4249      2.00000
      4     -46.4149      2.00000
      5      -1.3641      2.00000
      6      -0.2610      2.00000
      7       1.5216      0.00000
      8       1.9509      0.00000
      9       3.2813      0.00000
     10       3.6161      0.00000

 k-point   621 :       0.2667   -0.4000   -0.2000
  band No.  band energies     occupation 
      1     -46.4521      2.00000
      2     -46.4442      2.00000
      3     -46.4212      2.00000
      4     -46.4186      2.00000
      5      -1.3625      2.00000
      6      -0.2621      2.00000
      7       1.5329      0.00000
      8       1.9639      0.00000
      9       3.2571      0.00000
     10       3.5937      0.00000

 k-point   622 :       0.2667    0.2000   -0.4000
  band No.  band energies     occupation 
      1     -46.4518      2.00000
      2     -46.4465      2.00000
      3     -46.4213      2.00000
      4     -46.4165      2.00000
      5      -1.3627      2.00000
      6      -0.2672      2.00000
      7       1.5707      0.00000
      8       1.9206      0.00000
      9       3.2840      0.00000
     10       3.5675      0.00000

 k-point   623 :       0.3333    0.4000    0.2000
  band No.  band energies     occupation 
      1     -46.4507      2.00000
      2     -46.4419      2.00000
      3     -46.4242      2.00000
      4     -46.4191      2.00000
      5      -1.1185      2.00000
      6      -0.0676      2.00000
      7       1.0932      0.00000
      8       1.7834      0.00000
      9       3.1401      0.00000
     10       3.7483      0.00000

 k-point   624 :       0.3333   -0.2000    0.4000
  band No.  band energies     occupation 
      1     -46.4531      2.00000
      2     -46.4396      2.00000
      3     -46.4273      2.00000
      4     -46.4159      2.00000
      5      -1.1241      2.00000
      6      -0.0771      2.00000
      7       1.0981      0.00000
      8       1.8348      0.00000
      9       3.1147      0.00000
     10       3.7547      0.00000

 k-point   625 :       0.3333   -0.4000   -0.2000
  band No.  band energies     occupation 
      1     -46.4497      2.00000
      2     -46.4435      2.00000
      3     -46.4224      2.00000
      4     -46.4202      2.00000
      5      -1.1206      2.00000
      6      -0.0746      2.00000
      7       1.1076      0.00000
      8       1.8138      0.00000
      9       3.1176      0.00000
     10       3.7458      0.00000

 k-point   626 :       0.3333    0.2000   -0.4000
  band No.  band energies     occupation 
      1     -46.4496      2.00000
      2     -46.4456      2.00000
      3     -46.4233      2.00000
      4     -46.4174      2.00000
      5      -1.1217      2.00000
      6      -0.0925      2.00000
      7       1.1671      0.00000
      8       1.7669      0.00000
      9       3.1387      0.00000
     10       3.7209      0.00000

 k-point   627 :       0.4000    0.4000    0.2000
  band No.  band energies     occupation 
      1     -46.4486      2.00000
      2     -46.4416      2.00000
      3     -46.4251      2.00000
      4     -46.4205      2.00000
      5      -0.8278      2.00000
      6       0.0292      2.00000
      7       0.8047      0.09780
      8       1.5072      0.00000
      9       3.2057      0.00000
     10       3.9465      0.00000

 k-point   628 :       0.4000   -0.2000    0.4000
  band No.  band energies     occupation 
      1     -46.4514      2.00000
      2     -46.4384      2.00000
      3     -46.4291      2.00000
      4     -46.4170      2.00000
      5      -0.8375      2.00000
      6       0.0149      2.00000
      7       0.8118      0.03107
      8       1.5689      0.00000
      9       3.1731      0.00000
     10       3.9454      0.00000

 k-point   629 :       0.4000   -0.4000   -0.2000
  band No.  band energies     occupation 
      1     -46.4474      2.00000
      2     -46.4433      2.00000
      3     -46.4234      2.00000
      4     -46.4217      2.00000
      5      -0.8304      2.00000
      6       0.0246      2.00000
      7       0.8109      0.03622
      8       1.5287      0.00000
      9       3.1975      0.00000
     10       3.9452      0.00000

 k-point   630 :       0.4000    0.2000   -0.4000
  band No.  band energies     occupation 
      1     -46.4486      2.00000
      2     -46.4438      2.00000
      3     -46.4255      2.00000
      4     -46.4180      2.00000
      5      -0.8330      2.00000
      6      -0.0143      2.00000
      7       0.8938      0.00000
      8       1.4971      0.00000
      9       3.2029      0.00000
     10       3.9003      0.00000

 k-point   631 :       0.4667    0.4000    0.2000
  band No.  band energies     occupation 
      1     -46.4467      2.00000
      2     -46.4422      2.00000
      3     -46.4251      2.00000
      4     -46.4218      2.00000
      5      -0.4991      2.00000
      6      -0.1653      2.00000
      7       0.8821      0.00000
      8       1.1767      0.00000
      9       3.4308      0.00000
     10       3.7843      0.00000

 k-point   632 :       0.4667   -0.2000    0.4000
  band No.  band energies     occupation 
      1     -46.4498      2.00000
      2     -46.4390      2.00000
      3     -46.4292      2.00000
      4     -46.4178      2.00000
      5      -0.5166      2.00000
      6      -0.1744      2.00000
      7       0.8820      0.00000
      8       1.2405      0.00000
      9       3.3962      0.00000
     10       3.7712      0.00000

 k-point   633 :       0.4667   -0.4000   -0.2000
  band No.  band energies     occupation 
      1     -46.4459      2.00000
      2     -46.4432      2.00000
      3     -46.4243      2.00000
      4     -46.4224      2.00000
      5      -0.5019      2.00000
      6      -0.1638      2.00000
      7       0.8768      0.00000
      8       1.1898      0.00000
      9       3.4337      0.00000
     10       3.7740      0.00000

 k-point   634 :       0.4667    0.2000   -0.4000
  band No.  band energies     occupation 
      1     -46.4488      2.00000
      2     -46.4412      2.00000
      3     -46.4276      2.00000
      4     -46.4182      2.00000
      5      -0.5076      2.00000
      6      -0.1941      2.00000
      7       0.9551      0.00000
      8       1.1728      0.00000
      9       3.4214      0.00000
     10       3.7417      0.00000

 k-point   635 :       0.0000    0.4667    0.2000
  band No.  band energies     occupation 
      1     -46.4536      2.00000
      2     -46.4498      2.00000
      3     -46.4169      2.00000
      4     -46.4159      2.00000
      5      -1.4702      2.00000
      6      -1.0918      2.00000
      7       1.9680      0.00000
      8       2.2737      0.00000
      9       4.3479      0.00000
     10       4.4511      0.00000

 k-point   636 :       0.0000   -0.2000    0.4667
  band No.  band energies     occupation 
      1     -46.4544      2.00000
      2     -46.4505      2.00000
      3     -46.4181      2.00000
      4     -46.4132      2.00000
      5      -1.4694      2.00000
      6      -1.0901      2.00000
      7       1.9570      0.00000
      8       2.2701      0.00000
      9       4.2822      0.00000
     10       4.5318      0.00000

 k-point   637 :       0.0667    0.4667    0.2000
  band No.  band energies     occupation 
      1     -46.4533      2.00000
      2     -46.4496      2.00000
      3     -46.4172      2.00000
      4     -46.4161      2.00000
      5      -1.4426      2.00000
      6      -1.0644      2.00000
      7       1.9756      0.00000
      8       2.2697      0.00000
      9       4.1061      0.00000
     10       4.3134      0.00000

 k-point   638 :       0.0667   -0.2000    0.4667
  band No.  band energies     occupation 
      1     -46.4546      2.00000
      2     -46.4497      2.00000
      3     -46.4186      2.00000
      4     -46.4133      2.00000
      5      -1.4424      2.00000
      6      -1.0632      2.00000
      7       1.9745      0.00000
      8       2.2633      0.00000
      9       4.0353      0.00000
     10       4.4107      0.00000

 k-point   639 :       0.0667   -0.4667   -0.2000
  band No.  band energies     occupation 
      1     -46.4532      2.00000
      2     -46.4496      2.00000
      3     -46.4171      2.00000
      4     -46.4162      2.00000
      5      -1.4432      2.00000
      6      -1.0653      2.00000
      7       1.9830      0.00000
      8       2.2809      0.00000
      9       4.0971      0.00000
     10       4.3031      0.00000

 k-point   640 :       0.0667    0.2000   -0.4667
  band No.  band energies     occupation 
      1     -46.4538      2.00000
      2     -46.4507      2.00000
      3     -46.4182      2.00000
      4     -46.4136      2.00000
      5      -1.4422      2.00000
      6      -1.0635      2.00000
      7       1.9630      0.00000
      8       2.2805      0.00000
      9       4.1502      0.00000
     10       4.2508      0.00000

 k-point   641 :       0.1333    0.4667    0.2000
  band No.  band energies     occupation 
      1     -46.4526      2.00000
      2     -46.4488      2.00000
      3     -46.4181      2.00000
      4     -46.4167      2.00000
      5      -1.3609      2.00000
      6      -0.9835      2.00000
      7       1.9940      0.00000
      8       2.2446      0.00000
      9       3.6825      0.00000
     10       3.9197      0.00000

 k-point   642 :       0.1333   -0.2000    0.4667
  band No.  band energies     occupation 
      1     -46.4542      2.00000
      2     -46.4485      2.00000
      3     -46.4197      2.00000
      4     -46.4138      2.00000
      5      -1.3617      2.00000
      6      -0.9833      2.00000
      7       2.0054      0.00000
      8       2.2352      0.00000
      9       3.6394      0.00000
     10       3.9800      0.00000

 k-point   643 :       0.1333   -0.4667   -0.2000
  band No.  band energies     occupation 
      1     -46.4524      2.00000
      2     -46.4490      2.00000
      3     -46.4179      2.00000
      4     -46.4170      2.00000
      5      -1.3621      2.00000
      6      -0.9853      2.00000
      7       2.0096      0.00000
      8       2.2685      0.00000
      9       3.6605      0.00000
     10       3.9046      0.00000

 k-point   644 :       0.1333    0.2000   -0.4667
  band No.  band energies     occupation 
      1     -46.4527      2.00000
      2     -46.4503      2.00000
      3     -46.4190      2.00000
      4     -46.4142      2.00000
      5      -1.3611      2.00000
      6      -0.9841      2.00000
      7       1.9812      0.00000
      8       2.2733      0.00000
      9       3.7110      0.00000
     10       3.8648      0.00000

 k-point   645 :       0.2000    0.4667    0.2000
  band No.  band energies     occupation 
      1     -46.4513      2.00000
      2     -46.4477      2.00000
      3     -46.4194      2.00000
      4     -46.4179      2.00000
      5      -1.2256      2.00000
      6      -0.8505      2.00000
      7       1.9704      0.00000
      8       2.1212      0.00000
      9       3.3593      0.00000
     10       3.5044      0.00000

 k-point   646 :       0.2000   -0.2000    0.4667
  band No.  band energies     occupation 
      1     -46.4535      2.00000
      2     -46.4467      2.00000
      3     -46.4214      2.00000
      4     -46.4145      2.00000
      5      -1.2280      2.00000
      6      -0.8517      2.00000
      7       1.9917      0.00000
      8       2.1187      0.00000
      9       3.3293      0.00000
     10       3.5367      0.00000

 k-point   647 :       0.2000   -0.4667   -0.2000
  band No.  band energies     occupation 
      1     -46.4510      2.00000
      2     -46.4479      2.00000
      3     -46.4191      2.00000
      4     -46.4182      2.00000
      5      -1.2274      2.00000
      6      -0.8533      2.00000
      7       1.9940      0.00000
      8       2.1549      0.00000
      9       3.3279      0.00000
     10       3.4857      0.00000

 k-point   648 :       0.2000    0.2000   -0.4667
  band No.  band energies     occupation 
      1     -46.4515      2.00000
      2     -46.4492      2.00000
      3     -46.4205      2.00000
      4     -46.4150      2.00000
      5      -1.2268      2.00000
      6      -0.8534      2.00000
      7       1.9658      0.00000
      8       2.1626      0.00000
      9       3.3624      0.00000
     10       3.4684      0.00000

 k-point   649 :       0.2667    0.4667    0.2000
  band No.  band energies     occupation 
      1     -46.4496      2.00000
      2     -46.4462      2.00000
      3     -46.4209      2.00000
      4     -46.4192      2.00000
      5      -1.0383      2.00000
      6      -0.6688      2.00000
      7       1.7399      0.00000
      8       1.8993      0.00000
      9       3.2143      0.00000
     10       3.3279      0.00000

 k-point   650 :       0.2667   -0.2000    0.4667
  band No.  band energies     occupation 
      1     -46.4524      2.00000
      2     -46.4446      2.00000
      3     -46.4236      2.00000
      4     -46.4155      2.00000
      5      -1.0434      2.00000
      6      -0.6719      2.00000
      7       1.7369      0.00000
      8       1.9461      0.00000
      9       3.1776      0.00000
     10       3.3461      0.00000

 k-point   651 :       0.2667   -0.4667   -0.2000
  band No.  band energies     occupation 
      1     -46.4493      2.00000
      2     -46.4466      2.00000
      3     -46.4205      2.00000
      4     -46.4196      2.00000
      5      -1.0408      2.00000
      6      -0.6726      2.00000
      7       1.7645      0.00000
      8       1.9310      0.00000
      9       3.1866      0.00000
     10       3.3116      0.00000

 k-point   652 :       0.2667    0.2000   -0.4667
  band No.  band energies     occupation 
      1     -46.4504      2.00000
      2     -46.4472      2.00000
      3     -46.4224      2.00000
      4     -46.4160      2.00000
      5      -1.0410      2.00000
      6      -0.6757      2.00000
      7       1.7909      0.00000
      8       1.8959      0.00000
      9       3.2149      0.00000
     10       3.2961      0.00000

 k-point   653 :       0.3333    0.4667    0.2000
  band No.  band energies     occupation 
      1     -46.4478      2.00000
      2     -46.4448      2.00000
      3     -46.4226      2.00000
      4     -46.4208      2.00000
      5      -0.8029      2.00000
      6      -0.4471      2.00000
      7       1.3321      0.00000
      8       1.5864      0.00000
      9       3.2245      0.00000
     10       3.4480      0.00000

 k-point   654 :       0.3333   -0.2000    0.4667
  band No.  band energies     occupation 
      1     -46.4512      2.00000
      2     -46.4422      2.00000
      3     -46.4261      2.00000
      4     -46.4165      2.00000
      5      -0.8124      2.00000
      6      -0.4531      2.00000
      7       1.3288      0.00000
      8       1.6489      0.00000
      9       3.1873      0.00000
     10       3.4579      0.00000

 k-point   655 :       0.3333   -0.4667   -0.2000
  band No.  band energies     occupation 
      1     -46.4474      2.00000
      2     -46.4452      2.00000
      3     -46.4221      2.00000
      4     -46.4212      2.00000
      5      -0.8061      2.00000
      6      -0.4519      2.00000
      7       1.3502      0.00000
      8       1.6101      0.00000
      9       3.2093      0.00000
     10       3.4393      0.00000

 k-point   656 :       0.3333    0.2000   -0.4667
  band No.  band energies     occupation 
      1     -46.4495      2.00000
      2     -46.4447      2.00000
      3     -46.4246      2.00000
      4     -46.4170      2.00000
      5      -0.8078      2.00000
      6      -0.4615      2.00000
      7       1.3990      0.00000
      8       1.5759      0.00000
      9       3.2180      0.00000
     10       3.4277      0.00000

 k-point   657 :       0.4000    0.4667    0.2000
  band No.  band energies     occupation 
      1     -46.4460      2.00000
      2     -46.4436      2.00000
      3     -46.4239      2.00000
      4     -46.4223      2.00000
      5      -0.5287      2.00000
      6      -0.2145      2.00000
      7       0.9370      0.00000
      8       1.2074      0.00000
      9       3.4078      0.00000
     10       3.6841      0.00000

 k-point   658 :       0.4000   -0.2000    0.4667
  band No.  band energies     occupation 
      1     -46.4500      2.00000
      2     -46.4400      2.00000
      3     -46.4284      2.00000
      4     -46.4174      2.00000
      5      -0.5465      2.00000
      6      -0.2244      2.00000
      7       0.9378      0.00000
      8       1.2752      0.00000
      9       3.3708      0.00000
     10       3.6944      0.00000

 k-point   659 :       0.4000   -0.4667   -0.2000
  band No.  band energies     occupation 
      1     -46.4456      2.00000
      2     -46.4442      2.00000
      3     -46.4234      2.00000
      4     -46.4227      2.00000
      5      -0.5326      2.00000
      6      -0.2197      2.00000
      7       0.9486      0.00000
      8       1.2231      0.00000
      9       3.4037      0.00000
     10       3.6833      0.00000

 k-point   660 :       0.4000    0.2000   -0.4667
  band No.  band energies     occupation 
      1     -46.4489      2.00000
      2     -46.4420      2.00000
      3     -46.4271      2.00000
      4     -46.4178      2.00000
      5      -0.5371      2.00000
      6      -0.2432      2.00000
      7       1.0137      0.00000
      8       1.2035      0.00000
      9       3.3956      0.00000
     10       3.6686      0.00000

 k-point   661 :       0.4667    0.4667    0.2000
  band No.  band energies     occupation 
      1     -46.4448      2.00000
      2     -46.4432      2.00000
      3     -46.4245      2.00000
      4     -46.4233      2.00000
      5      -0.2486      2.00000
      6      -0.0908      2.00000
      7       0.7208      1.99998
      8       0.8675      0.00000
      9       3.6820      0.00000
     10       3.9129      0.00000

 k-point   662 :       0.4667   -0.2000    0.4667
  band No.  band energies     occupation 
      1     -46.4492      2.00000
      2     -46.4388      2.00000
      3     -46.4298      2.00000
      4     -46.4180      2.00000
      5      -0.2836      2.00000
      6      -0.1006      2.00000
      7       0.7218      1.99997
      8       0.9463      0.00000
      9       3.6328      0.00000
     10       3.9364      0.00000

 k-point   663 :       0.4667   -0.4667   -0.2000
  band No.  band energies     occupation 
      1     -46.4445      2.00000
      2     -46.4435      2.00000
      3     -46.4242      2.00000
      4     -46.4236      2.00000
      5      -0.2520      2.00000
      6      -0.0923      2.00000
      7       0.7229      1.99996
      8       0.8760      0.00000
      9       3.6857      0.00000
     10       3.9143      0.00000

 k-point   664 :       0.4667    0.2000   -0.4667
  band No.  band energies     occupation 
      1     -46.4488      2.00000
      2     -46.4397      2.00000
      3     -46.4292      2.00000
      4     -46.4181      2.00000
      5      -0.2647      2.00000
      6      -0.1306      2.00000
      7       0.8022      0.13913
      8       0.8753      0.00000
      9       3.6523      0.00000
     10       3.8999      0.00000

 k-point   665 :       0.0000    0.2667    0.2667
  band No.  band energies     occupation 
      1     -46.4615      2.00000
      2     -46.4417      2.00000
      3     -46.4192      2.00000
      4     -46.4138      2.00000
      5      -2.1267      2.00000
      6       0.2640      2.00000
      7       0.9157      0.00000
      8       2.8592      0.00000
      9       4.0276      0.00000
     10       4.5131      0.00000

 k-point   666 :       0.0667    0.2667    0.2667
  band No.  band energies     occupation 
      1     -46.4613      2.00000
      2     -46.4411      2.00000
      3     -46.4202      2.00000
      4     -46.4136      2.00000
      5      -2.0990      2.00000
      6       0.2928      2.00000
      7       0.9319      0.00000
      8       2.7556      0.00000
      9       3.7803      0.00000
     10       4.7462      0.00000

 k-point   667 :       0.0667   -0.2667   -0.2667
  band No.  band energies     occupation 
      1     -46.4609      2.00000
      2     -46.4421      2.00000
      3     -46.4188      2.00000
      4     -46.4144      2.00000
      5      -2.0991      2.00000
      6       0.2912      2.00000
      7       0.9315      0.00000
      8       2.8009      0.00000
      9       3.7602      0.00000
     10       4.6466      0.00000

 k-point   668 :       0.1333    0.2667    0.2667
  band No.  band energies     occupation 
      1     -46.4605      2.00000
      2     -46.4401      2.00000
      3     -46.4218      2.00000
      4     -46.4137      2.00000
      5      -2.0163      2.00000
      6       0.3759      2.00000
      7       0.9761      0.00000
      8       2.4349      0.00000
      9       3.5923      0.00000
     10       4.7740      0.00000

 k-point   669 :       0.1333   -0.2667   -0.2667
  band No.  band energies     occupation 
      1     -46.4596      2.00000
      2     -46.4422      2.00000
      3     -46.4192      2.00000
      4     -46.4152      2.00000
      5      -2.0163      2.00000
      6       0.3720      2.00000
      7       0.9752      0.00000
      8       2.5011      0.00000
      9       3.5444      0.00000
     10       4.6620      0.00000

 k-point   670 :       0.2000    0.2667    0.2667
  band No.  band energies     occupation 
      1     -46.4591      2.00000
      2     -46.4389      2.00000
      3     -46.4238      2.00000
      4     -46.4143      2.00000
      5      -1.8785      2.00000
      6       0.5038      2.00000
      7       1.0282      0.00000
      8       1.9776      0.00000
      9       3.5990      0.00000
     10       4.5233      0.00000

 k-point   671 :       0.2000   -0.2667   -0.2667
  band No.  band energies     occupation 
      1     -46.4577      2.00000
      2     -46.4422      2.00000
      3     -46.4200      2.00000
      4     -46.4162      2.00000
      5      -1.8786      2.00000
      6       0.4955      2.00000
      7       1.0284      0.00000
      8       2.0353      0.00000
      9       3.5525      0.00000
     10       4.4463      0.00000

 k-point   672 :       0.2667    0.2667    0.2667
  band No.  band energies     occupation 
      1     -46.4571      2.00000
      2     -46.4377      2.00000
      3     -46.4260      2.00000
      4     -46.4152      2.00000
      5      -1.6859      2.00000
      6       0.6228      2.00000
      7       1.0237      0.00000
      8       1.6276      0.00000
      9       3.6470      0.00000
     10       4.2439      0.00000

 k-point   673 :       0.2667   -0.2667   -0.2667
  band No.  band energies     occupation 
      1     -46.4552      2.00000
      2     -46.4424      2.00000
      3     -46.4210      2.00000
      4     -46.4174      2.00000
      5      -1.6861      2.00000
      6       0.6032      2.00000
      7       1.0391      0.00000
      8       1.6681      0.00000
      9       3.5991      0.00000
     10       4.2027      0.00000

 k-point   674 :       0.3333    0.2667    0.2667
  band No.  band energies     occupation 
      1     -46.4548      2.00000
      2     -46.4373      2.00000
      3     -46.4276      2.00000
      4     -46.4163      2.00000
      5      -1.4389      2.00000
      6       0.4553      2.00000
      7       1.0822      0.00000
      8       1.5823      0.00000
      9       3.4879      0.00000
     10       3.9246      0.00000

 k-point   675 :       0.3333   -0.2667   -0.2667
  band No.  band energies     occupation 
      1     -46.4524      2.00000
      2     -46.4428      2.00000
      3     -46.4220      2.00000
      4     -46.4187      2.00000
      5      -1.4393      2.00000
      6       0.4417      2.00000
      7       1.1071      0.00000
      8       1.5966      0.00000
      9       3.4579      0.00000
     10       3.8946      0.00000

 k-point   676 :       0.4000    0.2667    0.2667
  band No.  band energies     occupation 
      1     -46.4523      2.00000
      2     -46.4384      2.00000
      3     -46.4277      2.00000
      4     -46.4176      2.00000
      5      -1.1388      2.00000
      6       0.0415      2.00000
      7       1.3061      0.00000
      8       1.6697      0.00000
      9       3.2002      0.00000
     10       3.4678      0.00000

 k-point   677 :       0.4000   -0.2667   -0.2667
  band No.  band energies     occupation 
      1     -46.4496      2.00000
      2     -46.4436      2.00000
      3     -46.4231      2.00000
      4     -46.4196      2.00000
      5      -1.1392      2.00000
      6       0.0382      2.00000
      7       1.3278      0.00000
      8       1.6657      0.00000
      9       3.2098      0.00000
     10       3.4287      0.00000

 k-point   678 :       0.4667    0.2667    0.2667
  band No.  band energies     occupation 
      1     -46.4499      2.00000
      2     -46.4408      2.00000
      3     -46.4264      2.00000
      4     -46.4187      2.00000
      5      -0.7880      2.00000
      6      -0.3889      2.00000
      7       1.5297      0.00000
      8       1.7107      0.00000
      9       3.0199      0.00000
     10       3.1678      0.00000

 k-point   679 :       0.4667   -0.2667   -0.2667
  band No.  band energies     occupation 
      1     -46.4485      2.00000
      2     -46.4432      2.00000
      3     -46.4247      2.00000
      4     -46.4195      2.00000
      5      -0.7883      2.00000
      6      -0.3892      2.00000
      7       1.5492      0.00000
      8       1.6953      0.00000
      9       3.0543      0.00000
     10       3.1254      0.00000

 k-point   680 :       0.0000    0.3333    0.2667
  band No.  band energies     occupation 
      1     -46.4588      2.00000
      2     -46.4438      2.00000
      3     -46.4190      2.00000
      4     -46.4146      2.00000
      5      -1.9019      2.00000
      6      -0.0852      2.00000
      7       0.9530      0.00000
      8       2.5138      0.00000
      9       4.1786      0.00000
     10       4.5581      0.00000

 k-point   681 :       0.0000   -0.2667    0.3333
  band No.  band energies     occupation 
      1     -46.4590      2.00000
      2     -46.4442      2.00000
      3     -46.4190      2.00000
      4     -46.4141      2.00000
      5      -1.9018      2.00000
      6      -0.0820      2.00000
      7       0.9479      0.00000
      8       2.5118      0.00000
      9       4.1741      0.00000
     10       4.5653      0.00000

 k-point   682 :       0.0667    0.3333    0.2667
  band No.  band energies     occupation 
      1     -46.4587      2.00000
      2     -46.4433      2.00000
      3     -46.4198      2.00000
      4     -46.4145      2.00000
      5      -1.8742      2.00000
      6      -0.0567      2.00000
      7       0.9697      0.00000
      8       2.4786      0.00000
      9       3.8634      0.00000
     10       4.7176      0.00000

 k-point   683 :       0.0667   -0.2667    0.3333
  band No.  band energies     occupation 
      1     -46.4590      2.00000
      2     -46.4435      2.00000
      3     -46.4200      2.00000
      4     -46.4139      2.00000
      5      -1.8743      2.00000
      6      -0.0548      2.00000
      7       0.9677      0.00000
      8       2.4747      0.00000
      9       3.8483      0.00000
     10       4.7671      0.00000

 k-point   684 :       0.0667   -0.3333   -0.2667
  band No.  band energies     occupation 
      1     -46.4583      2.00000
      2     -46.4440      2.00000
      3     -46.4189      2.00000
      4     -46.4151      2.00000
      5      -1.8744      2.00000
      6      -0.0589      2.00000
      7       0.9716      0.00000
      8       2.5014      0.00000
      9       3.8715      0.00000
     10       4.6450      0.00000

 k-point   685 :       0.0667    0.2667   -0.3333
  band No.  band energies     occupation 
      1     -46.4584      2.00000
      2     -46.4445      2.00000
      3     -46.4188      2.00000
      4     -46.4146      2.00000
      5      -1.8743      2.00000
      6      -0.0550      2.00000
      7       0.9640      0.00000
      8       2.5013      0.00000
      9       3.8887      0.00000
     10       4.6051      0.00000

 k-point   686 :       0.1333    0.3333    0.2667
  band No.  band energies     occupation 
      1     -46.4579      2.00000
      2     -46.4424      2.00000
      3     -46.4211      2.00000
      4     -46.4148      2.00000
      5      -1.7915      2.00000
      6       0.0252      2.00000
      7       1.0186      0.00000
      8       2.3406      0.00000
      9       3.5049      0.00000
     10       4.6026      0.00000

 k-point   687 :       0.1333   -0.2667    0.3333
  band No.  band energies     occupation 
      1     -46.4583      2.00000
      2     -46.4423      2.00000
      3     -46.4215      2.00000
      4     -46.4141      2.00000
      5      -1.7918      2.00000
      6       0.0253      2.00000
      7       1.0208      0.00000
      8       2.3344      0.00000
      9       3.4967      0.00000
     10       4.6621      0.00000

 k-point   688 :       0.1333   -0.3333   -0.2667
  band No.  band energies     occupation 
      1     -46.4571      2.00000
      2     -46.4438      2.00000
      3     -46.4194      2.00000
      4     -46.4159      2.00000
      5      -1.7920      2.00000
      6       0.0207      2.00000
      7       1.0223      0.00000
      8       2.3867      0.00000
      9       3.4830      0.00000
     10       4.5420      0.00000

 k-point   689 :       0.1333    0.2667   -0.3333
  band No.  band energies     occupation 
      1     -46.4571      2.00000
      2     -46.4445      2.00000
      3     -46.4191      2.00000
      4     -46.4155      2.00000
      5      -1.7918      2.00000
      6       0.0245      2.00000
      7       1.0132      0.00000
      8       2.3900      0.00000
      9       3.4931      0.00000
     10       4.5021      0.00000

 k-point   690 :       0.2000    0.3333    0.2667
  band No.  band energies     occupation 
      1     -46.4565      2.00000
      2     -46.4412      2.00000
      3     -46.4229      2.00000
      4     -46.4156      2.00000
      5      -1.6541      2.00000
      6       0.1554      2.00000
      7       1.0843      0.00000
      8       2.0257      0.00000
      9       3.3744      0.00000
     10       4.2341      0.00000

 k-point   691 :       0.2000   -0.2667    0.3333
  band No.  band energies     occupation 
      1     -46.4570      2.00000
      2     -46.4409      2.00000
      3     -46.4235      2.00000
      4     -46.4148      2.00000
      5      -1.6547      2.00000
      6       0.1528      2.00000
      7       1.0926      0.00000
      8       2.0185      0.00000
      9       3.3695      0.00000
     10       4.2881      0.00000

 k-point   692 :       0.2000   -0.3333   -0.2667
  band No.  band energies     occupation 
      1     -46.4553      2.00000
      2     -46.4434      2.00000
      3     -46.4204      2.00000
      4     -46.4170      2.00000
      5      -1.6548      2.00000
      6       0.1480      2.00000
      7       1.0893      0.00000
      8       2.0781      0.00000
      9       3.3428      0.00000
     10       4.2042      0.00000

 k-point   693 :       0.2000    0.2667   -0.3333
  band No.  band energies     occupation 
      1     -46.4552      2.00000
      2     -46.4443      2.00000
      3     -46.4201      2.00000
      4     -46.4166      2.00000
      5      -1.6547      2.00000
      6       0.1500      2.00000
      7       1.0824      0.00000
      8       2.0825      0.00000
      9       3.3477      0.00000
     10       4.1764      0.00000

 k-point   694 :       0.2667    0.3333    0.2667
  band No.  band energies     occupation 
      1     -46.4546      2.00000
      2     -46.4399      2.00000
      3     -46.4250      2.00000
      4     -46.4167      2.00000
      5      -1.4623      2.00000
      6       0.3160      2.00000
      7       1.1020      0.00000
      8       1.6756      0.00000
      9       3.4229      0.00000
     10       3.8160      0.00000

 k-point   695 :       0.2667   -0.2667    0.3333
  band No.  band energies     occupation 
      1     -46.4552      2.00000
      2     -46.4392      2.00000
      3     -46.4259      2.00000
      4     -46.4157      2.00000
      5      -1.4634      2.00000
      6       0.3087      2.00000
      7       1.1185      0.00000
      8       1.6698      0.00000
      9       3.4167      0.00000
     10       3.8611      0.00000

 k-point   696 :       0.2667   -0.3333   -0.2667
  band No.  band energies     occupation 
      1     -46.4530      2.00000
      2     -46.4430      2.00000
      3     -46.4216      2.00000
      4     -46.4184      2.00000
      5      -1.4633      2.00000
      6       0.3042      2.00000
      7       1.1091      0.00000
      8       1.7219      0.00000
      9       3.3899      0.00000
     10       3.8160      0.00000

 k-point   697 :       0.2667    0.2667   -0.3333
  band No.  band energies     occupation 
      1     -46.4529      2.00000
      2     -46.4440      2.00000
      3     -46.4214      2.00000
      4     -46.4178      2.00000
      5      -1.4634      2.00000
      6       0.2996      2.00000
      7       1.1206      0.00000
      8       1.7131      0.00000
      9       3.3992      0.00000
     10       3.7943      0.00000

 k-point   698 :       0.3333    0.3333    0.2667
  band No.  band energies     occupation 
      1     -46.4524      2.00000
      2     -46.4389      2.00000
      3     -46.4268      2.00000
      4     -46.4180      2.00000
      5      -1.2172      2.00000
      6       0.4122      2.00000
      7       0.9709      0.00000
      8       1.5629      0.00000
      9       3.2895      0.00000
     10       3.7061      0.00000

 k-point   699 :       0.3333   -0.2667    0.3333
  band No.  band energies     occupation 
      1     -46.4532      2.00000
      2     -46.4378      2.00000
      3     -46.4282      2.00000
      4     -46.4169      2.00000
      5      -1.2191      2.00000
      6       0.3996      2.00000
      7       0.9866      0.00000
      8       1.5714      0.00000
      9       3.2959      0.00000
     10       3.7248      0.00000

 k-point   700 :       0.3333   -0.3333   -0.2667
  band No.  band energies     occupation 
      1     -46.4504      2.00000
      2     -46.4428      2.00000
      3     -46.4228      2.00000
      4     -46.4199      2.00000
      5      -1.2185      2.00000
      6       0.3976      2.00000
      7       0.9851      0.00000
      8       1.5974      0.00000
      9       3.2645      0.00000
     10       3.7245      0.00000

 k-point   701 :       0.3333    0.2667   -0.3333
  band No.  band energies     occupation 
      1     -46.4502      2.00000
      2     -46.4438      2.00000
      3     -46.4229      2.00000
      4     -46.4190      2.00000
      5      -1.2189      2.00000
      6       0.3761      2.00000
      7       1.0374      0.00000
      8       1.5625      0.00000
      9       3.2852      0.00000
     10       3.6849      0.00000

 k-point   702 :       0.4000    0.3333    0.2667
  band No.  band energies     occupation 
      1     -46.4500      2.00000
      2     -46.4390      2.00000
      3     -46.4275      2.00000
      4     -46.4193      2.00000
      5      -0.9207      2.00000
      6       0.1892      2.00000
      7       1.0375      0.00000
      8       1.5743      0.00000
      9       3.0247      0.00000
     10       3.5223      0.00000

 k-point   703 :       0.4000   -0.2667    0.3333
  band No.  band energies     occupation 
      1     -46.4510      2.00000
      2     -46.4375      2.00000
      3     -46.4293      2.00000
      4     -46.4181      2.00000
      5      -0.9237      2.00000
      6       0.1823      2.00000
      7       1.0391      0.00000
      8       1.6020      0.00000
      9       3.0206      0.00000
     10       3.5053      0.00000

 k-point   704 :       0.4000   -0.3333   -0.2667
  band No.  band energies     occupation 
      1     -46.4478      2.00000
      2     -46.4430      2.00000
      3     -46.4240      2.00000
      4     -46.4211      2.00000
      5      -0.9223      2.00000
      6       0.1853      2.00000
      7       1.0394      0.00000
      8       1.6013      0.00000
      9       3.0158      0.00000
     10       3.5044      0.00000

 k-point   705 :       0.4000    0.2667   -0.3333
  band No.  band energies     occupation 
      1     -46.4480      2.00000
      2     -46.4435      2.00000
      3     -46.4247      2.00000
      4     -46.4197      2.00000
      5      -0.9232      2.00000
      6       0.1672      2.00000
      7       1.0970      0.00000
      8       1.5601      0.00000
      9       3.0376      0.00000
     10       3.4756      0.00000

 k-point   706 :       0.4667    0.3333    0.2667
  band No.  band energies     occupation 
      1     -46.4479      2.00000
      2     -46.4405      2.00000
      3     -46.4269      2.00000
      4     -46.4206      2.00000
      5      -0.5775      2.00000
      6      -0.1950      2.00000
      7       1.2669      0.00000
      8       1.4937      0.00000
      9       2.9636      0.00000
     10       3.1884      0.00000

 k-point   707 :       0.4667   -0.2667    0.3333
  band No.  band energies     occupation 
      1     -46.4490      2.00000
      2     -46.4392      2.00000
      3     -46.4285      2.00000
      4     -46.4191      2.00000
      5      -0.5827      2.00000
      6      -0.1980      2.00000
      7       1.2591      0.00000
      8       1.5318      0.00000
      9       2.9492      0.00000
     10       3.1772      0.00000

 k-point   708 :       0.4667   -0.3333   -0.2667
  band No.  band energies     occupation 
      1     -46.4467      2.00000
      2     -46.4424      2.00000
      3     -46.4255      2.00000
      4     -46.4213      2.00000
      5      -0.5791      2.00000
      6      -0.1942      2.00000
      7       1.2592      0.00000
      8       1.5111      0.00000
      9       2.9665      0.00000
     10       3.1746      0.00000

 k-point   709 :       0.4667    0.2667   -0.3333
  band No.  band energies     occupation 
      1     -46.4476      2.00000
      2     -46.4418      2.00000
      3     -46.4267      2.00000
      4     -46.4198      2.00000
      5      -0.5809      2.00000
      6      -0.2033      2.00000
      7       1.3129      0.00000
      8       1.4779      0.00000
      9       2.9816      0.00000
     10       3.1458      0.00000

 k-point   710 :       0.0000    0.4000    0.2667
  band No.  band energies     occupation 
      1     -46.4558      2.00000
      2     -46.4465      2.00000
      3     -46.4184      2.00000
      4     -46.4156      2.00000
      5      -1.6272      2.00000
      6      -0.5193      2.00000
      7       1.1681      0.00000
      8       2.1440      0.00000
      9       4.3402      0.00000
     10       4.5930      0.00000

 k-point   711 :       0.0000   -0.2667    0.4000
  band No.  band energies     occupation 
      1     -46.4562      2.00000
      2     -46.4469      2.00000
      3     -46.4188      2.00000
      4     -46.4143      2.00000
      5      -1.6269      2.00000
      6      -0.5169      2.00000
      7       1.1623      0.00000
      8       2.1408      0.00000
      9       4.3193      0.00000
     10       4.6219      0.00000

 k-point   712 :       0.0667    0.4000    0.2667
  band No.  band energies     occupation 
      1     -46.4556      2.00000
      2     -46.4460      2.00000
      3     -46.4190      2.00000
      4     -46.4156      2.00000
      5      -1.5995      2.00000
      6      -0.4914      2.00000
      7       1.1843      0.00000
      8       2.1384      0.00000
      9       4.0282      0.00000
     10       4.6182      0.00000

 k-point   713 :       0.0667   -0.2667    0.4000
  band No.  band energies     occupation 
      1     -46.4562      2.00000
      2     -46.4462      2.00000
      3     -46.4195      2.00000
      4     -46.4142      2.00000
      5      -1.5995      2.00000
      6      -0.4900      2.00000
      7       1.1834      0.00000
      8       2.1336      0.00000
      9       3.9910      0.00000
     10       4.7044      0.00000

 k-point   714 :       0.0667   -0.4000   -0.2667
  band No.  band energies     occupation 
      1     -46.4554      2.00000
      2     -46.4464      2.00000
      3     -46.4185      2.00000
      4     -46.4159      2.00000
      5      -1.6000      2.00000
      6      -0.4931      2.00000
      7       1.1877      0.00000
      8       2.1510      0.00000
      9       4.0421      0.00000
     10       4.5809      0.00000

 k-point   715 :       0.0667    0.2667   -0.4000
  band No.  band energies     occupation 
      1     -46.4556      2.00000
      2     -46.4472      2.00000
      3     -46.4187      2.00000
      4     -46.4148      2.00000
      5      -1.5995      2.00000
      6      -0.4900      2.00000
      7       1.1778      0.00000
      8       2.1497      0.00000
      9       4.0823      0.00000
     10       4.5136      0.00000

 k-point   716 :       0.1333    0.4000    0.2667
  band No.  band energies     occupation 
      1     -46.4548      2.00000
      2     -46.4452      2.00000
      3     -46.4201      2.00000
      4     -46.4161      2.00000
      5      -1.5170      2.00000
      6      -0.4101      2.00000
      7       1.2328      0.00000
      8       2.1098      0.00000
      9       3.5812      0.00000
     10       4.3374      0.00000

 k-point   717 :       0.1333   -0.2667    0.4000
  band No.  band energies     occupation 
      1     -46.4557      2.00000
      2     -46.4450      2.00000
      3     -46.4209      2.00000
      4     -46.4146      2.00000
      5      -1.5175      2.00000
      6      -0.4102      2.00000
      7       1.2379      0.00000
      8       2.1028      0.00000
      9       3.5584      0.00000
     10       4.4121      0.00000

 k-point   718 :       0.1333   -0.4000   -0.2667
  band No.  band energies     occupation 
      1     -46.4543      2.00000
      2     -46.4459      2.00000
      3     -46.4192      2.00000
      4     -46.4168      2.00000
      5      -1.5180      2.00000
      6      -0.4134      2.00000
      7       1.2395      0.00000
      8       2.1370      0.00000
      9       3.5758      0.00000
     10       4.3125      0.00000

 k-point   719 :       0.1333    0.2667   -0.4000
  band No.  band energies     occupation 
      1     -46.4543      2.00000
      2     -46.4470      2.00000
      3     -46.4192      2.00000
      4     -46.4156      2.00000
      5      -1.5175      2.00000
      6      -0.4105      2.00000
      7       1.2263      0.00000
      8       2.1389      0.00000
      9       3.6041      0.00000
     10       4.2599      0.00000

 k-point   720 :       0.2000    0.4000    0.2667
  band No.  band energies     occupation 
      1     -46.4535      2.00000
      2     -46.4440      2.00000
      3     -46.4216      2.00000
      4     -46.4170      2.00000
      5      -1.3802      2.00000
      6      -0.2781      2.00000
      7       1.2977      0.00000
      8       1.9810      0.00000
      9       3.2645      0.00000
     10       3.8872      0.00000

 k-point   721 :       0.2000   -0.2667    0.4000
  band No.  band energies     occupation 
      1     -46.4546      2.00000
      2     -46.4434      2.00000
      3     -46.4228      2.00000
      4     -46.4153      2.00000
      5      -1.3815      2.00000
      6      -0.2805      2.00000
      7       1.3109      0.00000
      8       1.9722      0.00000
      9       3.2503      0.00000
     10       3.9418      0.00000

 k-point   722 :       0.2000   -0.4000   -0.2667
  band No.  band energies     occupation 
      1     -46.4527      2.00000
      2     -46.4451      2.00000
      3     -46.4203      2.00000
      4     -46.4180      2.00000
      5      -1.3817      2.00000
      6      -0.2834      2.00000
      7       1.3073      0.00000
      8       2.0216      0.00000
      9       3.2439      0.00000
     10       3.8731      0.00000

 k-point   723 :       0.2000    0.2667   -0.4000
  band No.  band energies     occupation 
      1     -46.4525      2.00000
      2     -46.4465      2.00000
      3     -46.4204      2.00000
      4     -46.4167      2.00000
      5      -1.3814      2.00000
      6      -0.2817      2.00000
      7       1.2938      0.00000
      8       2.0272      0.00000
      9       3.2607      0.00000
     10       3.8438      0.00000

 k-point   724 :       0.2667    0.4000    0.2667
  band No.  band energies     occupation 
      1     -46.4517      2.00000
      2     -46.4425      2.00000
      3     -46.4235      2.00000
      4     -46.4183      2.00000
      5      -1.1900      2.00000
      6      -0.1028      2.00000
      7       1.3158      0.00000
      8       1.7323      0.00000
      9       3.1889      0.00000
     10       3.4433      0.00000

 k-point   725 :       0.2667   -0.2667    0.4000
  band No.  band energies     occupation 
      1     -46.4531      2.00000
      2     -46.4414      2.00000
      3     -46.4252      2.00000
      4     -46.4164      2.00000
      5      -1.1925      2.00000
      6      -0.1083      2.00000
      7       1.3366      0.00000
      8       1.7286      0.00000
      9       3.1704      0.00000
     10       3.4867      0.00000

 k-point   726 :       0.2667   -0.4000   -0.2667
  band No.  band energies     occupation 
      1     -46.4506      2.00000
      2     -46.4442      2.00000
      3     -46.4217      2.00000
      4     -46.4195      2.00000
      5      -1.1920      2.00000
      6      -0.1104      2.00000
      7       1.3268      0.00000
      8       1.7749      0.00000
      9       3.1645      0.00000
     10       3.4379      0.00000

 k-point   727 :       0.2667    0.2667   -0.4000
  band No.  band energies     occupation 
      1     -46.4503      2.00000
      2     -46.4458      2.00000
      3     -46.4220      2.00000
      4     -46.4179      2.00000
      5      -1.1921      2.00000
      6      -0.1126      2.00000
      7       1.3296      0.00000
      8       1.7690      0.00000
      9       3.1824      0.00000
     10       3.4176      0.00000

 k-point   728 :       0.3333    0.4000    0.2667
  band No.  band energies     occupation 
      1     -46.4496      2.00000
      2     -46.4412      2.00000
      3     -46.4253      2.00000
      4     -46.4198      2.00000
      5      -0.9483      2.00000
      6       0.0920      2.00000
      7       1.1124      0.00000
      8       1.5824      0.00000
      9       3.0573      0.00000
     10       3.3596      0.00000

 k-point   729 :       0.3333   -0.2667    0.4000
  band No.  band energies     occupation 
      1     -46.4513      2.00000
      2     -46.4393      2.00000
      3     -46.4278      2.00000
      4     -46.4175      2.00000
      5      -0.9526      2.00000
      6       0.0818      2.00000
      7       1.1246      0.00000
      8       1.6078      0.00000
      9       3.0452      0.00000
     10       3.3777      0.00000

 k-point   730 :       0.3333   -0.4000   -0.2667
  band No.  band energies     occupation 
      1     -46.4483      2.00000
      2     -46.4433      2.00000
      3     -46.4232      2.00000
      4     -46.4211      2.00000
      5      -0.9509      2.00000
      6       0.0820      2.00000
      7       1.1269      0.00000
      8       1.6178      0.00000
      9       3.0381      0.00000
     10       3.3604      0.00000

 k-point   731 :       0.3333    0.2667   -0.4000
  band No.  band energies     occupation 
      1     -46.4482      2.00000
      2     -46.4446      2.00000
      3     -46.4241      2.00000
      4     -46.4190      2.00000
      5      -0.9515      2.00000
      6       0.0691      2.00000
      7       1.1733      0.00000
      8       1.5791      0.00000
      9       3.0613      0.00000
     10       3.3406      0.00000

 k-point   732 :       0.4000    0.4000    0.2667
  band No.  band energies     occupation 
      1     -46.4475      2.00000
      2     -46.4405      2.00000
      3     -46.4266      2.00000
      4     -46.4213      2.00000
      5      -0.6590      2.00000
      6       0.1968      2.00000
      7       0.8754      0.00000
      8       1.4537      0.00000
      9       2.9389      0.00000
     10       3.5689      0.00000

 k-point   733 :       0.4000   -0.2667    0.4000
  band No.  band energies     occupation 
      1     -46.4496      2.00000
      2     -46.4376      2.00000
      3     -46.4300      2.00000
      4     -46.4187      2.00000
      5      -0.6666      2.00000
      6       0.1831      2.00000
      7       0.8826      0.00000
      8       1.5015      0.00000
      9       2.9203      0.00000
     10       3.5786      0.00000

 k-point   734 :       0.4000   -0.4000   -0.2667
  band No.  band energies     occupation 
      1     -46.4460      2.00000
      2     -46.4428      2.00000
      3     -46.4246      2.00000
      4     -46.4226      2.00000
      5      -0.6621      2.00000
      6       0.1889      2.00000
      7       0.8842      0.00000
      8       1.4807      0.00000
      9       2.9299      0.00000
     10       3.5809      0.00000

 k-point   735 :       0.4000    0.2667   -0.4000
  band No.  band energies     occupation 
      1     -46.4471      2.00000
      2     -46.4427      2.00000
      3     -46.4264      2.00000
      4     -46.4198      2.00000
      5      -0.6639      2.00000
      6       0.1564      2.00000
      7       0.9583      0.00000
      8       1.4433      0.00000
      9       2.9437      0.00000
     10       3.5501      0.00000

 k-point   736 :       0.4667    0.4000    0.2667
  band No.  band energies     occupation 
      1     -46.4457      2.00000
      2     -46.4408      2.00000
      3     -46.4268      2.00000
      4     -46.4225      2.00000
      5      -0.3327      2.00000
      6       0.0008      2.00000
      7       0.9613      0.00000
      8       1.2226      0.00000
      9       3.0525      0.00000
     10       3.3703      0.00000

 k-point   737 :       0.4667   -0.2667    0.4000
  band No.  band energies     occupation 
      1     -46.4481      2.00000
      2     -46.4378      2.00000
      3     -46.4304      2.00000
      4     -46.4195      2.00000
      5      -0.3469      2.00000
      6      -0.0062      2.00000
      7       0.9576      0.00000
      8       1.2779      0.00000
      9       3.0330      0.00000
     10       3.3573      0.00000

 k-point   738 :       0.4667   -0.4000   -0.2667
  band No.  band energies     occupation 
      1     -46.4449      2.00000
      2     -46.4420      2.00000
      3     -46.4259      2.00000
      4     -46.4231      2.00000
      5      -0.3359      2.00000
      6       0.0017      2.00000
      7       0.9553      0.00000
      8       1.2392      0.00000
      9       3.0539      0.00000
     10       3.3621      0.00000

 k-point   739 :       0.4667    0.2667   -0.4000
  band No.  band energies     occupation 
      1     -46.4472      2.00000
      2     -46.4400      2.00000
      3     -46.4287      2.00000
      4     -46.4200      2.00000
      5      -0.3403      2.00000
      6      -0.0230      2.00000
      7       1.0261      0.00000
      8       1.2153      0.00000
      9       3.0557      0.00000
     10       3.3373      0.00000

 k-point   740 :       0.0000    0.4667    0.2667
  band No.  band energies     occupation 
      1     -46.4526      2.00000
      2     -46.4494      2.00000
      3     -46.4176      2.00000
      4     -46.4166      2.00000
      5      -1.3033      2.00000
      6      -0.9322      2.00000
      7       1.4535      0.00000
      8       1.7838      0.00000
      9       4.4839      0.00000
     10       4.5747      0.00000

 k-point   741 :       0.0000   -0.2667    0.4667
  band No.  band energies     occupation 
      1     -46.4532      2.00000
      2     -46.4499      2.00000
      3     -46.4186      2.00000
      4     -46.4145      2.00000
      5      -1.3026      2.00000
      6      -0.9307      2.00000
      7       1.4473      0.00000
      8       1.7806      0.00000
      9       4.4219      0.00000
     10       4.6497      0.00000

 k-point   742 :       0.0667    0.4667    0.2667
  band No.  band energies     occupation 
      1     -46.4524      2.00000
      2     -46.4491      2.00000
      3     -46.4179      2.00000
      4     -46.4168      2.00000
      5      -1.2756      2.00000
      6      -0.9044      2.00000
      7       1.4671      0.00000
      8       1.7914      0.00000
      9       4.2346      0.00000
     10       4.4453      0.00000

 k-point   743 :       0.0667   -0.2667    0.4667
  band No.  band energies     occupation 
      1     -46.4533      2.00000
      2     -46.4492      2.00000
      3     -46.4191      2.00000
      4     -46.4146      2.00000
      5      -1.2754      2.00000
      6      -0.9037      2.00000
      7       1.4676      0.00000
      8       1.7868      0.00000
      9       4.1709      0.00000
     10       4.5392      0.00000

 k-point   744 :       0.0667   -0.4667   -0.2667
  band No.  band energies     occupation 
      1     -46.4523      2.00000
      2     -46.4492      2.00000
      3     -46.4178      2.00000
      4     -46.4169      2.00000
      5      -1.2764      2.00000
      6      -0.9056      2.00000
      7       1.4722      0.00000
      8       1.7991      0.00000
      9       4.2415      0.00000
     10       4.4355      0.00000

 k-point   745 :       0.0667    0.2667   -0.4667
  band No.  band energies     occupation 
      1     -46.4526      2.00000
      2     -46.4500      2.00000
      3     -46.4187      2.00000
      4     -46.4148      2.00000
      5      -1.2754      2.00000
      6      -0.9037      2.00000
      7       1.4599      0.00000
      8       1.7975      0.00000
      9       4.2947      0.00000
     10       4.3768      0.00000

 k-point   746 :       0.1333    0.4667    0.2667
  band No.  band energies     occupation 
      1     -46.4516      2.00000
      2     -46.4483      2.00000
      3     -46.4188      2.00000
      4     -46.4175      2.00000
      5      -1.1935      2.00000
      6      -0.8228      2.00000
      7       1.5075      0.00000
      8       1.8112      0.00000
      9       3.7804      0.00000
     10       4.0463      0.00000

 k-point   747 :       0.1333   -0.2667    0.4667
  band No.  band energies     occupation 
      1     -46.4529      2.00000
      2     -46.4480      2.00000
      3     -46.4202      2.00000
      4     -46.4151      2.00000
      5      -1.1941      2.00000
      6      -0.8231      2.00000
      7       1.5163      0.00000
      8       1.8051      0.00000
      9       3.7401      0.00000
     10       4.1125      0.00000

 k-point   748 :       0.1333   -0.4667   -0.2667
  band No.  band energies     occupation 
      1     -46.4514      2.00000
      2     -46.4485      2.00000
      3     -46.4186      2.00000
      4     -46.4177      2.00000
      5      -1.1951      2.00000
      6      -0.8251      2.00000
      7       1.5181      0.00000
      8       1.8277      0.00000
      9       3.7780      0.00000
     10       4.0378      0.00000

 k-point   749 :       0.1333    0.2667   -0.4667
  band No.  band energies     occupation 
      1     -46.4515      2.00000
      2     -46.4496      2.00000
      3     -46.4196      2.00000
      4     -46.4155      2.00000
      5      -1.1941      2.00000
      6      -0.8232      2.00000
      7       1.5001      0.00000
      8       1.8285      0.00000
      9       3.8255      0.00000
     10       3.9916      0.00000

 k-point   750 :       0.2000    0.4667    0.2667
  band No.  band energies     occupation 
      1     -46.4503      2.00000
      2     -46.4471      2.00000
      3     -46.4202      2.00000
      4     -46.4186      2.00000
      5      -1.0578      2.00000
      6      -0.6886      2.00000
      7       1.5534      0.00000
      8       1.8037      0.00000
      9       3.3458      0.00000
     10       3.5744      0.00000

 k-point   751 :       0.2000   -0.2667    0.4667
  band No.  band energies     occupation 
      1     -46.4521      2.00000
      2     -46.4462      2.00000
      3     -46.4219      2.00000
      4     -46.4159      2.00000
      5      -1.0598      2.00000
      6      -0.6905      2.00000
      7       1.5728      0.00000
      8       1.7969      0.00000
      9       3.3196      0.00000
     10       3.6175      0.00000

 k-point   752 :       0.2000   -0.4667   -0.2667
  band No.  band energies     occupation 
      1     -46.4500      2.00000
      2     -46.4474      2.00000
      3     -46.4198      2.00000
      4     -46.4190      2.00000
      5      -1.0602      2.00000
      6      -0.6923      2.00000
      7       1.5697      0.00000
      8       1.8302      0.00000
      9       3.3335      0.00000
     10       3.5641      0.00000

 k-point   753 :       0.2000    0.2667   -0.4667
  band No.  band energies     occupation 
      1     -46.4503      2.00000
      2     -46.4484      2.00000
      3     -46.4211      2.00000
      4     -46.4164      2.00000
      5      -1.0595      2.00000
      6      -0.6912      2.00000
      7       1.5477      0.00000
      8       1.8346      0.00000
      9       3.3649      0.00000
     10       3.5432      0.00000

 k-point   754 :       0.2667    0.4667    0.2667
  band No.  band energies     occupation 
      1     -46.4486      2.00000
      2     -46.4455      2.00000
      3     -46.4218      2.00000
      4     -46.4201      2.00000
      5      -0.8702      2.00000
      6      -0.5056      2.00000
      7       1.5399      0.00000
      8       1.6989      0.00000
      9       3.0863      0.00000
     10       3.1834      0.00000

 k-point   755 :       0.2667   -0.2667    0.4667
  band No.  band energies     occupation 
      1     -46.4509      2.00000
      2     -46.4440      2.00000
      3     -46.4242      2.00000
      4     -46.4170      2.00000
      5      -0.8745      2.00000
      6      -0.5095      2.00000
      7       1.5636      0.00000
      8       1.7045      0.00000
      9       3.0550      0.00000
     10       3.2179      0.00000

 k-point   756 :       0.2667   -0.4667   -0.2667
  band No.  band energies     occupation 
      1     -46.4482      2.00000
      2     -46.4460      2.00000
      3     -46.4213      2.00000
      4     -46.4205      2.00000
      5      -0.8735      2.00000
      6      -0.5107      2.00000
      7       1.5604      0.00000
      8       1.7319      0.00000
      9       3.0682      0.00000
     10       3.1717      0.00000

 k-point   757 :       0.2667    0.2667   -0.4667
  band No.  band energies     occupation 
      1     -46.4491      2.00000
      2     -46.4464      2.00000
      3     -46.4230      2.00000
      4     -46.4176      2.00000
      5      -0.8734      2.00000
      6      -0.5117      2.00000
      7       1.5478      0.00000
      8       1.7332      0.00000
      9       3.0888      0.00000
     10       3.1635      0.00000

 k-point   758 :       0.3333    0.4667    0.2667
  band No.  band energies     occupation 
      1     -46.4468      2.00000
      2     -46.4439      2.00000
      3     -46.4236      2.00000
      4     -46.4217      2.00000
      5      -0.6346      2.00000
      6      -0.2822      2.00000
      7       1.3300      0.00000
      8       1.5108      0.00000
      9       2.9790      0.00000
     10       3.0971      0.00000

 k-point   759 :       0.3333   -0.2667    0.4667
  band No.  band energies     occupation 
      1     -46.4496      2.00000
      2     -46.4415      2.00000
      3     -46.4267      2.00000
      4     -46.4182      2.00000
      5      -0.6428      2.00000
      6      -0.2889      2.00000
      7       1.3346      0.00000
      8       1.5558      0.00000
      9       2.9451      0.00000
     10       3.1195      0.00000

 k-point   760 :       0.3333   -0.4667   -0.2667
  band No.  band energies     occupation 
      1     -46.4462      2.00000
      2     -46.4445      2.00000
      3     -46.4230      2.00000
      4     -46.4222      2.00000
      5      -0.6390      2.00000
      6      -0.2888      2.00000
      7       1.3505      0.00000
      8       1.5399      0.00000
      9       2.9649      0.00000
     10       3.0891      0.00000

 k-point   761 :       0.3333    0.2667   -0.4667
  band No.  band energies     occupation 
      1     -46.4481      2.00000
      2     -46.4438      2.00000
      3     -46.4254      2.00000
      4     -46.4187      2.00000
      5      -0.6400      2.00000
      6      -0.2950      2.00000
      7       1.3822      0.00000
      8       1.5123      0.00000
      9       2.9761      0.00000
     10       3.0840      0.00000

 k-point   762 :       0.4000    0.4667    0.2667
  band No.  band energies     occupation 
      1     -46.4450      2.00000
      2     -46.4426      2.00000
      3     -46.4251      2.00000
      4     -46.4232      2.00000
      5      -0.3606      2.00000
      6      -0.0466      2.00000
      7       1.0053      0.00000
      8       1.2409      0.00000
      9       3.0395      0.00000
     10       3.2759      0.00000

 k-point   763 :       0.4000   -0.2667    0.4667
  band No.  band energies     occupation 
      1     -46.4483      2.00000
      2     -46.4389      2.00000
      3     -46.4294      2.00000
      4     -46.4192      2.00000
      5      -0.3762      2.00000
      6      -0.0566      2.00000
      7       1.0074      0.00000
      8       1.3016      0.00000
      9       3.0118      0.00000
     10       3.2887      0.00000

 k-point   764 :       0.4000   -0.4667   -0.2667
  band No.  band energies     occupation 
      1     -46.4444      2.00000
      2     -46.4433      2.00000
      3     -46.4245      2.00000
      4     -46.4238      2.00000
      5      -0.3657      2.00000
      6      -0.0540      2.00000
      7       1.0202      0.00000
      8       1.2616      0.00000
      9       3.0346      0.00000
     10       3.2759      0.00000

 k-point   765 :       0.4000    0.2667   -0.4667
  band No.  band energies     occupation 
      1     -46.4474      2.00000
      2     -46.4409      2.00000
      3     -46.4280      2.00000
      4     -46.4196      2.00000
      5      -0.3693      2.00000
      6      -0.0722      2.00000
      7       1.0765      0.00000
      8       1.2375      0.00000
      9       3.0343      0.00000
     10       3.2691      0.00000

 k-point   766 :       0.4667    0.4667    0.2667
  band No.  band energies     occupation 
      1     -46.4437      2.00000
      2     -46.4419      2.00000
      3     -46.4259      2.00000
      4     -46.4244      2.00000
      5      -0.0799      2.00000
      6       0.0813      2.00000
      7       0.8074      0.06462
      8       0.9483      0.00000
      9       3.2666      0.00000
     10       3.5310      0.00000

 k-point   767 :       0.4667   -0.2667    0.4667
  band No.  band energies     occupation 
      1     -46.4475      2.00000
      2     -46.4372      2.00000
      3     -46.4313      2.00000
      4     -46.4199      2.00000
      5      -0.1118      2.00000
      6       0.0738      2.00000
      7       0.8061      0.07948
      8       1.0205      0.00000
      9       3.2414      0.00000
     10       3.5500      0.00000

 k-point   768 :       0.4667   -0.4667   -0.2667
  band No.  band energies     occupation 
      1     -46.4433      2.00000
      2     -46.4423      2.00000
      3     -46.4256      2.00000
      4     -46.4246      2.00000
      5      -0.0843      2.00000
      6       0.0788      2.00000
      7       0.8105      0.03877
      8       0.9595      0.00000
      9       3.2831      0.00000
     10       3.5758      0.00000

 k-point   769 :       0.4667    0.2667   -0.4667
  band No.  band energies     occupation 
      1     -46.4471      2.00000
      2     -46.4382      2.00000
      3     -46.4305      2.00000
      4     -46.4200      2.00000
      5      -0.0961      2.00000
      6       0.0467      2.00000
      7       0.8824      0.00000
      8       0.9539      0.00000
      9       3.2571      0.00000
     10       3.5317      0.00000

 k-point   770 :       0.0000    0.3333    0.3333
  band No.  band energies     occupation 
      1     -46.4567      2.00000
      2     -46.4453      2.00000
      3     -46.4191      2.00000
      4     -46.4151      2.00000
      5      -1.6795      2.00000
      6      -0.0950      2.00000
      7       0.6593      2.00000
      8       2.0992      0.00000
      9       4.3350      0.00000
     10       4.6538      0.00000

 k-point   771 :       0.0667    0.3333    0.3333
  band No.  band energies     occupation 
      1     -46.4566      2.00000
      2     -46.4447      2.00000
      3     -46.4199      2.00000
      4     -46.4150      2.00000
      5      -1.6518      2.00000
      6      -0.0657      2.00000
      7       0.6773      2.00000
      8       2.0925      0.00000
      9       3.9908      0.00000
     10       4.8041      0.00000

 k-point   772 :       0.0667   -0.3333   -0.3333
  band No.  band energies     occupation 
      1     -46.4562      2.00000
      2     -46.4454      2.00000
      3     -46.4190      2.00000
      4     -46.4156      2.00000
      5      -1.6521      2.00000
      6      -0.0668      2.00000
      7       0.6766      2.00000
      8       2.1067      0.00000
      9       4.0399      0.00000
     10       4.6813      0.00000

 k-point   773 :       0.1333    0.3333    0.3333
  band No.  band energies     occupation 
      1     -46.4559      2.00000
      2     -46.4437      2.00000
      3     -46.4212      2.00000
      4     -46.4154      2.00000
      5      -1.5693      2.00000
      6       0.0203      2.00000
      7       0.7286      1.99981
      8       2.0615      0.00000
      9       3.5414      0.00000
     10       4.6649      0.00000

 k-point   774 :       0.1333   -0.3333   -0.3333
  band No.  band energies     occupation 
      1     -46.4550      2.00000
      2     -46.4452      2.00000
      3     -46.4196      2.00000
      4     -46.4164      2.00000
      5      -1.5699      2.00000
      6       0.0177      2.00000
      7       0.7271      1.99987
      8       2.0931      0.00000
      9       3.5597      0.00000
     10       4.5516      0.00000

 k-point   775 :       0.2000    0.3333    0.3333
  band No.  band energies     occupation 
      1     -46.4546      2.00000
      2     -46.4422      2.00000
      3     -46.4231      2.00000
      4     -46.4162      2.00000
      5      -1.4323      2.00000
      6       0.1587      2.00000
      7       0.8052      0.09146
      8       1.9292      0.00000
      9       3.2296      0.00000
     10       4.3026      0.00000

 k-point   776 :       0.2000   -0.3333   -0.3333
  band No.  band energies     occupation 
      1     -46.4532      2.00000
      2     -46.4446      2.00000
      3     -46.4206      2.00000
      4     -46.4177      2.00000
      5      -1.4331      2.00000
      6       0.1538      2.00000
      7       0.8032      0.12081
      8       1.9774      0.00000
      9       3.2234      0.00000
     10       4.2227      0.00000

 k-point   777 :       0.2667    0.3333    0.3333
  band No.  band energies     occupation 
      1     -46.4529      2.00000
      2     -46.4405      2.00000
      3     -46.4253      2.00000
      4     -46.4173      2.00000
      5      -1.2416      2.00000
      6       0.3365      2.00000
      7       0.8813      0.00000
      8       1.6607      0.00000
      9       3.1655      0.00000
     10       3.8695      0.00000

 k-point   778 :       0.2667   -0.3333   -0.3333
  band No.  band energies     occupation 
      1     -46.4510      2.00000
      2     -46.4440      2.00000
      3     -46.4220      2.00000
      4     -46.4191      2.00000
      5      -1.2426      2.00000
      6       0.3262      2.00000
      7       0.8822      0.00000
      8       1.7102      0.00000
      9       3.1544      0.00000
     10       3.8246      0.00000

 k-point   779 :       0.3333    0.3333    0.3333
  band No.  band energies     occupation 
      1     -46.4509      2.00000
      2     -46.4389      2.00000
      3     -46.4276      2.00000
      4     -46.4187      2.00000
      5      -0.9986      2.00000
      6       0.4877      2.00000
      7       0.8963      0.00000
      8       1.4364      0.00000
      9       3.2652      0.00000
     10       3.4620      0.00000

 k-point   780 :       0.3333   -0.3333   -0.3333
  band No.  band energies     occupation 
      1     -46.4485      2.00000
      2     -46.4434      2.00000
      3     -46.4237      2.00000
      4     -46.4205      2.00000
      5      -0.9999      2.00000
      6       0.4648      2.00000
      7       0.9190      0.00000
      8       1.4662      0.00000
      9       3.2580      0.00000
     10       3.5075      0.00000

 k-point   781 :       0.4000    0.3333    0.3333
  band No.  band energies     occupation 
      1     -46.4488      2.00000
      2     -46.4379      2.00000
      3     -46.4292      2.00000
      4     -46.4200      2.00000
      5      -0.7063      2.00000
      6       0.3494      2.00000
      7       0.9946      0.00000
      8       1.4093      0.00000
      9       3.0440      0.00000
     10       3.2034      0.00000

 k-point   782 :       0.4000   -0.3333   -0.3333
  band No.  band energies     occupation 
      1     -46.4463      2.00000
      2     -46.4426      2.00000
      3     -46.4255      2.00000
      4     -46.4215      2.00000
      5      -0.7075      2.00000
      6       0.3352      2.00000
      7       1.0251      0.00000
      8       1.4099      0.00000
      9       3.0655      0.00000
     10       3.1986      0.00000

 k-point   783 :       0.4667    0.3333    0.3333
  band No.  band energies     occupation 
      1     -46.4469      2.00000
      2     -46.4387      2.00000
      3     -46.4290      2.00000
      4     -46.4211      2.00000
      5      -0.3717      2.00000
      6      -0.0009      2.00000
      7       1.2035      0.00000
      8       1.3982      0.00000
      9       2.8341      0.00000
     10       2.9475      0.00000

 k-point   784 :       0.4667   -0.3333   -0.3333
  band No.  band energies     occupation 
      1     -46.4458      2.00000
      2     -46.4409      2.00000
      3     -46.4275      2.00000
      4     -46.4217      2.00000
      5      -0.3719      2.00000
      6      -0.0039      2.00000
      7       1.2257      0.00000
      8       1.3836      0.00000
      9       2.8696      0.00000
     10       2.9085      0.00000

 k-point   785 :       0.0000    0.4000    0.3333
  band No.  band energies     occupation 
      1     -46.4542      2.00000
      2     -46.4470      2.00000
      3     -46.4189      2.00000
      4     -46.4162      2.00000
      5      -1.4092      2.00000
      6      -0.3709      2.00000
      7       0.7268      1.99988
      8       1.6907      0.00000
      9       4.5060      0.00000
     10       4.7274      0.00000

 k-point   786 :       0.0000   -0.3333    0.4000
  band No.  band energies     occupation 
      1     -46.4544      2.00000
      2     -46.4472      2.00000
      3     -46.4191      2.00000
      4     -46.4155      2.00000
      5      -1.4090      2.00000
      6      -0.3693      2.00000
      7       0.7238      1.99995
      8       1.6894      0.00000
      9       4.4917      0.00000
     10       4.7463      0.00000

 k-point   787 :       0.0667    0.4000    0.3333
  band No.  band energies     occupation 
      1     -46.4541      2.00000
      2     -46.4465      2.00000
      3     -46.4194      2.00000
      4     -46.4162      2.00000
      5      -1.3815      2.00000
      6      -0.3420      2.00000
      7       0.7445      1.99066
      8       1.6978      0.00000
      9       4.1874      0.00000
     10       4.7629      0.00000

 k-point   788 :       0.0667   -0.3333    0.4000
  band No.  band energies     occupation 
      1     -46.4544      2.00000
      2     -46.4466      2.00000
      3     -46.4197      2.00000
      4     -46.4155      2.00000
      5      -1.3814      2.00000
      6      -0.3414      2.00000
      7       0.7444      1.99094
      8       1.6960      0.00000
      9       4.1656      0.00000
     10       4.8156      0.00000

 k-point   789 :       0.0667   -0.4000   -0.3333
  band No.  band energies     occupation 
      1     -46.4537      2.00000
      2     -46.4469      2.00000
      3     -46.4189      2.00000
      4     -46.4166      2.00000
      5      -1.3820      2.00000
      6      -0.3437      2.00000
      7       0.7464      1.98643
      8       1.7064      0.00000
      9       4.2286      0.00000
     10       4.6986      0.00000

 k-point   790 :       0.0667    0.3333   -0.4000
  band No.  band energies     occupation 
      1     -46.4538      2.00000
      2     -46.4473      2.00000
      3     -46.4191      2.00000
      4     -46.4160      2.00000
      5      -1.3817      2.00000
      6      -0.3412      2.00000
      7       0.7410      1.99559
      8       1.7056      0.00000
      9       4.2524      0.00000
     10       4.6572      0.00000

 k-point   791 :       0.1333    0.4000    0.3333
  band No.  band energies     occupation 
      1     -46.4533      2.00000
      2     -46.4456      2.00000
      3     -46.4205      2.00000
      4     -46.4168      2.00000
      5      -1.2989      2.00000
      6      -0.2575      2.00000
      7       0.7979      0.24000
      8       1.7171      0.00000
      9       3.7096      0.00000
     10       4.5009      0.00000

 k-point   792 :       0.1333   -0.3333    0.4000
  band No.  band energies     occupation 
      1     -46.4537      2.00000
      2     -46.4454      2.00000
      3     -46.4210      2.00000
      4     -46.4160      2.00000
      5      -1.2991      2.00000
      6      -0.2584      2.00000
      7       0.8011      0.16093
      8       1.7148      0.00000
      9       3.6958      0.00000
     10       4.5543      0.00000

 k-point   793 :       0.1333   -0.4000   -0.3333
  band No.  band energies     occupation 
      1     -46.4527      2.00000
      2     -46.4464      2.00000
      3     -46.4196      2.00000
      4     -46.4175      2.00000
      5      -1.3000      2.00000
      6      -0.2611      2.00000
      7       0.8015      0.15232
      8       1.7355      0.00000
      9       3.7315      0.00000
     10       4.4571      0.00000

 k-point   794 :       0.1333    0.3333   -0.4000
  band No.  band energies     occupation 
      1     -46.4526      2.00000
      2     -46.4470      2.00000
      3     -46.4197      2.00000
      4     -46.4169      2.00000
      5      -1.2997      2.00000
      6      -0.2583      2.00000
      7       0.7942      0.36157
      8       1.7356      0.00000
      9       3.7484      0.00000
     10       4.4201      0.00000

 k-point   795 :       0.2000    0.4000    0.3333
  band No.  band energies     occupation 
      1     -46.4520      2.00000
      2     -46.4442      2.00000
      3     -46.4222      2.00000
      4     -46.4177      2.00000
      5      -1.1621      2.00000
      6      -0.1205      2.00000
      7       0.8796      0.00000
      8       1.7102      0.00000
      9       3.2731      0.00000
     10       4.0622      0.00000

 k-point   796 :       0.2000   -0.3333    0.4000
  band No.  band energies     occupation 
      1     -46.4526      2.00000
      2     -46.4438      2.00000
      3     -46.4228      2.00000
      4     -46.4169      2.00000
      5      -1.1628      2.00000
      6      -0.1233      2.00000
      7       0.8872      0.00000
      8       1.7073      0.00000
      9       3.2645      0.00000
     10       4.1080      0.00000

 k-point   797 :       0.2000   -0.4000   -0.3333
  band No.  band energies     occupation 
      1     -46.4510      2.00000
      2     -46.4456      2.00000
      3     -46.4208      2.00000
      4     -46.4188      2.00000
      5      -1.1639      2.00000
      6      -0.1264      2.00000
      7       0.8851      0.00000
      8       1.7405      0.00000
      9       3.2772      0.00000
     10       4.0401      0.00000

 k-point   798 :       0.2000    0.3333   -0.4000
  band No.  band energies     occupation 
      1     -46.4509      2.00000
      2     -46.4462      2.00000
      3     -46.4209      2.00000
      4     -46.4180      2.00000
      5      -1.1636      2.00000
      6      -0.1238      2.00000
      7       0.8767      0.00000
      8       1.7419      0.00000
      9       3.2883      0.00000
     10       4.0158      0.00000

 k-point   799 :       0.2667    0.4000    0.3333
  band No.  band energies     occupation 
      1     -46.4503      2.00000
      2     -46.4425      2.00000
      3     -46.4242      2.00000
      4     -46.4191      2.00000
      5      -0.9724      2.00000
      6       0.0620      2.00000
      7       0.9683      0.00000
      8       1.6072      0.00000
      9       3.0188      0.00000
     10       3.5868      0.00000

 k-point   800 :       0.2667   -0.3333    0.4000
  band No.  band energies     occupation 
      1     -46.4510      2.00000
      2     -46.4418      2.00000
      3     -46.4251      2.00000
      4     -46.4181      2.00000
      5      -0.9738      2.00000
      6       0.0564      2.00000
      7       0.9815      0.00000
      8       1.6050      0.00000
      9       3.0113      0.00000
     10       3.6247      0.00000

 k-point   801 :       0.2667   -0.4000   -0.3333
  band No.  band energies     occupation 
      1     -46.4489      2.00000
      2     -46.4444      2.00000
      3     -46.4223      2.00000
      4     -46.4203      2.00000
      5      -0.9748      2.00000
      6       0.0530      2.00000
      7       0.9756      0.00000
      8       1.6468      0.00000
      9       3.0117      0.00000
     10       3.5780      0.00000

 k-point   802 :       0.2667    0.3333   -0.4000
  band No.  band energies     occupation 
      1     -46.4488      2.00000
      2     -46.4452      2.00000
      3     -46.4227      2.00000
      4     -46.4194      2.00000
      5      -0.9747      2.00000
      6       0.0536      2.00000
      7       0.9702      0.00000
      8       1.6484      0.00000
      9       3.0185      0.00000
     10       3.5656      0.00000

 k-point   803 :       0.3333    0.4000    0.3333
  band No.  band energies     occupation 
      1     -46.4483      2.00000
      2     -46.4407      2.00000
      3     -46.4263      2.00000
      4     -46.4206      2.00000
      5      -0.7322      2.00000
      6       0.2676      2.00000
      7       0.9934      0.00000
      8       1.4274      0.00000
      9       3.0074      0.00000
     10       3.1664      0.00000

 k-point   804 :       0.3333   -0.3333    0.4000
  band No.  band energies     occupation 
      1     -46.4493      2.00000
      2     -46.4396      2.00000
      3     -46.4277      2.00000
      4     -46.4194      2.00000
      5      -0.7347      2.00000
      6       0.2581      2.00000
      7       1.0098      0.00000
      8       1.4327      0.00000
      9       2.9864      0.00000
     10       3.2080      0.00000

 k-point   805 :       0.3333   -0.4000   -0.3333
  band No.  band energies     occupation 
      1     -46.4466      2.00000
      2     -46.4433      2.00000
      3     -46.4241      2.00000
      4     -46.4220      2.00000
      5      -0.7352      2.00000
      6       0.2541      2.00000
      7       1.0056      0.00000
      8       1.4643      0.00000
      9       2.9980      0.00000
     10       3.1698      0.00000

 k-point   806 :       0.3333    0.3333   -0.4000
  band No.  band energies     occupation 
      1     -46.4467      2.00000
      2     -46.4438      2.00000
      3     -46.4248      2.00000
      4     -46.4208      2.00000
      5      -0.7354      2.00000
      6       0.2478      2.00000
      7       1.0200      0.00000
      8       1.4540      0.00000
      9       3.0120      0.00000
     10       3.1573      0.00000

 k-point   807 :       0.4000    0.4000    0.3333
  band No.  band energies     occupation 
      1     -46.4464      2.00000
      2     -46.4393      2.00000
      3     -46.4281      2.00000
      4     -46.4221      2.00000
      5      -0.4463      2.00000
      6       0.3895      2.00000
      7       0.9079      0.00000
      8       1.3323      0.00000
      9       2.8630      0.00000
     10       3.1834      0.00000

 k-point   808 :       0.4000   -0.3333    0.4000
  band No.  band energies     occupation 
      1     -46.4475      2.00000
      2     -46.4375      2.00000
      3     -46.4303      2.00000
      4     -46.4207      2.00000
      5      -0.4509      2.00000
      6       0.3782      2.00000
      7       0.9153      0.00000
      8       1.3574      0.00000
      9       2.8528      0.00000
     10       3.2109      0.00000

 k-point   809 :       0.4000   -0.4000   -0.3333
  band No.  band energies     occupation 
      1     -46.4446      2.00000
      2     -46.4421      2.00000
      3     -46.4260      2.00000
      4     -46.4233      2.00000
      5      -0.4496      2.00000
      6       0.3748      2.00000
      7       0.9249      0.00000
      8       1.3560      0.00000
      9       2.8589      0.00000
     10       3.2393      0.00000

 k-point   810 :       0.4000    0.3333   -0.4000
  band No.  band energies     occupation 
      1     -46.4454      2.00000
      2     -46.4416      2.00000
      3     -46.4272      2.00000
      4     -46.4218      2.00000
      5      -0.4505      2.00000
      6       0.3532      2.00000
      7       0.9758      0.00000
      8       1.3273      0.00000
      9       2.8760      0.00000
     10       3.2195      0.00000

 k-point   811 :       0.4667    0.4000    0.3333
  band No.  band energies     occupation 
      1     -46.4447      2.00000
      2     -46.4392      2.00000
      3     -46.4287      2.00000
      4     -46.4233      2.00000
      5      -0.1269      2.00000
      6       0.2011      2.00000
      7       1.0151      0.00000
      8       1.2249      0.00000
      9       2.7981      0.00000
     10       3.0068      0.00000

 k-point   812 :       0.4667   -0.3333    0.4000
  band No.  band energies     occupation 
      1     -46.4461      2.00000
      2     -46.4369      2.00000
      3     -46.4312      2.00000
      4     -46.4217      2.00000
      5      -0.1357      2.00000
      6       0.1972      2.00000
      7       1.0086      0.00000
      8       1.2618      0.00000
      9       2.7891      0.00000
     10       2.9999      0.00000

 k-point   813 :       0.4667   -0.4000   -0.3333
  band No.  band energies     occupation 
      1     -46.4439      2.00000
      2     -46.4405      2.00000
      3     -46.4277      2.00000
      4     -46.4238      2.00000
      5      -0.1295      2.00000
      6       0.1992      2.00000
      7       1.0159      0.00000
      8       1.2368      0.00000
      9       2.8016      0.00000
     10       3.0018      0.00000

 k-point   814 :       0.4667    0.3333   -0.4000
  band No.  band energies     occupation 
      1     -46.4453      2.00000
      2     -46.4390      2.00000
      3     -46.4296      2.00000
      4     -46.4221      2.00000
      5      -0.1321      2.00000
      6       0.1836      2.00000
      7       1.0673      0.00000
      8       1.2121      0.00000
      9       2.8154      0.00000
     10       2.9793      0.00000

 k-point   815 :       0.0000    0.4667    0.3333
  band No.  band energies     occupation 
      1     -46.4516      2.00000
      2     -46.4492      2.00000
      3     -46.4182      2.00000
      4     -46.4173      2.00000
      5      -1.0935      2.00000
      6      -0.7392      2.00000
      7       0.9803      0.00000
      8       1.3117      0.00000
      9       4.6539      0.00000
     10       4.7357      0.00000

 k-point   816 :       0.0000   -0.3333    0.4667
  band No.  band energies     occupation 
      1     -46.4520      2.00000
      2     -46.4494      2.00000
      3     -46.4190      2.00000
      4     -46.4159      2.00000
      5      -1.0929      2.00000
      6      -0.7379      2.00000
      7       0.9770      0.00000
      8       1.3097      0.00000
      9       4.6044      0.00000
     10       4.7943      0.00000

 k-point   817 :       0.0667    0.4667    0.3333
  band No.  band energies     occupation 
      1     -46.4514      2.00000
      2     -46.4488      2.00000
      3     -46.4186      2.00000
      4     -46.4174      2.00000
      5      -1.0655      2.00000
      6      -0.7109      2.00000
      7       0.9971      0.00000
      8       1.3254      0.00000
      9       4.4089      0.00000
     10       4.6181      0.00000

 k-point   818 :       0.0667   -0.3333    0.4667
  band No.  band energies     occupation 
      1     -46.4520      2.00000
      2     -46.4488      2.00000
      3     -46.4194      2.00000
      4     -46.4160      2.00000
      5      -1.0653      2.00000
      6      -0.7106      2.00000
      7       0.9982      0.00000
      8       1.3227      0.00000
      9       4.3596      0.00000
     10       4.6969      0.00000

 k-point   819 :       0.0667   -0.4667   -0.3333
  band No.  band energies     occupation 
      1     -46.4513      2.00000
      2     -46.4489      2.00000
      3     -46.4184      2.00000
      4     -46.4176      2.00000
      5      -1.0665      2.00000
      6      -0.7122      2.00000
      7       1.0006      0.00000
      8       1.3309      0.00000
      9       4.4304      0.00000
     10       4.6060      0.00000

 k-point   820 :       0.0667    0.3333   -0.4667
  band No.  band energies     occupation 
      1     -46.4514      2.00000
      2     -46.4494      2.00000
      3     -46.4192      2.00000
      4     -46.4162      2.00000
      5      -1.0656      2.00000
      6      -0.7103      2.00000
      7       0.9932      0.00000
      8       1.3296      0.00000
      9       4.4766      0.00000
     10       4.5491      0.00000

 k-point   821 :       0.1333    0.4667    0.3333
  band No.  band energies     occupation 
      1     -46.4506      2.00000
      2     -46.4479      2.00000
      3     -46.4195      2.00000
      4     -46.4182      2.00000
      5      -0.9828      2.00000
      6      -0.6279      2.00000
      7       1.0484      0.00000
      8       1.3670      0.00000
      9       3.9516      0.00000
     10       4.2312      0.00000

 k-point   822 :       0.1333   -0.3333    0.4667
  band No.  band energies     occupation 
      1     -46.4515      2.00000
      2     -46.4476      2.00000
      3     -46.4205      2.00000
      4     -46.4165      2.00000
      5      -0.9833      2.00000
      6      -0.6289      2.00000
      7       1.0548      0.00000
      8       1.3638      0.00000
      9       3.9202      0.00000
     10       4.2934      0.00000

 k-point   823 :       0.1333   -0.4667   -0.3333
  band No.  band energies     occupation 
      1     -46.4503      2.00000
      2     -46.4482      2.00000
      3     -46.4192      2.00000
      4     -46.4184      2.00000
      5      -0.9848      2.00000
      6      -0.6307      2.00000
      7       1.0555      0.00000
      8       1.3785      0.00000
      9       3.9658      0.00000
     10       4.2270      0.00000

 k-point   824 :       0.1333    0.3333   -0.4667
  band No.  band energies     occupation 
      1     -46.4503      2.00000
      2     -46.4489      2.00000
      3     -46.4200      2.00000
      4     -46.4169      2.00000
      5      -0.9839      2.00000
      6      -0.6283      2.00000
      7       1.0443      0.00000
      8       1.3784      0.00000
      9       4.0021      0.00000
     10       4.1821      0.00000

 k-point   825 :       0.2000    0.4667    0.3333
  band No.  band energies     occupation 
      1     -46.4493      2.00000
      2     -46.4466      2.00000
      3     -46.4209      2.00000
      4     -46.4193      2.00000
      5      -0.8465      2.00000
      6      -0.4919      2.00000
      7       1.1242      0.00000
      8       1.4188      0.00000
      9       3.4649      0.00000
     10       3.7444      0.00000

 k-point   826 :       0.2000   -0.3333    0.4667
  band No.  band energies     occupation 
      1     -46.4505      2.00000
      2     -46.4459      2.00000
      3     -46.4222      2.00000
      4     -46.4175      2.00000
      5      -0.8480      2.00000
      6      -0.4945      2.00000
      7       1.1371      0.00000
      8       1.4153      0.00000
      9       3.4447      0.00000
     10       3.7898      0.00000

 k-point   827 :       0.2000   -0.4667   -0.3333
  band No.  band energies     occupation 
      1     -46.4489      2.00000
      2     -46.4470      2.00000
      3     -46.4205      2.00000
      4     -46.4197      2.00000
      5      -0.8494      2.00000
      6      -0.4963      2.00000
      7       1.1352      0.00000
      8       1.4372      0.00000
      9       3.4699      0.00000
     10       3.7425      0.00000

 k-point   828 :       0.2000    0.3333   -0.4667
  band No.  band energies     occupation 
      1     -46.4490      2.00000
      2     -46.4476      2.00000
      3     -46.4215      2.00000
      4     -46.4180      2.00000
      5      -0.8488      2.00000
      6      -0.4939      2.00000
      7       1.1208      0.00000
      8       1.4389      0.00000
      9       3.4936      0.00000
     10       3.7187      0.00000

 k-point   829 :       0.2667    0.4667    0.3333
  band No.  band energies     occupation 
      1     -46.4476      2.00000
      2     -46.4449      2.00000
      3     -46.4227      2.00000
      4     -46.4209      2.00000
      5      -0.6586      2.00000
      6      -0.3067      2.00000
      7       1.1982      0.00000
      8       1.4374      0.00000
      9       3.0693      0.00000
     10       3.2810      0.00000

 k-point   830 :       0.2667   -0.3333    0.4667
  band No.  band energies     occupation 
      1     -46.4492      2.00000
      2     -46.4437      2.00000
      3     -46.4245      2.00000
      4     -46.4188      2.00000
      5      -0.6618      2.00000
      6      -0.3114      2.00000
      7       1.2185      0.00000
      8       1.4363      0.00000
      9       3.0521      0.00000
     10       3.3154      0.00000

 k-point   831 :       0.2667   -0.4667   -0.3333
  band No.  band energies     occupation 
      1     -46.4470      2.00000
      2     -46.4455      2.00000
      3     -46.4221      2.00000
      4     -46.4214      2.00000
      5      -0.6627      2.00000
      6      -0.3129      2.00000
      7       1.2131      0.00000
      8       1.4633      0.00000
      9       3.0662      0.00000
     10       3.2780      0.00000

 k-point   832 :       0.2667    0.3333   -0.4667
  band No.  band energies     occupation 
      1     -46.4477      2.00000
      2     -46.4455      2.00000
      3     -46.4236      2.00000
      4     -46.4193      2.00000
      5      -0.6624      2.00000
      6      -0.3116      2.00000
      7       1.1982      0.00000
      8       1.4672      0.00000
      9       3.0787      0.00000
     10       3.2713      0.00000

 k-point   833 :       0.3333    0.4667    0.3333
  band No.  band energies     occupation 
      1     -46.4457      2.00000
      2     -46.4431      2.00000
      3     -46.4246      2.00000
      4     -46.4226      2.00000
      5      -0.4236      2.00000
      6      -0.0813      2.00000
      7       1.2007      0.00000
      8       1.3662      0.00000
      9       2.8737      0.00000
     10       2.9416      0.00000

 k-point   834 :       0.3333   -0.3333    0.4667
  band No.  band energies     occupation 
      1     -46.4477      2.00000
      2     -46.4411      2.00000
      3     -46.4271      2.00000
      4     -46.4201      2.00000
      5      -0.4299      2.00000
      6      -0.0885      2.00000
      7       1.2186      0.00000
      8       1.3823      0.00000
      9       2.8382      0.00000
     10       2.9828      0.00000

 k-point   835 :       0.3333   -0.4667   -0.3333
  band No.  band energies     occupation 
      1     -46.4450      2.00000
      2     -46.4438      2.00000
      3     -46.4240      2.00000
      4     -46.4232      2.00000
      5      -0.4288      2.00000
      6      -0.0896      2.00000
      7       1.2184      0.00000
      8       1.3952      0.00000
      9       2.8667      0.00000
     10       2.9384      0.00000

 k-point   836 :       0.3333    0.3333   -0.4667
  band No.  band energies     occupation 
      1     -46.4465      2.00000
      2     -46.4429      2.00000
      3     -46.4260      2.00000
      4     -46.4206      2.00000
      5      -0.4294      2.00000
      6      -0.0917      2.00000
      7       1.2185      0.00000
      8       1.3927      0.00000
      9       2.8643      0.00000
     10       2.9472      0.00000

 k-point   837 :       0.4000    0.4667    0.3333
  band No.  band energies     occupation 
      1     -46.4438      2.00000
      2     -46.4414      2.00000
      3     -46.4264      2.00000
      4     -46.4243      2.00000
      5      -0.1514      2.00000
      6       0.1572      2.00000
      7       1.0393      0.00000
      8       1.2203      0.00000
      9       2.8053      0.00000
     10       2.9362      0.00000

 k-point   838 :       0.4000   -0.3333    0.4667
  band No.  band energies     occupation 
      1     -46.4464      2.00000
      2     -46.4383      2.00000
      3     -46.4300      2.00000
      4     -46.4213      2.00000
      5      -0.1637      2.00000
      6       0.1478      2.00000
      7       1.0428      0.00000
      8       1.2662      0.00000
      9       2.7769      0.00000
     10       2.9621      0.00000

 k-point   839 :       0.4000   -0.4667   -0.3333
  band No.  band energies     occupation 
      1     -46.4431      2.00000
      2     -46.4422      2.00000
      3     -46.4258      2.00000
      4     -46.4248      2.00000
      5      -0.1574      2.00000
      6       0.1473      2.00000
      7       1.0568      0.00000
      8       1.2431      0.00000
      9       2.8021      0.00000
     10       2.9374      0.00000

 k-point   840 :       0.4000    0.3333   -0.4667
  band No.  band energies     occupation 
      1     -46.4455      2.00000
      2     -46.4399      2.00000
      3     -46.4288      2.00000
      4     -46.4217      2.00000
      5      -0.1600      2.00000
      6       0.1358      2.00000
      7       1.0958      0.00000
      8       1.2216      0.00000
      9       2.8015      0.00000
     10       2.9405      0.00000

 k-point   841 :       0.4667    0.4667    0.3333
  band No.  band energies     occupation 
      1     -46.4425      2.00000
      2     -46.4406      2.00000
      3     -46.4274      2.00000
      4     -46.4255      2.00000
      5       0.1268      2.00000
      6       0.2903      2.00000
      7       0.8885      0.00000
      8       1.0164      0.00000
      9       2.9155      0.00000
     10       3.2204      0.00000

 k-point   842 :       0.4667   -0.3333    0.4667
  band No.  band energies     occupation 
      1     -46.4454      2.00000
      2     -46.4357      2.00000
      3     -46.4328      2.00000
      4     -46.4221      2.00000
      5       0.0995      2.00000
      6       0.2867      2.00000
      7       0.8826      0.00000
      8       1.0779      0.00000
      9       2.8996      0.00000
     10       3.1741      0.00000

 k-point   843 :       0.4667   -0.4667   -0.3333
  band No.  band energies     occupation 
      1     -46.4422      2.00000
      2     -46.4410      2.00000
      3     -46.4271      2.00000
      4     -46.4257      2.00000
      5       0.1218      2.00000
      6       0.2858      2.00000
      7       0.8941      0.00000
      8       1.0287      0.00000
      9       2.9174      0.00000
     10       3.1606      0.00000

 k-point   844 :       0.4667    0.3333   -0.4667
  band No.  band energies     occupation 
      1     -46.4451      2.00000
      2     -46.4369      2.00000
      3     -46.4317      2.00000
      4     -46.4222      2.00000
      5       0.1112      2.00000
      6       0.2627      2.00000
      7       0.9522      0.00000
      8       1.0196      0.00000
      9       2.9212      0.00000
     10       3.1622      0.00000

 k-point   845 :       0.0000    0.4000    0.4000
  band No.  band energies     occupation 
      1     -46.4525      2.00000
      2     -46.4479      2.00000
      3     -46.4191      2.00000
      4     -46.4168      2.00000
      5      -1.1472      2.00000
      6      -0.3346      2.00000
      7       0.4891      2.00000
      8       1.2637      0.00000
      9       4.6751      0.00000
     10       4.8576      0.00000

 k-point   846 :       0.0667    0.4000    0.4000
  band No.  band energies     occupation 
      1     -46.4523      2.00000
      2     -46.4474      2.00000
      3     -46.4196      2.00000
      4     -46.4169      2.00000
      5      -1.1192      2.00000
      6      -0.3050      2.00000
      7       0.5079      2.00000
      8       1.2772      0.00000
      9       4.3803      0.00000
     10       4.8695      0.00000

 k-point   847 :       0.0667   -0.4000   -0.4000
  band No.  band energies     occupation 
      1     -46.4520      2.00000
      2     -46.4478      2.00000
      3     -46.4192      2.00000
      4     -46.4172      2.00000
      5      -1.1199      2.00000
      6      -0.3057      2.00000
      7       0.5074      2.00000
      8       1.2834      0.00000
      9       4.4483      0.00000
     10       4.7726      0.00000

 k-point   848 :       0.1333    0.4000    0.4000
  band No.  band energies     occupation 
      1     -46.4516      2.00000
      2     -46.4464      2.00000
      3     -46.4207      2.00000
      4     -46.4175      2.00000
      5      -1.0365      2.00000
      6      -0.2178      2.00000
      7       0.5625      2.00000
      8       1.3189      0.00000
      9       3.9103      0.00000
     10       4.6053      0.00000

 k-point   849 :       0.1333   -0.4000   -0.4000
  band No.  band energies     occupation 
      1     -46.4509      2.00000
      2     -46.4473      2.00000
      3     -46.4199      2.00000
      4     -46.4181      2.00000
      5      -1.0378      2.00000
      6      -0.2192      2.00000
      7       0.5613      2.00000
      8       1.3318      0.00000
      9       3.9559      0.00000
     10       4.5264      0.00000

 k-point   850 :       0.2000    0.4000    0.4000
  band No.  band energies     occupation 
      1     -46.4504      2.00000
      2     -46.4448      2.00000
      3     -46.4224      2.00000
      4     -46.4185      2.00000
      5      -0.8998      2.00000
      6      -0.0753      2.00000
      7       0.6482      2.00000
      8       1.3715      0.00000
      9       3.4231      0.00000
     10       4.1934      0.00000

 k-point   851 :       0.2000   -0.4000   -0.4000
  band No.  band energies     occupation 
      1     -46.4493      2.00000
      2     -46.4463      2.00000
      3     -46.4212      2.00000
      4     -46.4193      2.00000
      5      -0.9018      2.00000
      6      -0.0780      2.00000
      7       0.6466      2.00000
      8       1.3925      0.00000
      9       3.4489      0.00000
     10       4.1389      0.00000

 k-point   852 :       0.2667    0.4000    0.4000
  band No.  band energies     occupation 
      1     -46.4488      2.00000
      2     -46.4429      2.00000
      3     -46.4245      2.00000
      4     -46.4199      2.00000
      5      -0.7111      2.00000
      6       0.1160      2.00000
      7       0.7533      1.95240
      8       1.3940      0.00000
      9       3.0293      0.00000
     10       3.7432      0.00000

 k-point   853 :       0.2667   -0.4000   -0.4000
  band No.  band energies     occupation 
      1     -46.4473      2.00000
      2     -46.4449      2.00000
      3     -46.4230      2.00000
      4     -46.4209      2.00000
      5      -0.7137      2.00000
      6       0.1109      2.00000
      7       0.7522      1.96004
      8       1.4236      0.00000
      9       3.0402      0.00000
     10       3.7114      0.00000

 k-point   854 :       0.3333    0.4000    0.4000
  band No.  band energies     occupation 
      1     -46.4470      2.00000
      2     -46.4407      2.00000
      3     -46.4269      2.00000
      4     -46.4215      2.00000
      5      -0.4739      2.00000
      6       0.3395      2.00000
      7       0.8455      0.00001
      8       1.3329      0.00000
      9       2.8348      0.00000
     10       3.3132      0.00000

 k-point   855 :       0.3333   -0.4000   -0.4000
  band No.  band energies     occupation 
      1     -46.4451      2.00000
      2     -46.4432      2.00000
      3     -46.4251      2.00000
      4     -46.4225      2.00000
      5      -0.4768      2.00000
      6       0.3284      2.00000
      7       0.8513      0.00000
      8       1.3637      0.00000
      9       2.8393      0.00000
     10       3.3068      0.00000

 k-point   856 :       0.4000    0.4000    0.4000
  band No.  band energies     occupation 
      1     -46.4452      2.00000
      2     -46.4385      2.00000
      3     -46.4293      2.00000
      4     -46.4229      2.00000
      5      -0.1952      2.00000
      6       0.5201      2.00000
      7       0.8699      0.00000
      8       1.2382      0.00000
      9       2.8479      0.00000
     10       2.9760      0.00000

 k-point   857 :       0.4000   -0.4000   -0.4000
  band No.  band energies     occupation 
      1     -46.4437      2.00000
      2     -46.4410      2.00000
      3     -46.4275      2.00000
      4     -46.4238      2.00000
      5      -0.1978      2.00000
      6       0.4957      2.00000
      7       0.9043      0.00000
      8       1.2458      0.00000
      9       2.8773      0.00000
     10       2.9822      0.00000

 k-point   858 :       0.4667    0.4000    0.4000
  band No.  band energies     occupation 
      1     -46.4438      2.00000
      2     -46.4374      2.00000
      3     -46.4306      2.00000
      4     -46.4240      2.00000
      5       0.1072      2.00000
      6       0.4098      2.00000
      7       0.9776      0.00000
      8       1.1726      0.00000
      9       2.7029      0.00000
     10       2.8010      0.00000

 k-point   859 :       0.4667   -0.4000   -0.4000
  band No.  band energies     occupation 
      1     -46.4432      2.00000
      2     -46.4386      2.00000
      3     -46.4297      2.00000
      4     -46.4244      2.00000
      5       0.1072      2.00000
      6       0.3989      2.00000
      7       1.0094      0.00000
      8       1.1562      0.00000
      9       2.7507      0.00000
     10       2.8414      0.00000

 k-point   860 :       0.0000    0.4667    0.4000
  band No.  band energies     occupation 
      1     -46.4506      2.00000
      2     -46.4491      2.00000
      3     -46.4187      2.00000
      4     -46.4179      2.00000
      5      -0.8494      2.00000
      6      -0.5431      2.00000
      7       0.5920      2.00000
      8       0.8865      0.00000
      9       4.8288      0.00000
     10       4.8982      0.00000

 k-point   861 :       0.0000   -0.4000    0.4667
  band No.  band energies     occupation 
      1     -46.4508      2.00000
      2     -46.4492      2.00000
      3     -46.4191      2.00000
      4     -46.4172      2.00000
      5      -0.8490      2.00000
      6      -0.5424      2.00000
      7       0.5906      2.00000
      8       0.8857      0.00000
      9       4.7993      0.00000
     10       4.9318      0.00000

 k-point   862 :       0.0667    0.4667    0.4000
  band No.  band energies     occupation 
      1     -46.4504      2.00000
      2     -46.4487      2.00000
      3     -46.4190      2.00000
      4     -46.4181      2.00000
      5      -0.8210      2.00000
      6      -0.5140      2.00000
      7       0.6102      2.00000
      8       0.9034      0.00000
      9       4.6064      0.00000
     10       4.7939      0.00000

 k-point   863 :       0.0667   -0.4000    0.4667
  band No.  band energies     occupation 
      1     -46.4507      2.00000
      2     -46.4487      2.00000
      3     -46.4196      2.00000
      4     -46.4173      2.00000
      5      -0.8209      2.00000
      6      -0.5143      2.00000
      7       0.6114      2.00000
      8       0.9023      0.00000
      9       4.5777      0.00000
     10       4.8429      0.00000

 k-point   864 :       0.0667   -0.4667   -0.4000
  band No.  band energies     occupation 
      1     -46.4503      2.00000
      2     -46.4489      2.00000
      3     -46.4189      2.00000
      4     -46.4182      2.00000
      5      -0.8221      2.00000
      6      -0.5153      2.00000
      7       0.6122      2.00000
      8       0.9073      0.00000
      9       4.6412      0.00000
     10       4.7731      0.00000

 k-point   865 :       0.0667    0.4000   -0.4667
  band No.  band energies     occupation 
      1     -46.4503      2.00000
      2     -46.4491      2.00000
      3     -46.4194      2.00000
      4     -46.4175      2.00000
      5      -0.8216      2.00000
      6      -0.5138      2.00000
      7       0.6085      2.00000
      8       0.9067      0.00000
      9       4.6697      0.00000
     10       4.7343      0.00000

 k-point   866 :       0.1333    0.4667    0.4000
  band No.  band energies     occupation 
      1     -46.4496      2.00000
      2     -46.4478      2.00000
      3     -46.4200      2.00000
      4     -46.4188      2.00000
      5      -0.7374      2.00000
      6      -0.4285      2.00000
      7       0.6654      2.00000
      8       0.9555      0.00000
      9       4.1713      0.00000
     10       4.4385      0.00000

 k-point   867 :       0.1333   -0.4000    0.4667
  band No.  band energies     occupation 
      1     -46.4500      2.00000
      2     -46.4475      2.00000
      3     -46.4206      2.00000
      4     -46.4180      2.00000
      5      -0.7376      2.00000
      6      -0.4299      2.00000
      7       0.6695      2.00000
      8       0.9542      0.00000
      9       4.1526      0.00000
     10       4.4845      0.00000

 k-point   868 :       0.1333   -0.4667   -0.4000
  band No.  band energies     occupation 
      1     -46.4493      2.00000
      2     -46.4481      2.00000
      3     -46.4197      2.00000
      4     -46.4191      2.00000
      5      -0.7396      2.00000
      6      -0.4312      2.00000
      7       0.6696      2.00000
      8       0.9636      0.00000
      9       4.1994      0.00000
     10       4.4312      0.00000

 k-point   869 :       0.1333    0.4000   -0.4667
  band No.  band energies     occupation 
      1     -46.4493      2.00000
      2     -46.4484      2.00000
      3     -46.4202      2.00000
      4     -46.4183      2.00000
      5      -0.7390      2.00000
      6      -0.4290      2.00000
      7       0.6635      2.00000
      8       0.9634      0.00000
      9       4.2196      0.00000
     10       4.3978      0.00000

 k-point   870 :       0.2000    0.4667    0.4000
  band No.  band energies     occupation 
      1     -46.4483      2.00000
      2     -46.4463      2.00000
      3     -46.4214      2.00000
      4     -46.4201      2.00000
      5      -0.6000      2.00000
      6      -0.2887      2.00000
      7       0.7526      1.95777
      8       1.0343      0.00000
      9       3.6720      0.00000
     10       3.9678      0.00000

 k-point   871 :       0.2000   -0.4000    0.4667
  band No.  band energies     occupation 
      1     -46.4489      2.00000
      2     -46.4459      2.00000
      3     -46.4222      2.00000
      4     -46.4191      2.00000
      5      -0.6008      2.00000
      6      -0.2915      2.00000
      7       0.7602      1.86423
      8       1.0330      0.00000
      9       3.6601      0.00000
     10       4.0071      0.00000

 k-point   872 :       0.2000   -0.4667   -0.4000
  band No.  band energies     occupation 
      1     -46.4478      2.00000
      2     -46.4468      2.00000
      3     -46.4210      2.00000
      4     -46.4204      2.00000
      5      -0.6033      2.00000
      6      -0.2931      2.00000
      7       0.7591      1.88290
      8       1.0471      0.00000
      9       3.6910      0.00000
     10       3.9689      0.00000

 k-point   873 :       0.2000    0.4000   -0.4667
  band No.  band energies     occupation 
      1     -46.4479      2.00000
      2     -46.4470      2.00000
      3     -46.4217      2.00000
      4     -46.4195      2.00000
      5      -0.6028      2.00000
      6      -0.2902      2.00000
      7       0.7509      1.96836
      8       1.0476      0.00000
      9       3.7034      0.00000
     10       3.9473      0.00000

 k-point   874 :       0.2667    0.4667    0.4000
  band No.  band energies     occupation 
      1     -46.4466      2.00000
      2     -46.4445      2.00000
      3     -46.4233      2.00000
      4     -46.4217      2.00000
      5      -0.4115      2.00000
      6      -0.0990      2.00000
      7       0.8593      0.00000
      8       1.1190      0.00000
      9       3.2073      0.00000
     10       3.4836      0.00000

 k-point   875 :       0.2667   -0.4000    0.4667
  band No.  band energies     occupation 
      1     -46.4474      2.00000
      2     -46.4438      2.00000
      3     -46.4243      2.00000
      4     -46.4206      2.00000
      5      -0.4133      2.00000
      6      -0.1036      2.00000
      7       0.8710      0.00000
      8       1.1186      0.00000
      9       3.1981      0.00000
     10       3.5178      0.00000

 k-point   876 :       0.2667   -0.4667   -0.4000
  band No.  band energies     occupation 
      1     -46.4460      2.00000
      2     -46.4452      2.00000
      3     -46.4228      2.00000
      4     -46.4221      2.00000
      5      -0.4161      2.00000
      6      -0.1055      2.00000
      7       0.8686      0.00000
      8       1.1370      0.00000
      9       3.2178      0.00000
     10       3.4879      0.00000

 k-point   877 :       0.2667    0.4000   -0.4667
  band No.  band energies     occupation 
      1     -46.4464      2.00000
      2     -46.4450      2.00000
      3     -46.4237      2.00000
      4     -46.4209      2.00000
      5      -0.4158      2.00000
      6      -0.1025      2.00000
      7       0.8588      0.00000
      8       1.1387      0.00000
      9       3.2238      0.00000
     10       3.4786      0.00000

 k-point   878 :       0.3333    0.4667    0.4000
  band No.  band energies     occupation 
      1     -46.4446      2.00000
      2     -46.4424      2.00000
      3     -46.4254      2.00000
      4     -46.4235      2.00000
      5      -0.1776      2.00000
      6       0.1307      2.00000
      7       0.9551      0.00000
      8       1.1670      0.00000
      9       2.8641      0.00000
     10       3.0586      0.00000

 k-point   879 :       0.3333   -0.4000    0.4667
  band No.  band energies     occupation 
      1     -46.4457      2.00000
      2     -46.4413      2.00000
      3     -46.4268      2.00000
      4     -46.4221      2.00000
      5      -0.1813      2.00000
      6       0.1242      2.00000
      7       0.9696      0.00000
      8       1.1711      0.00000
      9       2.8517      0.00000
     10       3.0959      0.00000

 k-point   880 :       0.3333   -0.4667   -0.4000
  band No.  band energies     occupation 
      1     -46.4439      2.00000
      2     -46.4432      2.00000
      3     -46.4249      2.00000
      4     -46.4239      2.00000
      5      -0.1834      2.00000
      6       0.1215      2.00000
      7       0.9681      0.00000
      8       1.1891      0.00000
      9       2.8678      0.00000
     10       3.0629      0.00000

 k-point   881 :       0.3333    0.4000   -0.4667
  band No.  band energies     occupation 
      1     -46.4449      2.00000
      2     -46.4424      2.00000
      3     -46.4261      2.00000
      4     -46.4225      2.00000
      5      -0.1835      2.00000
      6       0.1234      2.00000
      7       0.9600      0.00000
      8       1.1917      0.00000
      9       2.8662      0.00000
     10       3.0680      0.00000

 k-point   882 :       0.4000    0.4667    0.4000
  band No.  band energies     occupation 
      1     -46.4428      2.00000
      2     -46.4405      2.00000
      3     -46.4275      2.00000
      4     -46.4253      2.00000
      5       0.0898      2.00000
      6       0.3740      2.00000
      7       0.9727      0.00000
      8       1.1342      0.00000
      9       2.7241      0.00000
     10       2.7815      0.00000

 k-point   883 :       0.4000   -0.4000    0.4667
  band No.  band energies     occupation 
      1     -46.4442      2.00000
      2     -46.4386      2.00000
      3     -46.4296      2.00000
      4     -46.4236      2.00000
      5       0.0819      2.00000
      6       0.3665      2.00000
      7       0.9794      0.00000
      8       1.1556      0.00000
      9       2.6886      0.00000
     10       2.8283      0.00000

 k-point   884 :       0.4000   -0.4667   -0.4000
  band No.  band energies     occupation 
      1     -46.4422      2.00000
      2     -46.4412      2.00000
      3     -46.4270      2.00000
      4     -46.4256      2.00000
      5       0.0833      2.00000
      6       0.3612      2.00000
      7       0.9918      0.00000
      8       1.1527      0.00000
      9       2.7269      0.00000
     10       2.7829      0.00000

 k-point   885 :       0.4000    0.4000   -0.4667
  band No.  band energies     occupation 
      1     -46.4436      2.00000
      2     -46.4396      2.00000
      3     -46.4288      2.00000
      4     -46.4239      2.00000
      5       0.0819      2.00000
      6       0.3580      2.00000
      7       0.9993      0.00000
      8       1.1493      0.00000
      9       2.7086      0.00000
     10       2.8191      0.00000

 k-point   886 :       0.4667    0.4667    0.4000
  band No.  band energies     occupation 
      1     -46.4414      2.00000
      2     -46.4392      2.00000
      3     -46.4288      2.00000
      4     -46.4265      2.00000
      5       0.3572      2.00000
      6       0.5177      2.00000
      7       0.9197      0.00000
      8       1.0354      0.00000
      9       2.6968      0.00000
     10       2.8112      0.00000

 k-point   887 :       0.4667   -0.4000    0.4667
  band No.  band energies     occupation 
      1     -46.4431      2.00000
      2     -46.4362      2.00000
      3     -46.4320      2.00000
      4     -46.4246      2.00000
      5       0.3376      2.00000
      6       0.5203      2.00000
      7       0.9083      0.00000
      8       1.0765      0.00000
      9       2.6836      0.00000
     10       2.8513      0.00000

 k-point   888 :       0.4667   -0.4667   -0.4000
  band No.  band energies     occupation 
      1     -46.4412      2.00000
      2     -46.4395      2.00000
      3     -46.4286      2.00000
      4     -46.4266      2.00000
      5       0.3530      2.00000
      6       0.5083      2.00000
      7       0.9345      0.00000
      8       1.0415      0.00000
      9       2.7165      0.00000
     10       2.8976      0.00000

 k-point   889 :       0.4667    0.4000   -0.4667
  band No.  band energies     occupation 
      1     -46.4429      2.00000
      2     -46.4369      2.00000
      3     -46.4314      2.00000
      4     -46.4247      2.00000
      5       0.3448      2.00000
      6       0.4981      2.00000
      7       0.9615      0.00000
      8       1.0391      0.00000
      9       2.7016      0.00000
     10       2.8320      0.00000

 k-point   890 :       0.0000    0.4667    0.4667
  band No.  band energies     occupation 
      1     -46.4498      2.00000
      2     -46.4493      2.00000
      3     -46.4189      2.00000
      4     -46.4182      2.00000
      5      -0.6005      2.00000
      6      -0.4544      2.00000
      7       0.4044      2.00000
      8       0.5470      2.00000
      9       4.9554      0.00000
     10       5.0048      0.00000

 k-point   891 :       0.0667    0.4667    0.4667
  band No.  band energies     occupation 
      1     -46.4496      2.00000
      2     -46.4489      2.00000
      3     -46.4192      2.00000
      4     -46.4185      2.00000
      5      -0.5715      2.00000
      6      -0.4249      2.00000
      7       0.4233      2.00000
      8       0.5651      2.00000
      9       4.7834      0.00000
     10       4.8937      0.00000

 k-point   892 :       0.0667   -0.4667   -0.4667
  band No.  band energies     occupation 
      1     -46.4495      2.00000
      2     -46.4490      2.00000
      3     -46.4192      2.00000
      4     -46.4185      2.00000
      5      -0.5724      2.00000
      6      -0.4251      2.00000
      7       0.4232      2.00000
      8       0.5676      2.00000
      9       4.8260      0.00000
     10       4.8575      0.00000

 k-point   893 :       0.1333    0.4667    0.4667
  band No.  band energies     occupation 
      1     -46.4488      2.00000
      2     -46.4479      2.00000
      3     -46.4202      2.00000
      4     -46.4193      2.00000
      5      -0.4859      2.00000
      6      -0.3372      2.00000
      7       0.4790      2.00000
      8       0.6207      2.00000
      9       4.4024      0.00000
     10       4.5646      0.00000

 k-point   894 :       0.1333   -0.4667   -0.4667
  band No.  band energies     occupation 
      1     -46.4485      2.00000
      2     -46.4482      2.00000
      3     -46.4201      2.00000
      4     -46.4194      2.00000
      5      -0.4878      2.00000
      6      -0.3377      2.00000
      7       0.4786      2.00000
      8       0.6258      2.00000
      9       4.4397      0.00000
     10       4.5373      0.00000

 k-point   895 :       0.2000    0.4667    0.4667
  band No.  band energies     occupation 
      1     -46.4475      2.00000
      2     -46.4464      2.00000
      3     -46.4216      2.00000
      4     -46.4206      2.00000
      5      -0.3457      2.00000
      6      -0.1935      2.00000
      7       0.5680      2.00000
      8       0.7093      2.00000
      9       3.9268      0.00000
     10       4.1343      0.00000

 k-point   896 :       0.2000   -0.4667   -0.4667
  band No.  band energies     occupation 
      1     -46.4471      2.00000
      2     -46.4468      2.00000
      3     -46.4215      2.00000
      4     -46.4207      2.00000
      5      -0.3485      2.00000
      6      -0.1943      2.00000
      7       0.5674      2.00000
      8       0.7172      1.99999
      9       3.9557      0.00000
     10       4.1166      0.00000

 k-point   897 :       0.2667    0.4667    0.4667
  band No.  band energies     occupation 
      1     -46.4458      2.00000
      2     -46.4445      2.00000
      3     -46.4235      2.00000
      4     -46.4222      2.00000
      5      -0.1548      2.00000
      6       0.0017      2.00000
      7       0.6818      2.00000
      8       0.8203      0.00581
      9       3.4439      0.00000
     10       3.6901      0.00000

 k-point   898 :       0.2667   -0.4667   -0.4667
  band No.  band energies     occupation 
      1     -46.4454      2.00000
      2     -46.4449      2.00000
      3     -46.4234      2.00000
      4     -46.4224      2.00000
      5      -0.1587      2.00000
      6       0.0002      2.00000
      7       0.6813      2.00000
      8       0.8313      0.00040
      9       3.4641      0.00000
     10       3.6820      0.00000

 k-point   899 :       0.3333    0.4667    0.4667
  band No.  band energies     occupation 
      1     -46.4439      2.00000
      2     -46.4423      2.00000
      3     -46.4257      2.00000
      4     -46.4241      2.00000
      5       0.0786      2.00000
      6       0.2387      2.00000
      7       0.8014      0.15577
      8       0.9306      0.00000
      9       3.0182      0.00000
     10       3.3059      0.00000

 k-point   900 :       0.3333   -0.4667   -0.4667
  band No.  band energies     occupation 
      1     -46.4435      2.00000
      2     -46.4426      2.00000
      3     -46.4256      2.00000
      4     -46.4243      2.00000
      5       0.0738      2.00000
      6       0.2355      2.00000
      7       0.8025      0.13412
      8       0.9440      0.00000
      9       3.0320      0.00000
     10       3.2809      0.00000

 k-point   901 :       0.4000    0.4667    0.4667
  band No.  band energies     occupation 
      1     -46.4420      2.00000
      2     -46.4400      2.00000
      3     -46.4280      2.00000
      4     -46.4259      2.00000
      5       0.3371      2.00000
      6       0.4951      2.00000
      7       0.8822      0.00000
      8       0.9981      0.00000
      9       2.7258      0.00000
     10       2.9115      0.00000

 k-point   902 :       0.4000   -0.4667   -0.4667
  band No.  band energies     occupation 
      1     -46.4418      2.00000
      2     -46.4403      2.00000
      3     -46.4278      2.00000
      4     -46.4260      2.00000
      5       0.3327      2.00000
      6       0.4871      2.00000
      7       0.8922      0.00000
      8       1.0071      0.00000
      9       2.7334      0.00000
     10       2.9242      0.00000

 k-point   903 :       0.4667    0.4667    0.4667
  band No.  band energies     occupation 
      1     -46.4407      2.00000
      2     -46.4383      2.00000
      3     -46.4297      2.00000
      4     -46.4271      2.00000
      5       0.5740      2.00000
      6       0.7009      2.00000
      7       0.8714      0.00000
      8       0.9862      0.00000
      9       2.6135      0.00000
     10       2.7431      0.00000

 k-point   904 :       0.4667   -0.4667   -0.4667
  band No.  band energies     occupation 
      1     -46.4406      2.00000
      2     -46.4385      2.00000
      3     -46.4296      2.00000
      4     -46.4272      2.00000
      5       0.5753      2.00000
      6       0.6800      2.00000
      7       0.9020      0.00000
      8       0.9782      0.00000
      9       2.6333      0.00000
     10       2.7566      0.00000


--------------------------------------------------------------------------------------------------------


 soft charge-density along one line, spin component            1
         0         1         2         3         4         5         6         7         8         9
 total charge-density along one line
 
 pseudopotential strength for first ion, spin component:            1
-41.118   2.782  -0.001   0.000  -0.001
  2.782  -9.130  -0.001  -0.000  -0.002
 -0.001  -0.001   0.125   0.000  -0.000
  0.000  -0.000   0.000   0.125  -0.000
 -0.001  -0.002  -0.000  -0.000   0.125
 total augmentation occupancy for first ion, spin component:            1
  2.001   0.006   0.001  -0.000   0.002
  0.006   0.977   0.005  -0.002   0.006
  0.001   0.005   0.022  -0.001   0.000
 -0.000  -0.002  -0.001   0.022   0.000
  0.002   0.006   0.000   0.000   0.021


------------------------ aborting loop because EDIFF is reached ----------------------------------------


    CHARGE:  cpu time      0.9025: real time      0.9046
    FORLOC:  cpu time      0.0023: real time      0.0023
    FORNL :  cpu time      4.8313: real time      4.8438
    STRESS:  cpu time     14.7987: real time     14.8386
    FORHAR:  cpu time      0.0015: real time      0.0015
    MIXING:  cpu time      0.0046: real time      0.0046
    OFIELD:  cpu time      0.0000: real time      0.0000

  FORCE on cell =-STRESS in cart. coord.  units (eV):
  Direction    XX          YY          ZZ          XY          YZ          ZX
  --------------------------------------------------------------------------------------
  Alpha Z     4.41856     4.41856     4.41856
  Ewald     -87.71671   -85.98832   -88.88415     0.00000     0.00000    -3.44177
  Hartree    57.13897    57.59880    56.46514    -0.00000    -0.00000    -1.40188
  E(xc)     -53.06622   -53.06739   -53.06798     0.00000     0.00000    -0.00078
  Local     -83.26079   -85.03947   -81.40197     0.00000     0.00000     4.41256
  n-local   -77.23444   -77.22225   -77.20203    -0.00664    -0.00221     0.03797
  augment    68.45318    68.43671    68.45827     0.00000     0.00000     0.02488
  Kinetic   171.52022   171.40873   171.35980    -0.08445    -0.14035    -0.05696
  Fock        0.00000     0.00000     0.00000     0.00000     0.00000     0.00000
  -------------------------------------------------------------------------------------
  Total       0.25277     0.54537     0.14564     0.00000     0.00000    -0.42598
  in kB       4.85840    10.48237     2.79929     0.00000     0.00000    -8.18769
  external pressure =        6.05 kB  Pullay stress =        0.00 kB


 VOLUME and BASIS-vectors are now :
 -----------------------------------------------------------------------------
  energy-cutoff  :      600.00
  volume of cell :       83.36
      direct lattice vectors                 reciprocal lattice vectors
     4.221464692  0.000000000  0.000000000     0.236884606  0.000000000  0.000000000
     0.000000000  4.443647044  0.000000000     0.000000000  0.225040376  0.000000000
     0.000000000  0.000000000  4.443647044     0.000000000  0.000000000  0.225040376

  length of vectors
     4.221464692  4.443647044  4.443647044     0.236884606  0.225040376  0.225040376


 FORCES acting on ions
    electron-ion (+dipol)            ewald-force                    non-local-force                 convergence-correction
 -----------------------------------------------------------------------------------------------
   0.183E+01 0.963E+00 -.278E+00   -.193E+01 -.101E+01 0.254E+00   -.524E-01 -.727E-01 0.653E-01   0.644E-04 0.286E-04 0.541E-04
   -.187E+01 -.939E+00 0.105E+01   0.191E+01 0.101E+01 -.108E+01   0.113E+00 0.498E-01 -.105E+00   -.348E-05 -.145E-04 0.975E-04
   -.183E+01 0.963E+00 0.278E+00   0.193E+01 -.101E+01 -.254E+00   0.524E-01 -.727E-01 -.653E-01   -.644E-04 0.286E-04 -.541E-04
   0.187E+01 -.939E+00 -.105E+01   -.191E+01 0.101E+01 0.108E+01   -.113E+00 0.498E-01 0.105E+00   0.347E-05 -.145E-04 -.975E-04
 -----------------------------------------------------------------------------------------------
   -.256E-04 0.478E-01 -.426E-05   0.000E+00 0.222E-15 0.666E-15   0.000E+00 -.459E-01 0.000E+00   -.388E-08 0.283E-04 -.294E-09
 
 
 POSITION                                       TOTAL-FORCE (eV/Angst)
 -----------------------------------------------------------------------------------
      3.88583      0.55781      2.77964        -0.157630     -0.124875      0.041182
      1.66401      1.66401      1.66401         0.157483      0.124875     -0.132586
      0.55781      2.77964      3.88583         0.157630     -0.124875     -0.041182
      2.77964      3.88583      0.55781        -0.157483      0.124875      0.132586
 -----------------------------------------------------------------------------------
    total drift:                               -0.000026      0.001935     -0.000004


--------------------------------------------------------------------------------------------------------



  FREE ENERGIE OF THE ION-ELECTRON SYSTEM (eV)
  ---------------------------------------------------
  free  energy   TOTEN  =        -6.54679813 eV

  energy  without entropy=       -6.54655651  energy(sigma->0) =       -6.54667732
 


--------------------------------------------------------------------------------------------------------


    POTLOK:  cpu time      0.0099: real time      0.0111


--------------------------------------------------------------------------------------------------------


     LOOP+:  cpu time    155.5295: real time    156.0264
    4ORBIT:  cpu time      0.0000: real time      0.0000

 total amount of memory used by VASP MPI-rank0   472855. kBytes
=======================================================================

   base                                    :      30000. kBytes
   nonlr-proj                              :        616. kBytes
   fftplans                                :      13060. kBytes
   grid                                    :      20134. kBytes
   one-center                              :          4. kBytes
   wavefun                                 :     409041. kBytes
 
  
  
 General timing and accounting informations for this job:
 ========================================================
  
                  Total CPU time used (sec):      159.357
                            User time (sec):      158.678
                          System time (sec):        0.679
                         Elapsed time (sec):      159.912
  
                   Maximum memory used (kb):     1834252.
                   Average memory used (kb):          N/A
  
                          Minor page faults:       328565
                          Major page faults:          523
                 Voluntary context switches:         4874
