Li3                                     
   1.00000000000000     
     0.0000000000000000    0.0000000000000000   -2.8876986747152169
    -2.4533901437173702   -4.2494473297268698    0.0000000000000000
    -2.4534351249249924    4.2494734610851763    0.0000000000000000
   Li
     3
Direct
     0.0000000000000000    0.0000000000000000    0.0000000000000000
     0.5000000000000000    0.3333330817844171    0.6666655408922466
     0.5000000000000000    0.6666669182155829    0.3333344591077534
 
  0.00000000E+00  0.00000000E+00  0.00000000E+00
  0.00000000E+00  0.00000000E+00  0.00000000E+00
  0.00000000E+00  0.00000000E+00  0.00000000E+00
