Li
 1.0000000000000000
     7.3602711008865045   -4.2494545014054461    0.0000000000000000
     2.4534237002955015    4.2494545014054461    0.0000000000000000
     0.0000000000000000    0.0000000000000000    2.8876986747152169
 Li 
   6
Direct
  0.0000000000000000  0.0000000000000000  0.0000000000000000
  0.4999999999999999  0.1666666666666667  0.4999999999999999
  0.4999999999999999  0.8333333333333336  0.4999999999999999
  0.4999999999999999  0.4999999999999999  0.0000000000000000
  0.9999999999999999  0.6666666666666667  0.4999999999999999
  0.0000000000000001  0.3333333333333334  0.4999999999999999
