4000
Lattice="46.65829396302219 0.0 0.0 0.0 44.43647044097351 0.0 0.0 0.0 44.43647044097351" Properties=species:S:1:pos:R:3 pbc="T T T"
Li       3.88583404       0.55781300       2.77963653
Li       1.66401052       1.66401052       1.66401052
Li       0.55781300       2.77963653       3.88583404
Li       2.77963653       3.88583404       0.55781300
Li       3.88583404       0.55781300       7.22328357
Li       1.66401052       1.66401052       6.10765756
Li       0.55781300       2.77963653       8.32948108
Li       2.77963653       3.88583404       5.00146005
Li       3.88583404       0.55781300      11.66693061
Li       1.66401052       1.66401052      10.55130461
Li       0.55781300       2.77963653      12.77312813
Li       2.77963653       3.88583404       9.44510709
Li       3.88583404       0.55781300      16.11057766
Li       1.66401052       1.66401052      14.99495165
Li       0.55781300       2.77963653      17.21677517
Li       2.77963653       3.88583404      13.88875414
Li       3.88583404       0.55781300      20.55422470
Li       1.66401052       1.66401052      19.43859870
Li       0.55781300       2.77963653      21.66042222
Li       2.77963653       3.88583404      18.33240118
Li       3.88583404       0.55781300      24.99787175
Li       1.66401052       1.66401052      23.88224574
Li       0.55781300       2.77963653      26.10406926
Li       2.77963653       3.88583404      22.77604822
Li       3.88583404       0.55781300      29.44151879
Li       1.66401052       1.66401052      28.32589278
Li       0.55781300       2.77963653      30.54771631
Li       2.77963653       3.88583404      27.21969527
Li       3.88583404       0.55781300      33.88516583
Li       1.66401052       1.66401052      32.76953983
Li       0.55781300       2.77963653      34.99136335
Li       2.77963653       3.88583404      31.66334231
Li       3.88583404       0.55781300      38.32881288
Li       1.66401052       1.66401052      37.21318687
Li       0.55781300       2.77963653      39.43501039
Li       2.77963653       3.88583404      36.10698936
Li       3.88583404       0.55781300      42.77245992
Li       1.66401052       1.66401052      41.65683392
Li       0.55781300       2.77963653      43.87865744
Li       2.77963653       3.88583404      40.55063640
Li       3.88583404       5.00146005       2.77963653
Li       1.66401052       6.10765756       1.66401052
Li       0.55781300       7.22328357       3.88583404
Li       2.77963653       8.32948108       0.55781300
Li       3.88583404       5.00146005       7.22328357
Li       1.66401052       6.10765756       6.10765756
Li       0.55781300       7.22328357       8.32948108
Li       2.77963653       8.32948108       5.00146005
Li       3.88583404       5.00146005      11.66693061
Li       1.66401052       6.10765756      10.55130461
Li       0.55781300       7.22328357      12.77312813
Li       2.77963653       8.32948108       9.44510709
Li       3.88583404       5.00146005      16.11057766
Li       1.66401052       6.10765756      14.99495165
Li       0.55781300       7.22328357      17.21677517
Li       2.77963653       8.32948108      13.88875414
Li       3.88583404       5.00146005      20.55422470
Li       1.66401052       6.10765756      19.43859870
Li       0.55781300       7.22328357      21.66042222
Li       2.77963653       8.32948108      18.33240118
Li       3.88583404       5.00146005      24.99787175
Li       1.66401052       6.10765756      23.88224574
Li       0.55781300       7.22328357      26.10406926
Li       2.77963653       8.32948108      22.77604822
Li       3.88583404       5.00146005      29.44151879
Li       1.66401052       6.10765756      28.32589278
Li       0.55781300       7.22328357      30.54771631
Li       2.77963653       8.32948108      27.21969527
Li       3.88583404       5.00146005      33.88516583
Li       1.66401052       6.10765756      32.76953983
Li       0.55781300       7.22328357      34.99136335
Li       2.77963653       8.32948108      31.66334231
Li       3.88583404       5.00146005      38.32881288
Li       1.66401052       6.10765756      37.21318687
Li       0.55781300       7.22328357      39.43501039
Li       2.77963653       8.32948108      36.10698936
Li       3.88583404       5.00146005      42.77245992
Li       1.66401052       6.10765756      41.65683392
Li       0.55781300       7.22328357      43.87865744
Li       2.77963653       8.32948108      40.55063640
Li       3.88583404       9.44510709       2.77963653
Li       1.66401052      10.55130461       1.66401052
Li       0.55781300      11.66693061       3.88583404
Li       2.77963653      12.77312813       0.55781300
Li       3.88583404       9.44510709       7.22328357
Li       1.66401052      10.55130461       6.10765756
Li       0.55781300      11.66693061       8.32948108
Li       2.77963653      12.77312813       5.00146005
Li       3.88583404       9.44510709      11.66693061
Li       1.66401052      10.55130461      10.55130461
Li       0.55781300      11.66693061      12.77312813
Li       2.77963653      12.77312813       9.44510709
Li       3.88583404       9.44510709      16.11057766
Li       1.66401052      10.55130461      14.99495165
Li       0.55781300      11.66693061      17.21677517
Li       2.77963653      12.77312813      13.88875414
Li       3.88583404       9.44510709      20.55422470
Li       1.66401052      10.55130461      19.43859870
Li       0.55781300      11.66693061      21.66042222
Li       2.77963653      12.77312813      18.33240118
Li       3.88583404       9.44510709      24.99787175
Li       1.66401052      10.55130461      23.88224574
Li       0.55781300      11.66693061      26.10406926
Li       2.77963653      12.77312813      22.77604822
Li       3.88583404       9.44510709      29.44151879
Li       1.66401052      10.55130461      28.32589278
Li       0.55781300      11.66693061      30.54771631
Li       2.77963653      12.77312813      27.21969527
Li       3.88583404       9.44510709      33.88516583
Li       1.66401052      10.55130461      32.76953983
Li       0.55781300      11.66693061      34.99136335
Li       2.77963653      12.77312813      31.66334231
Li       3.88583404       9.44510709      38.32881288
Li       1.66401052      10.55130461      37.21318687
Li       0.55781300      11.66693061      39.43501039
Li       2.77963653      12.77312813      36.10698936
Li       3.88583404       9.44510709      42.77245992
Li       1.66401052      10.55130461      41.65683392
Li       0.55781300      11.66693061      43.87865744
Li       2.77963653      12.77312813      40.55063640
Li       3.88583404      13.88875414       2.77963653
Li       1.66401052      14.99495165       1.66401052
Li       0.55781300      16.11057766       3.88583404
Li       2.77963653      17.21677517       0.55781300
Li       3.88583404      13.88875414       7.22328357
Li       1.66401052      14.99495165       6.10765756
Li       0.55781300      16.11057766       8.32948108
Li       2.77963653      17.21677517       5.00146005
Li       3.88583404      13.88875414      11.66693061
Li       1.66401052      14.99495165      10.55130461
Li       0.55781300      16.11057766      12.77312813
Li       2.77963653      17.21677517       9.44510709
Li       3.88583404      13.88875414      16.11057766
Li       1.66401052      14.99495165      14.99495165
Li       0.55781300      16.11057766      17.21677517
Li       2.77963653      17.21677517      13.88875414
Li       3.88583404      13.88875414      20.55422470
Li       1.66401052      14.99495165      19.43859870
Li       0.55781300      16.11057766      21.66042222
Li       2.77963653      17.21677517      18.33240118
Li       3.88583404      13.88875414      24.99787175
Li       1.66401052      14.99495165      23.88224574
Li       0.55781300      16.11057766      26.10406926
Li       2.77963653      17.21677517      22.77604822
Li       3.88583404      13.88875414      29.44151879
Li       1.66401052      14.99495165      28.32589278
Li       0.55781300      16.11057766      30.54771631
Li       2.77963653      17.21677517      27.21969527
Li       3.88583404      13.88875414      33.88516583
Li       1.66401052      14.99495165      32.76953983
Li       0.55781300      16.11057766      34.99136335
Li       2.77963653      17.21677517      31.66334231
Li       3.88583404      13.88875414      38.32881288
Li       1.66401052      14.99495165      37.21318687
Li       0.55781300      16.11057766      39.43501039
Li       2.77963653      17.21677517      36.10698936
Li       3.88583404      13.88875414      42.77245992
Li       1.66401052      14.99495165      41.65683392
Li       0.55781300      16.11057766      43.87865744
Li       2.77963653      17.21677517      40.55063640
Li       3.88583404      18.33240118       2.77963653
Li       1.66401052      19.43859870       1.66401052
Li       0.55781300      20.55422470       3.88583404
Li       2.77963653      21.66042222       0.55781300
Li       3.88583404      18.33240118       7.22328357
Li       1.66401052      19.43859870       6.10765756
Li       0.55781300      20.55422470       8.32948108
Li       2.77963653      21.66042222       5.00146005
Li       3.88583404      18.33240118      11.66693061
Li       1.66401052      19.43859870      10.55130461
Li       0.55781300      20.55422470      12.77312813
Li       2.77963653      21.66042222       9.44510709
Li       3.88583404      18.33240118      16.11057766
Li       1.66401052      19.43859870      14.99495165
Li       0.55781300      20.55422470      17.21677517
Li       2.77963653      21.66042222      13.88875414
Li       3.88583404      18.33240118      20.55422470
Li       1.66401052      19.43859870      19.43859870
Li       0.55781300      20.55422470      21.66042222
Li       2.77963653      21.66042222      18.33240118
Li       3.88583404      18.33240118      24.99787175
Li       1.66401052      19.43859870      23.88224574
Li       0.55781300      20.55422470      26.10406926
Li       2.77963653      21.66042222      22.77604822
Li       3.88583404      18.33240118      29.44151879
Li       1.66401052      19.43859870      28.32589278
Li       0.55781300      20.55422470      30.54771631
Li       2.77963653      21.66042222      27.21969527
Li       3.88583404      18.33240118      33.88516583
Li       1.66401052      19.43859870      32.76953983
Li       0.55781300      20.55422470      34.99136335
Li       2.77963653      21.66042222      31.66334231
Li       3.88583404      18.33240118      38.32881288
Li       1.66401052      19.43859870      37.21318687
Li       0.55781300      20.55422470      39.43501039
Li       2.77963653      21.66042222      36.10698936
Li       3.88583404      18.33240118      42.77245992
Li       1.66401052      19.43859870      41.65683392
Li       0.55781300      20.55422470      43.87865744
Li       2.77963653      21.66042222      40.55063640
Li       3.88583404      22.77604822       2.77963653
Li       1.66401052      23.88224574       1.66401052
Li       0.55781300      24.99787175       3.88583404
Li       2.77963653      26.10406926       0.55781300
Li       3.88583404      22.77604822       7.22328357
Li       1.66401052      23.88224574       6.10765756
Li       0.55781300      24.99787175       8.32948108
Li       2.77963653      26.10406926       5.00146005
Li       3.88583404      22.77604822      11.66693061
Li       1.66401052      23.88224574      10.55130461
Li       0.55781300      24.99787175      12.77312813
Li       2.77963653      26.10406926       9.44510709
Li       3.88583404      22.77604822      16.11057766
Li       1.66401052      23.88224574      14.99495165
Li       0.55781300      24.99787175      17.21677517
Li       2.77963653      26.10406926      13.88875414
Li       3.88583404      22.77604822      20.55422470
Li       1.66401052      23.88224574      19.43859870
Li       0.55781300      24.99787175      21.66042222
Li       2.77963653      26.10406926      18.33240118
Li       3.88583404      22.77604822      24.99787175
Li       1.66401052      23.88224574      23.88224574
Li       0.55781300      24.99787175      26.10406926
Li       2.77963653      26.10406926      22.77604822
Li       3.88583404      22.77604822      29.44151879
Li       1.66401052      23.88224574      28.32589278
Li       0.55781300      24.99787175      30.54771631
Li       2.77963653      26.10406926      27.21969527
Li       3.88583404      22.77604822      33.88516583
Li       1.66401052      23.88224574      32.76953983
Li       0.55781300      24.99787175      34.99136335
Li       2.77963653      26.10406926      31.66334231
Li       3.88583404      22.77604822      38.32881288
Li       1.66401052      23.88224574      37.21318687
Li       0.55781300      24.99787175      39.43501039
Li       2.77963653      26.10406926      36.10698936
Li       3.88583404      22.77604822      42.77245992
Li       1.66401052      23.88224574      41.65683392
Li       0.55781300      24.99787175      43.87865744
Li       2.77963653      26.10406926      40.55063640
Li       3.88583404      27.21969527       2.77963653
Li       1.66401052      28.32589278       1.66401052
Li       0.55781300      29.44151879       3.88583404
Li       2.77963653      30.54771631       0.55781300
Li       3.88583404      27.21969527       7.22328357
Li       1.66401052      28.32589278       6.10765756
Li       0.55781300      29.44151879       8.32948108
Li       2.77963653      30.54771631       5.00146005
Li       3.88583404      27.21969527      11.66693061
Li       1.66401052      28.32589278      10.55130461
Li       0.55781300      29.44151879      12.77312813
Li       2.77963653      30.54771631       9.44510709
Li       3.88583404      27.21969527      16.11057766
Li       1.66401052      28.32589278      14.99495165
Li       0.55781300      29.44151879      17.21677517
Li       2.77963653      30.54771631      13.88875414
Li       3.88583404      27.21969527      20.55422470
Li       1.66401052      28.32589278      19.43859870
Li       0.55781300      29.44151879      21.66042222
Li       2.77963653      30.54771631      18.33240118
Li       3.88583404      27.21969527      24.99787175
Li       1.66401052      28.32589278      23.88224574
Li       0.55781300      29.44151879      26.10406926
Li       2.77963653      30.54771631      22.77604822
Li       3.88583404      27.21969527      29.44151879
Li       1.66401052      28.32589278      28.32589278
Li       0.55781300      29.44151879      30.54771631
Li       2.77963653      30.54771631      27.21969527
Li       3.88583404      27.21969527      33.88516583
Li       1.66401052      28.32589278      32.76953983
Li       0.55781300      29.44151879      34.99136335
Li       2.77963653      30.54771631      31.66334231
Li       3.88583404      27.21969527      38.32881288
Li       1.66401052      28.32589278      37.21318687
Li       0.55781300      29.44151879      39.43501039
Li       2.77963653      30.54771631      36.10698936
Li       3.88583404      27.21969527      42.77245992
Li       1.66401052      28.32589278      41.65683392
Li       0.55781300      29.44151879      43.87865744
Li       2.77963653      30.54771631      40.55063640
Li       3.88583404      31.66334231       2.77963653
Li       1.66401052      32.76953983       1.66401052
Li       0.55781300      33.88516583       3.88583404
Li       2.77963653      34.99136335       0.55781300
Li       3.88583404      31.66334231       7.22328357
Li       1.66401052      32.76953983       6.10765756
Li       0.55781300      33.88516583       8.32948108
Li       2.77963653      34.99136335       5.00146005
Li       3.88583404      31.66334231      11.66693061
Li       1.66401052      32.76953983      10.55130461
Li       0.55781300      33.88516583      12.77312813
Li       2.77963653      34.99136335       9.44510709
Li       3.88583404      31.66334231      16.11057766
Li       1.66401052      32.76953983      14.99495165
Li       0.55781300      33.88516583      17.21677517
Li       2.77963653      34.99136335      13.88875414
Li       3.88583404      31.66334231      20.55422470
Li       1.66401052      32.76953983      19.43859870
Li       0.55781300      33.88516583      21.66042222
Li       2.77963653      34.99136335      18.33240118
Li       3.88583404      31.66334231      24.99787175
Li       1.66401052      32.76953983      23.88224574
Li       0.55781300      33.88516583      26.10406926
Li       2.77963653      34.99136335      22.77604822
Li       3.88583404      31.66334231      29.44151879
Li       1.66401052      32.76953983      28.32589278
Li       0.55781300      33.88516583      30.54771631
Li       2.77963653      34.99136335      27.21969527
Li       3.88583404      31.66334231      33.88516583
Li       1.66401052      32.76953983      32.76953983
Li       0.55781300      33.88516583      34.99136335
Li       2.77963653      34.99136335      31.66334231
Li       3.88583404      31.66334231      38.32881288
Li       1.66401052      32.76953983      37.21318687
Li       0.55781300      33.88516583      39.43501039
Li       2.77963653      34.99136335      36.10698936
Li       3.88583404      31.66334231      42.77245992
Li       1.66401052      32.76953983      41.65683392
Li       0.55781300      33.88516583      43.87865744
Li       2.77963653      34.99136335      40.55063640
Li       3.88583404      36.10698936       2.77963653
Li       1.66401052      37.21318687       1.66401052
Li       0.55781300      38.32881288       3.88583404
Li       2.77963653      39.43501039       0.55781300
Li       3.88583404      36.10698936       7.22328357
Li       1.66401052      37.21318687       6.10765756
Li       0.55781300      38.32881288       8.32948108
Li       2.77963653      39.43501039       5.00146005
Li       3.88583404      36.10698936      11.66693061
Li       1.66401052      37.21318687      10.55130461
Li       0.55781300      38.32881288      12.77312813
Li       2.77963653      39.43501039       9.44510709
Li       3.88583404      36.10698936      16.11057766
Li       1.66401052      37.21318687      14.99495165
Li       0.55781300      38.32881288      17.21677517
Li       2.77963653      39.43501039      13.88875414
Li       3.88583404      36.10698936      20.55422470
Li       1.66401052      37.21318687      19.43859870
Li       0.55781300      38.32881288      21.66042222
Li       2.77963653      39.43501039      18.33240118
Li       3.88583404      36.10698936      24.99787175
Li       1.66401052      37.21318687      23.88224574
Li       0.55781300      38.32881288      26.10406926
Li       2.77963653      39.43501039      22.77604822
Li       3.88583404      36.10698936      29.44151879
Li       1.66401052      37.21318687      28.32589278
Li       0.55781300      38.32881288      30.54771631
Li       2.77963653      39.43501039      27.21969527
Li       3.88583404      36.10698936      33.88516583
Li       1.66401052      37.21318687      32.76953983
Li       0.55781300      38.32881288      34.99136335
Li       2.77963653      39.43501039      31.66334231
Li       3.88583404      36.10698936      38.32881288
Li       1.66401052      37.21318687      37.21318687
Li       0.55781300      38.32881288      39.43501039
Li       2.77963653      39.43501039      36.10698936
Li       3.88583404      36.10698936      42.77245992
Li       1.66401052      37.21318687      41.65683392
Li       0.55781300      38.32881288      43.87865744
Li       2.77963653      39.43501039      40.55063640
Li       3.88583404      40.55063640       2.77963653
Li       1.66401052      41.65683392       1.66401052
Li       0.55781300      42.77245992       3.88583404
Li       2.77963653      43.87865744       0.55781300
Li       3.88583404      40.55063640       7.22328357
Li       1.66401052      41.65683392       6.10765756
Li       0.55781300      42.77245992       8.32948108
Li       2.77963653      43.87865744       5.00146005
Li       3.88583404      40.55063640      11.66693061
Li       1.66401052      41.65683392      10.55130461
Li       0.55781300      42.77245992      12.77312813
Li       2.77963653      43.87865744       9.44510709
Li       3.88583404      40.55063640      16.11057766
Li       1.66401052      41.65683392      14.99495165
Li       0.55781300      42.77245992      17.21677517
Li       2.77963653      43.87865744      13.88875414
Li       3.88583404      40.55063640      20.55422470
Li       1.66401052      41.65683392      19.43859870
Li       0.55781300      42.77245992      21.66042222
Li       2.77963653      43.87865744      18.33240118
Li       3.88583404      40.55063640      24.99787175
Li       1.66401052      41.65683392      23.88224574
Li       0.55781300      42.77245992      26.10406926
Li       2.77963653      43.87865744      22.77604822
Li       3.88583404      40.55063640      29.44151879
Li       1.66401052      41.65683392      28.32589278
Li       0.55781300      42.77245992      30.54771631
Li       2.77963653      43.87865744      27.21969527
Li       3.88583404      40.55063640      33.88516583
Li       1.66401052      41.65683392      32.76953983
Li       0.55781300      42.77245992      34.99136335
Li       2.77963653      43.87865744      31.66334231
Li       3.88583404      40.55063640      38.32881288
Li       1.66401052      41.65683392      37.21318687
Li       0.55781300      42.77245992      39.43501039
Li       2.77963653      43.87865744      36.10698936
Li       3.88583404      40.55063640      42.77245992
Li       1.66401052      41.65683392      41.65683392
Li       0.55781300      42.77245992      43.87865744
Li       2.77963653      43.87865744      40.55063640
Li       8.55166344       0.55781300       2.77963653
Li       6.32983992       1.66401052       1.66401052
Li       5.22364240       2.77963653       3.88583404
Li       7.44546592       3.88583404       0.55781300
Li       8.55166344       0.55781300       7.22328357
Li       6.32983992       1.66401052       6.10765756
Li       5.22364240       2.77963653       8.32948108
Li       7.44546592       3.88583404       5.00146005
Li       8.55166344       0.55781300      11.66693061
Li       6.32983992       1.66401052      10.55130461
Li       5.22364240       2.77963653      12.77312813
Li       7.44546592       3.88583404       9.44510709
Li       8.55166344       0.55781300      16.11057766
Li       6.32983992       1.66401052      14.99495165
Li       5.22364240       2.77963653      17.21677517
Li       7.44546592       3.88583404      13.88875414
Li       8.55166344       0.55781300      20.55422470
Li       6.32983992       1.66401052      19.43859870
Li       5.22364240       2.77963653      21.66042222
Li       7.44546592       3.88583404      18.33240118
Li       8.55166344       0.55781300      24.99787175
Li       6.32983992       1.66401052      23.88224574
Li       5.22364240       2.77963653      26.10406926
Li       7.44546592       3.88583404      22.77604822
Li       8.55166344       0.55781300      29.44151879
Li       6.32983992       1.66401052      28.32589278
Li       5.22364240       2.77963653      30.54771631
Li       7.44546592       3.88583404      27.21969527
Li       8.55166344       0.55781300      33.88516583
Li       6.32983992       1.66401052      32.76953983
Li       5.22364240       2.77963653      34.99136335
Li       7.44546592       3.88583404      31.66334231
Li       8.55166344       0.55781300      38.32881288
Li       6.32983992       1.66401052      37.21318687
Li       5.22364240       2.77963653      39.43501039
Li       7.44546592       3.88583404      36.10698936
Li       8.55166344       0.55781300      42.77245992
Li       6.32983992       1.66401052      41.65683392
Li       5.22364240       2.77963653      43.87865744
Li       7.44546592       3.88583404      40.55063640
Li       8.55166344       5.00146005       2.77963653
Li       6.32983992       6.10765756       1.66401052
Li       5.22364240       7.22328357       3.88583404
Li       7.44546592       8.32948108       0.55781300
Li       8.55166344       5.00146005       7.22328357
Li       6.32983992       6.10765756       6.10765756
Li       5.22364240       7.22328357       8.32948108
Li       7.44546592       8.32948108       5.00146005
Li       8.55166344       5.00146005      11.66693061
Li       6.32983992       6.10765756      10.55130461
Li       5.22364240       7.22328357      12.77312813
Li       7.44546592       8.32948108       9.44510709
Li       8.55166344       5.00146005      16.11057766
Li       6.32983992       6.10765756      14.99495165
Li       5.22364240       7.22328357      17.21677517
Li       7.44546592       8.32948108      13.88875414
Li       8.55166344       5.00146005      20.55422470
Li       6.32983992       6.10765756      19.43859870
Li       5.22364240       7.22328357      21.66042222
Li       7.44546592       8.32948108      18.33240118
Li       8.55166344       5.00146005      24.99787175
Li       6.32983992       6.10765756      23.88224574
Li       5.22364240       7.22328357      26.10406926
Li       7.44546592       8.32948108      22.77604822
Li       8.55166344       5.00146005      29.44151879
Li       6.32983992       6.10765756      28.32589278
Li       5.22364240       7.22328357      30.54771631
Li       7.44546592       8.32948108      27.21969527
Li       8.55166344       5.00146005      33.88516583
Li       6.32983992       6.10765756      32.76953983
Li       5.22364240       7.22328357      34.99136335
Li       7.44546592       8.32948108      31.66334231
Li       8.55166344       5.00146005      38.32881288
Li       6.32983992       6.10765756      37.21318687
Li       5.22364240       7.22328357      39.43501039
Li       7.44546592       8.32948108      36.10698936
Li       8.55166344       5.00146005      42.77245992
Li       6.32983992       6.10765756      41.65683392
Li       5.22364240       7.22328357      43.87865744
Li       7.44546592       8.32948108      40.55063640
Li       8.55166344       9.44510709       2.77963653
Li       6.32983992      10.55130461       1.66401052
Li       5.22364240      11.66693061       3.88583404
Li       7.44546592      12.77312813       0.55781300
Li       8.55166344       9.44510709       7.22328357
Li       6.32983992      10.55130461       6.10765756
Li       5.22364240      11.66693061       8.32948108
Li       7.44546592      12.77312813       5.00146005
Li       8.55166344       9.44510709      11.66693061
Li       6.32983992      10.55130461      10.55130461
Li       5.22364240      11.66693061      12.77312813
Li       7.44546592      12.77312813       9.44510709
Li       8.55166344       9.44510709      16.11057766
Li       6.32983992      10.55130461      14.99495165
Li       5.22364240      11.66693061      17.21677517
Li       7.44546592      12.77312813      13.88875414
Li       8.55166344       9.44510709      20.55422470
Li       6.32983992      10.55130461      19.43859870
Li       5.22364240      11.66693061      21.66042222
Li       7.44546592      12.77312813      18.33240118
Li       8.55166344       9.44510709      24.99787175
Li       6.32983992      10.55130461      23.88224574
Li       5.22364240      11.66693061      26.10406926
Li       7.44546592      12.77312813      22.77604822
Li       8.55166344       9.44510709      29.44151879
Li       6.32983992      10.55130461      28.32589278
Li       5.22364240      11.66693061      30.54771631
Li       7.44546592      12.77312813      27.21969527
Li       8.55166344       9.44510709      33.88516583
Li       6.32983992      10.55130461      32.76953983
Li       5.22364240      11.66693061      34.99136335
Li       7.44546592      12.77312813      31.66334231
Li       8.55166344       9.44510709      38.32881288
Li       6.32983992      10.55130461      37.21318687
Li       5.22364240      11.66693061      39.43501039
Li       7.44546592      12.77312813      36.10698936
Li       8.55166344       9.44510709      42.77245992
Li       6.32983992      10.55130461      41.65683392
Li       5.22364240      11.66693061      43.87865744
Li       7.44546592      12.77312813      40.55063640
Li       8.55166344      13.88875414       2.77963653
Li       6.32983992      14.99495165       1.66401052
Li       5.22364240      16.11057766       3.88583404
Li       7.44546592      17.21677517       0.55781300
Li       8.55166344      13.88875414       7.22328357
Li       6.32983992      14.99495165       6.10765756
Li       5.22364240      16.11057766       8.32948108
Li       7.44546592      17.21677517       5.00146005
Li       8.55166344      13.88875414      11.66693061
Li       6.32983992      14.99495165      10.55130461
Li       5.22364240      16.11057766      12.77312813
Li       7.44546592      17.21677517       9.44510709
Li       8.55166344      13.88875414      16.11057766
Li       6.32983992      14.99495165      14.99495165
Li       5.22364240      16.11057766      17.21677517
Li       7.44546592      17.21677517      13.88875414
Li       8.55166344      13.88875414      20.55422470
Li       6.32983992      14.99495165      19.43859870
Li       5.22364240      16.11057766      21.66042222
Li       7.44546592      17.21677517      18.33240118
Li       8.55166344      13.88875414      24.99787175
Li       6.32983992      14.99495165      23.88224574
Li       5.22364240      16.11057766      26.10406926
Li       7.44546592      17.21677517      22.77604822
Li       8.55166344      13.88875414      29.44151879
Li       6.32983992      14.99495165      28.32589278
Li       5.22364240      16.11057766      30.54771631
Li       7.44546592      17.21677517      27.21969527
Li       8.55166344      13.88875414      33.88516583
Li       6.32983992      14.99495165      32.76953983
Li       5.22364240      16.11057766      34.99136335
Li       7.44546592      17.21677517      31.66334231
Li       8.55166344      13.88875414      38.32881288
Li       6.32983992      14.99495165      37.21318687
Li       5.22364240      16.11057766      39.43501039
Li       7.44546592      17.21677517      36.10698936
Li       8.55166344      13.88875414      42.77245992
Li       6.32983992      14.99495165      41.65683392
Li       5.22364240      16.11057766      43.87865744
Li       7.44546592      17.21677517      40.55063640
Li       8.55166344      18.33240118       2.77963653
Li       6.32983992      19.43859870       1.66401052
Li       5.22364240      20.55422470       3.88583404
Li       7.44546592      21.66042222       0.55781300
Li       8.55166344      18.33240118       7.22328357
Li       6.32983992      19.43859870       6.10765756
Li       5.22364240      20.55422470       8.32948108
Li       7.44546592      21.66042222       5.00146005
Li       8.55166344      18.33240118      11.66693061
Li       6.32983992      19.43859870      10.55130461
Li       5.22364240      20.55422470      12.77312813
Li       7.44546592      21.66042222       9.44510709
Li       8.55166344      18.33240118      16.11057766
Li       6.32983992      19.43859870      14.99495165
Li       5.22364240      20.55422470      17.21677517
Li       7.44546592      21.66042222      13.88875414
Li       8.55166344      18.33240118      20.55422470
Li       6.32983992      19.43859870      19.43859870
Li       5.22364240      20.55422470      21.66042222
Li       7.44546592      21.66042222      18.33240118
Li       8.55166344      18.33240118      24.99787175
Li       6.32983992      19.43859870      23.88224574
Li       5.22364240      20.55422470      26.10406926
Li       7.44546592      21.66042222      22.77604822
Li       8.55166344      18.33240118      29.44151879
Li       6.32983992      19.43859870      28.32589278
Li       5.22364240      20.55422470      30.54771631
Li       7.44546592      21.66042222      27.21969527
Li       8.55166344      18.33240118      33.88516583
Li       6.32983992      19.43859870      32.76953983
Li       5.22364240      20.55422470      34.99136335
Li       7.44546592      21.66042222      31.66334231
Li       8.55166344      18.33240118      38.32881288
Li       6.32983992      19.43859870      37.21318687
Li       5.22364240      20.55422470      39.43501039
Li       7.44546592      21.66042222      36.10698936
Li       8.55166344      18.33240118      42.77245992
Li       6.32983992      19.43859870      41.65683392
Li       5.22364240      20.55422470      43.87865744
Li       7.44546592      21.66042222      40.55063640
Li       8.55166344      22.77604822       2.77963653
Li       6.32983992      23.88224574       1.66401052
Li       5.22364240      24.99787175       3.88583404
Li       7.44546592      26.10406926       0.55781300
Li       8.55166344      22.77604822       7.22328357
Li       6.32983992      23.88224574       6.10765756
Li       5.22364240      24.99787175       8.32948108
Li       7.44546592      26.10406926       5.00146005
Li       8.55166344      22.77604822      11.66693061
Li       6.32983992      23.88224574      10.55130461
Li       5.22364240      24.99787175      12.77312813
Li       7.44546592      26.10406926       9.44510709
Li       8.55166344      22.77604822      16.11057766
Li       6.32983992      23.88224574      14.99495165
Li       5.22364240      24.99787175      17.21677517
Li       7.44546592      26.10406926      13.88875414
Li       8.55166344      22.77604822      20.55422470
Li       6.32983992      23.88224574      19.43859870
Li       5.22364240      24.99787175      21.66042222
Li       7.44546592      26.10406926      18.33240118
Li       8.55166344      22.77604822      24.99787175
Li       6.32983992      23.88224574      23.88224574
Li       5.22364240      24.99787175      26.10406926
Li       7.44546592      26.10406926      22.77604822
Li       8.55166344      22.77604822      29.44151879
Li       6.32983992      23.88224574      28.32589278
Li       5.22364240      24.99787175      30.54771631
Li       7.44546592      26.10406926      27.21969527
Li       8.55166344      22.77604822      33.88516583
Li       6.32983992      23.88224574      32.76953983
Li       5.22364240      24.99787175      34.99136335
Li       7.44546592      26.10406926      31.66334231
Li       8.55166344      22.77604822      38.32881288
Li       6.32983992      23.88224574      37.21318687
Li       5.22364240      24.99787175      39.43501039
Li       7.44546592      26.10406926      36.10698936
Li       8.55166344      22.77604822      42.77245992
Li       6.32983992      23.88224574      41.65683392
Li       5.22364240      24.99787175      43.87865744
Li       7.44546592      26.10406926      40.55063640
Li       8.55166344      27.21969527       2.77963653
Li       6.32983992      28.32589278       1.66401052
Li       5.22364240      29.44151879       3.88583404
Li       7.44546592      30.54771631       0.55781300
Li       8.55166344      27.21969527       7.22328357
Li       6.32983992      28.32589278       6.10765756
Li       5.22364240      29.44151879       8.32948108
Li       7.44546592      30.54771631       5.00146005
Li       8.55166344      27.21969527      11.66693061
Li       6.32983992      28.32589278      10.55130461
Li       5.22364240      29.44151879      12.77312813
Li       7.44546592      30.54771631       9.44510709
Li       8.55166344      27.21969527      16.11057766
Li       6.32983992      28.32589278      14.99495165
Li       5.22364240      29.44151879      17.21677517
Li       7.44546592      30.54771631      13.88875414
Li       8.55166344      27.21969527      20.55422470
Li       6.32983992      28.32589278      19.43859870
Li       5.22364240      29.44151879      21.66042222
Li       7.44546592      30.54771631      18.33240118
Li       8.55166344      27.21969527      24.99787175
Li       6.32983992      28.32589278      23.88224574
Li       5.22364240      29.44151879      26.10406926
Li       7.44546592      30.54771631      22.77604822
Li       8.55166344      27.21969527      29.44151879
Li       6.32983992      28.32589278      28.32589278
Li       5.22364240      29.44151879      30.54771631
Li       7.44546592      30.54771631      27.21969527
Li       8.55166344      27.21969527      33.88516583
Li       6.32983992      28.32589278      32.76953983
Li       5.22364240      29.44151879      34.99136335
Li       7.44546592      30.54771631      31.66334231
Li       8.55166344      27.21969527      38.32881288
Li       6.32983992      28.32589278      37.21318687
Li       5.22364240      29.44151879      39.43501039
Li       7.44546592      30.54771631      36.10698936
Li       8.55166344      27.21969527      42.77245992
Li       6.32983992      28.32589278      41.65683392
Li       5.22364240      29.44151879      43.87865744
Li       7.44546592      30.54771631      40.55063640
Li       8.55166344      31.66334231       2.77963653
Li       6.32983992      32.76953983       1.66401052
Li       5.22364240      33.88516583       3.88583404
Li       7.44546592      34.99136335       0.55781300
Li       8.55166344      31.66334231       7.22328357
Li       6.32983992      32.76953983       6.10765756
Li       5.22364240      33.88516583       8.32948108
Li       7.44546592      34.99136335       5.00146005
Li       8.55166344      31.66334231      11.66693061
Li       6.32983992      32.76953983      10.55130461
Li       5.22364240      33.88516583      12.77312813
Li       7.44546592      34.99136335       9.44510709
Li       8.55166344      31.66334231      16.11057766
Li       6.32983992      32.76953983      14.99495165
Li       5.22364240      33.88516583      17.21677517
Li       7.44546592      34.99136335      13.88875414
Li       8.55166344      31.66334231      20.55422470
Li       6.32983992      32.76953983      19.43859870
Li       5.22364240      33.88516583      21.66042222
Li       7.44546592      34.99136335      18.33240118
Li       8.55166344      31.66334231      24.99787175
Li       6.32983992      32.76953983      23.88224574
Li       5.22364240      33.88516583      26.10406926
Li       7.44546592      34.99136335      22.77604822
Li       8.55166344      31.66334231      29.44151879
Li       6.32983992      32.76953983      28.32589278
Li       5.22364240      33.88516583      30.54771631
Li       7.44546592      34.99136335      27.21969527
Li       8.55166344      31.66334231      33.88516583
Li       6.32983992      32.76953983      32.76953983
Li       5.22364240      33.88516583      34.99136335
Li       7.44546592      34.99136335      31.66334231
Li       8.55166344      31.66334231      38.32881288
Li       6.32983992      32.76953983      37.21318687
Li       5.22364240      33.88516583      39.43501039
Li       7.44546592      34.99136335      36.10698936
Li       8.55166344      31.66334231      42.77245992
Li       6.32983992      32.76953983      41.65683392
Li       5.22364240      33.88516583      43.87865744
Li       7.44546592      34.99136335      40.55063640
Li       8.55166344      36.10698936       2.77963653
Li       6.32983992      37.21318687       1.66401052
Li       5.22364240      38.32881288       3.88583404
Li       7.44546592      39.43501039       0.55781300
Li       8.55166344      36.10698936       7.22328357
Li       6.32983992      37.21318687       6.10765756
Li       5.22364240      38.32881288       8.32948108
Li       7.44546592      39.43501039       5.00146005
Li       8.55166344      36.10698936      11.66693061
Li       6.32983992      37.21318687      10.55130461
Li       5.22364240      38.32881288      12.77312813
Li       7.44546592      39.43501039       9.44510709
Li       8.55166344      36.10698936      16.11057766
Li       6.32983992      37.21318687      14.99495165
Li       5.22364240      38.32881288      17.21677517
Li       7.44546592      39.43501039      13.88875414
Li       8.55166344      36.10698936      20.55422470
Li       6.32983992      37.21318687      19.43859870
Li       5.22364240      38.32881288      21.66042222
Li       7.44546592      39.43501039      18.33240118
Li       8.55166344      36.10698936      24.99787175
Li       6.32983992      37.21318687      23.88224574
Li       5.22364240      38.32881288      26.10406926
Li       7.44546592      39.43501039      22.77604822
Li       8.55166344      36.10698936      29.44151879
Li       6.32983992      37.21318687      28.32589278
Li       5.22364240      38.32881288      30.54771631
Li       7.44546592      39.43501039      27.21969527
Li       8.55166344      36.10698936      33.88516583
Li       6.32983992      37.21318687      32.76953983
Li       5.22364240      38.32881288      34.99136335
Li       7.44546592      39.43501039      31.66334231
Li       8.55166344      36.10698936      38.32881288
Li       6.32983992      37.21318687      37.21318687
Li       5.22364240      38.32881288      39.43501039
Li       7.44546592      39.43501039      36.10698936
Li       8.55166344      36.10698936      42.77245992
Li       6.32983992      37.21318687      41.65683392
Li       5.22364240      38.32881288      43.87865744
Li       7.44546592      39.43501039      40.55063640
Li       8.55166344      40.55063640       2.77963653
Li       6.32983992      41.65683392       1.66401052
Li       5.22364240      42.77245992       3.88583404
Li       7.44546592      43.87865744       0.55781300
Li       8.55166344      40.55063640       7.22328357
Li       6.32983992      41.65683392       6.10765756
Li       5.22364240      42.77245992       8.32948108
Li       7.44546592      43.87865744       5.00146005
Li       8.55166344      40.55063640      11.66693061
Li       6.32983992      41.65683392      10.55130461
Li       5.22364240      42.77245992      12.77312813
Li       7.44546592      43.87865744       9.44510709
Li       8.55166344      40.55063640      16.11057766
Li       6.32983992      41.65683392      14.99495165
Li       5.22364240      42.77245992      17.21677517
Li       7.44546592      43.87865744      13.88875414
Li       8.55166344      40.55063640      20.55422470
Li       6.32983992      41.65683392      19.43859870
Li       5.22364240      42.77245992      21.66042222
Li       7.44546592      43.87865744      18.33240118
Li       8.55166344      40.55063640      24.99787175
Li       6.32983992      41.65683392      23.88224574
Li       5.22364240      42.77245992      26.10406926
Li       7.44546592      43.87865744      22.77604822
Li       8.55166344      40.55063640      29.44151879
Li       6.32983992      41.65683392      28.32589278
Li       5.22364240      42.77245992      30.54771631
Li       7.44546592      43.87865744      27.21969527
Li       8.55166344      40.55063640      33.88516583
Li       6.32983992      41.65683392      32.76953983
Li       5.22364240      42.77245992      34.99136335
Li       7.44546592      43.87865744      31.66334231
Li       8.55166344      40.55063640      38.32881288
Li       6.32983992      41.65683392      37.21318687
Li       5.22364240      42.77245992      39.43501039
Li       7.44546592      43.87865744      36.10698936
Li       8.55166344      40.55063640      42.77245992
Li       6.32983992      41.65683392      41.65683392
Li       5.22364240      42.77245992      43.87865744
Li       7.44546592      43.87865744      40.55063640
Li      13.21749283       0.55781300       2.77963653
Li      10.99566931       1.66401052       1.66401052
Li       9.88947180       2.77963653       3.88583404
Li      12.11129532       3.88583404       0.55781300
Li      13.21749283       0.55781300       7.22328357
Li      10.99566931       1.66401052       6.10765756
Li       9.88947180       2.77963653       8.32948108
Li      12.11129532       3.88583404       5.00146005
Li      13.21749283       0.55781300      11.66693061
Li      10.99566931       1.66401052      10.55130461
Li       9.88947180       2.77963653      12.77312813
Li      12.11129532       3.88583404       9.44510709
Li      13.21749283       0.55781300      16.11057766
Li      10.99566931       1.66401052      14.99495165
Li       9.88947180       2.77963653      17.21677517
Li      12.11129532       3.88583404      13.88875414
Li      13.21749283       0.55781300      20.55422470
Li      10.99566931       1.66401052      19.43859870
Li       9.88947180       2.77963653      21.66042222
Li      12.11129532       3.88583404      18.33240118
Li      13.21749283       0.55781300      24.99787175
Li      10.99566931       1.66401052      23.88224574
Li       9.88947180       2.77963653      26.10406926
Li      12.11129532       3.88583404      22.77604822
Li      13.21749283       0.55781300      29.44151879
Li      10.99566931       1.66401052      28.32589278
Li       9.88947180       2.77963653      30.54771631
Li      12.11129532       3.88583404      27.21969527
Li      13.21749283       0.55781300      33.88516583
Li      10.99566931       1.66401052      32.76953983
Li       9.88947180       2.77963653      34.99136335
Li      12.11129532       3.88583404      31.66334231
Li      13.21749283       0.55781300      38.32881288
Li      10.99566931       1.66401052      37.21318687
Li       9.88947180       2.77963653      39.43501039
Li      12.11129532       3.88583404      36.10698936
Li      13.21749283       0.55781300      42.77245992
Li      10.99566931       1.66401052      41.65683392
Li       9.88947180       2.77963653      43.87865744
Li      12.11129532       3.88583404      40.55063640
Li      13.21749283       5.00146005       2.77963653
Li      10.99566931       6.10765756       1.66401052
Li       9.88947180       7.22328357       3.88583404
Li      12.11129532       8.32948108       0.55781300
Li      13.21749283       5.00146005       7.22328357
Li      10.99566931       6.10765756       6.10765756
Li       9.88947180       7.22328357       8.32948108
Li      12.11129532       8.32948108       5.00146005
Li      13.21749283       5.00146005      11.66693061
Li      10.99566931       6.10765756      10.55130461
Li       9.88947180       7.22328357      12.77312813
Li      12.11129532       8.32948108       9.44510709
Li      13.21749283       5.00146005      16.11057766
Li      10.99566931       6.10765756      14.99495165
Li       9.88947180       7.22328357      17.21677517
Li      12.11129532       8.32948108      13.88875414
Li      13.21749283       5.00146005      20.55422470
Li      10.99566931       6.10765756      19.43859870
Li       9.88947180       7.22328357      21.66042222
Li      12.11129532       8.32948108      18.33240118
Li      13.21749283       5.00146005      24.99787175
Li      10.99566931       6.10765756      23.88224574
Li       9.88947180       7.22328357      26.10406926
Li      12.11129532       8.32948108      22.77604822
Li      13.21749283       5.00146005      29.44151879
Li      10.99566931       6.10765756      28.32589278
Li       9.88947180       7.22328357      30.54771631
Li      12.11129532       8.32948108      27.21969527
Li      13.21749283       5.00146005      33.88516583
Li      10.99566931       6.10765756      32.76953983
Li       9.88947180       7.22328357      34.99136335
Li      12.11129532       8.32948108      31.66334231
Li      13.21749283       5.00146005      38.32881288
Li      10.99566931       6.10765756      37.21318687
Li       9.88947180       7.22328357      39.43501039
Li      12.11129532       8.32948108      36.10698936
Li      13.21749283       5.00146005      42.77245992
Li      10.99566931       6.10765756      41.65683392
Li       9.88947180       7.22328357      43.87865744
Li      12.11129532       8.32948108      40.55063640
Li      13.21749283       9.44510709       2.77963653
Li      10.99566931      10.55130461       1.66401052
Li       9.88947180      11.66693061       3.88583404
Li      12.11129532      12.77312813       0.55781300
Li      13.21749283       9.44510709       7.22328357
Li      10.99566931      10.55130461       6.10765756
Li       9.88947180      11.66693061       8.32948108
Li      12.11129532      12.77312813       5.00146005
Li      13.21749283       9.44510709      11.66693061
Li      10.99566931      10.55130461      10.55130461
Li       9.88947180      11.66693061      12.77312813
Li      12.11129532      12.77312813       9.44510709
Li      13.21749283       9.44510709      16.11057766
Li      10.99566931      10.55130461      14.99495165
Li       9.88947180      11.66693061      17.21677517
Li      12.11129532      12.77312813      13.88875414
Li      13.21749283       9.44510709      20.55422470
Li      10.99566931      10.55130461      19.43859870
Li       9.88947180      11.66693061      21.66042222
Li      12.11129532      12.77312813      18.33240118
Li      13.21749283       9.44510709      24.99787175
Li      10.99566931      10.55130461      23.88224574
Li       9.88947180      11.66693061      26.10406926
Li      12.11129532      12.77312813      22.77604822
Li      13.21749283       9.44510709      29.44151879
Li      10.99566931      10.55130461      28.32589278
Li       9.88947180      11.66693061      30.54771631
Li      12.11129532      12.77312813      27.21969527
Li      13.21749283       9.44510709      33.88516583
Li      10.99566931      10.55130461      32.76953983
Li       9.88947180      11.66693061      34.99136335
Li      12.11129532      12.77312813      31.66334231
Li      13.21749283       9.44510709      38.32881288
Li      10.99566931      10.55130461      37.21318687
Li       9.88947180      11.66693061      39.43501039
Li      12.11129532      12.77312813      36.10698936
Li      13.21749283       9.44510709      42.77245992
Li      10.99566931      10.55130461      41.65683392
Li       9.88947180      11.66693061      43.87865744
Li      12.11129532      12.77312813      40.55063640
Li      13.21749283      13.88875414       2.77963653
Li      10.99566931      14.99495165       1.66401052
Li       9.88947180      16.11057766       3.88583404
Li      12.11129532      17.21677517       0.55781300
Li      13.21749283      13.88875414       7.22328357
Li      10.99566931      14.99495165       6.10765756
Li       9.88947180      16.11057766       8.32948108
Li      12.11129532      17.21677517       5.00146005
Li      13.21749283      13.88875414      11.66693061
Li      10.99566931      14.99495165      10.55130461
Li       9.88947180      16.11057766      12.77312813
Li      12.11129532      17.21677517       9.44510709
Li      13.21749283      13.88875414      16.11057766
Li      10.99566931      14.99495165      14.99495165
Li       9.88947180      16.11057766      17.21677517
Li      12.11129532      17.21677517      13.88875414
Li      13.21749283      13.88875414      20.55422470
Li      10.99566931      14.99495165      19.43859870
Li       9.88947180      16.11057766      21.66042222
Li      12.11129532      17.21677517      18.33240118
Li      13.21749283      13.88875414      24.99787175
Li      10.99566931      14.99495165      23.88224574
Li       9.88947180      16.11057766      26.10406926
Li      12.11129532      17.21677517      22.77604822
Li      13.21749283      13.88875414      29.44151879
Li      10.99566931      14.99495165      28.32589278
Li       9.88947180      16.11057766      30.54771631
Li      12.11129532      17.21677517      27.21969527
Li      13.21749283      13.88875414      33.88516583
Li      10.99566931      14.99495165      32.76953983
Li       9.88947180      16.11057766      34.99136335
Li      12.11129532      17.21677517      31.66334231
Li      13.21749283      13.88875414      38.32881288
Li      10.99566931      14.99495165      37.21318687
Li       9.88947180      16.11057766      39.43501039
Li      12.11129532      17.21677517      36.10698936
Li      13.21749283      13.88875414      42.77245992
Li      10.99566931      14.99495165      41.65683392
Li       9.88947180      16.11057766      43.87865744
Li      12.11129532      17.21677517      40.55063640
Li      13.21749283      18.33240118       2.77963653
Li      10.99566931      19.43859870       1.66401052
Li       9.88947180      20.55422470       3.88583404
Li      12.11129532      21.66042222       0.55781300
Li      13.21749283      18.33240118       7.22328357
Li      10.99566931      19.43859870       6.10765756
Li       9.88947180      20.55422470       8.32948108
Li      12.11129532      21.66042222       5.00146005
Li      13.21749283      18.33240118      11.66693061
Li      10.99566931      19.43859870      10.55130461
Li       9.88947180      20.55422470      12.77312813
Li      12.11129532      21.66042222       9.44510709
Li      13.21749283      18.33240118      16.11057766
Li      10.99566931      19.43859870      14.99495165
Li       9.88947180      20.55422470      17.21677517
Li      12.11129532      21.66042222      13.88875414
Li      13.21749283      18.33240118      20.55422470
Li      10.99566931      19.43859870      19.43859870
Li       9.88947180      20.55422470      21.66042222
Li      12.11129532      21.66042222      18.33240118
Li      13.21749283      18.33240118      24.99787175
Li      10.99566931      19.43859870      23.88224574
Li       9.88947180      20.55422470      26.10406926
Li      12.11129532      21.66042222      22.77604822
Li      13.21749283      18.33240118      29.44151879
Li      10.99566931      19.43859870      28.32589278
Li       9.88947180      20.55422470      30.54771631
Li      12.11129532      21.66042222      27.21969527
Li      13.21749283      18.33240118      33.88516583
Li      10.99566931      19.43859870      32.76953983
Li       9.88947180      20.55422470      34.99136335
Li      12.11129532      21.66042222      31.66334231
Li      13.21749283      18.33240118      38.32881288
Li      10.99566931      19.43859870      37.21318687
Li       9.88947180      20.55422470      39.43501039
Li      12.11129532      21.66042222      36.10698936
Li      13.21749283      18.33240118      42.77245992
Li      10.99566931      19.43859870      41.65683392
Li       9.88947180      20.55422470      43.87865744
Li      12.11129532      21.66042222      40.55063640
Li      13.21749283      22.77604822       2.77963653
Li      10.99566931      23.88224574       1.66401052
Li       9.88947180      24.99787175       3.88583404
Li      12.11129532      26.10406926       0.55781300
Li      13.21749283      22.77604822       7.22328357
Li      10.99566931      23.88224574       6.10765756
Li       9.88947180      24.99787175       8.32948108
Li      12.11129532      26.10406926       5.00146005
Li      13.21749283      22.77604822      11.66693061
Li      10.99566931      23.88224574      10.55130461
Li       9.88947180      24.99787175      12.77312813
Li      12.11129532      26.10406926       9.44510709
Li      13.21749283      22.77604822      16.11057766
Li      10.99566931      23.88224574      14.99495165
Li       9.88947180      24.99787175      17.21677517
Li      12.11129532      26.10406926      13.88875414
Li      13.21749283      22.77604822      20.55422470
Li      10.99566931      23.88224574      19.43859870
Li       9.88947180      24.99787175      21.66042222
Li      12.11129532      26.10406926      18.33240118
Li      13.21749283      22.77604822      24.99787175
Li      10.99566931      23.88224574      23.88224574
Li       9.88947180      24.99787175      26.10406926
Li      12.11129532      26.10406926      22.77604822
Li      13.21749283      22.77604822      29.44151879
Li      10.99566931      23.88224574      28.32589278
Li       9.88947180      24.99787175      30.54771631
Li      12.11129532      26.10406926      27.21969527
Li      13.21749283      22.77604822      33.88516583
Li      10.99566931      23.88224574      32.76953983
Li       9.88947180      24.99787175      34.99136335
Li      12.11129532      26.10406926      31.66334231
Li      13.21749283      22.77604822      38.32881288
Li      10.99566931      23.88224574      37.21318687
Li       9.88947180      24.99787175      39.43501039
Li      12.11129532      26.10406926      36.10698936
Li      13.21749283      22.77604822      42.77245992
Li      10.99566931      23.88224574      41.65683392
Li       9.88947180      24.99787175      43.87865744
Li      12.11129532      26.10406926      40.55063640
Li      13.21749283      27.21969527       2.77963653
Li      10.99566931      28.32589278       1.66401052
Li       9.88947180      29.44151879       3.88583404
Li      12.11129532      30.54771631       0.55781300
Li      13.21749283      27.21969527       7.22328357
Li      10.99566931      28.32589278       6.10765756
Li       9.88947180      29.44151879       8.32948108
Li      12.11129532      30.54771631       5.00146005
Li      13.21749283      27.21969527      11.66693061
Li      10.99566931      28.32589278      10.55130461
Li       9.88947180      29.44151879      12.77312813
Li      12.11129532      30.54771631       9.44510709
Li      13.21749283      27.21969527      16.11057766
Li      10.99566931      28.32589278      14.99495165
Li       9.88947180      29.44151879      17.21677517
Li      12.11129532      30.54771631      13.88875414
Li      13.21749283      27.21969527      20.55422470
Li      10.99566931      28.32589278      19.43859870
Li       9.88947180      29.44151879      21.66042222
Li      12.11129532      30.54771631      18.33240118
Li      13.21749283      27.21969527      24.99787175
Li      10.99566931      28.32589278      23.88224574
Li       9.88947180      29.44151879      26.10406926
Li      12.11129532      30.54771631      22.77604822
Li      13.21749283      27.21969527      29.44151879
Li      10.99566931      28.32589278      28.32589278
Li       9.88947180      29.44151879      30.54771631
Li      12.11129532      30.54771631      27.21969527
Li      13.21749283      27.21969527      33.88516583
Li      10.99566931      28.32589278      32.76953983
Li       9.88947180      29.44151879      34.99136335
Li      12.11129532      30.54771631      31.66334231
Li      13.21749283      27.21969527      38.32881288
Li      10.99566931      28.32589278      37.21318687
Li       9.88947180      29.44151879      39.43501039
Li      12.11129532      30.54771631      36.10698936
Li      13.21749283      27.21969527      42.77245992
Li      10.99566931      28.32589278      41.65683392
Li       9.88947180      29.44151879      43.87865744
Li      12.11129532      30.54771631      40.55063640
Li      13.21749283      31.66334231       2.77963653
Li      10.99566931      32.76953983       1.66401052
Li       9.88947180      33.88516583       3.88583404
Li      12.11129532      34.99136335       0.55781300
Li      13.21749283      31.66334231       7.22328357
Li      10.99566931      32.76953983       6.10765756
Li       9.88947180      33.88516583       8.32948108
Li      12.11129532      34.99136335       5.00146005
Li      13.21749283      31.66334231      11.66693061
Li      10.99566931      32.76953983      10.55130461
Li       9.88947180      33.88516583      12.77312813
Li      12.11129532      34.99136335       9.44510709
Li      13.21749283      31.66334231      16.11057766
Li      10.99566931      32.76953983      14.99495165
Li       9.88947180      33.88516583      17.21677517
Li      12.11129532      34.99136335      13.88875414
Li      13.21749283      31.66334231      20.55422470
Li      10.99566931      32.76953983      19.43859870
Li       9.88947180      33.88516583      21.66042222
Li      12.11129532      34.99136335      18.33240118
Li      13.21749283      31.66334231      24.99787175
Li      10.99566931      32.76953983      23.88224574
Li       9.88947180      33.88516583      26.10406926
Li      12.11129532      34.99136335      22.77604822
Li      13.21749283      31.66334231      29.44151879
Li      10.99566931      32.76953983      28.32589278
Li       9.88947180      33.88516583      30.54771631
Li      12.11129532      34.99136335      27.21969527
Li      13.21749283      31.66334231      33.88516583
Li      10.99566931      32.76953983      32.76953983
Li       9.88947180      33.88516583      34.99136335
Li      12.11129532      34.99136335      31.66334231
Li      13.21749283      31.66334231      38.32881288
Li      10.99566931      32.76953983      37.21318687
Li       9.88947180      33.88516583      39.43501039
Li      12.11129532      34.99136335      36.10698936
Li      13.21749283      31.66334231      42.77245992
Li      10.99566931      32.76953983      41.65683392
Li       9.88947180      33.88516583      43.87865744
Li      12.11129532      34.99136335      40.55063640
Li      13.21749283      36.10698936       2.77963653
Li      10.99566931      37.21318687       1.66401052
Li       9.88947180      38.32881288       3.88583404
Li      12.11129532      39.43501039       0.55781300
Li      13.21749283      36.10698936       7.22328357
Li      10.99566931      37.21318687       6.10765756
Li       9.88947180      38.32881288       8.32948108
Li      12.11129532      39.43501039       5.00146005
Li      13.21749283      36.10698936      11.66693061
Li      10.99566931      37.21318687      10.55130461
Li       9.88947180      38.32881288      12.77312813
Li      12.11129532      39.43501039       9.44510709
Li      13.21749283      36.10698936      16.11057766
Li      10.99566931      37.21318687      14.99495165
Li       9.88947180      38.32881288      17.21677517
Li      12.11129532      39.43501039      13.88875414
Li      13.21749283      36.10698936      20.55422470
Li      10.99566931      37.21318687      19.43859870
Li       9.88947180      38.32881288      21.66042222
Li      12.11129532      39.43501039      18.33240118
Li      13.21749283      36.10698936      24.99787175
Li      10.99566931      37.21318687      23.88224574
Li       9.88947180      38.32881288      26.10406926
Li      12.11129532      39.43501039      22.77604822
Li      13.21749283      36.10698936      29.44151879
Li      10.99566931      37.21318687      28.32589278
Li       9.88947180      38.32881288      30.54771631
Li      12.11129532      39.43501039      27.21969527
Li      13.21749283      36.10698936      33.88516583
Li      10.99566931      37.21318687      32.76953983
Li       9.88947180      38.32881288      34.99136335
Li      12.11129532      39.43501039      31.66334231
Li      13.21749283      36.10698936      38.32881288
Li      10.99566931      37.21318687      37.21318687
Li       9.88947180      38.32881288      39.43501039
Li      12.11129532      39.43501039      36.10698936
Li      13.21749283      36.10698936      42.77245992
Li      10.99566931      37.21318687      41.65683392
Li       9.88947180      38.32881288      43.87865744
Li      12.11129532      39.43501039      40.55063640
Li      13.21749283      40.55063640       2.77963653
Li      10.99566931      41.65683392       1.66401052
Li       9.88947180      42.77245992       3.88583404
Li      12.11129532      43.87865744       0.55781300
Li      13.21749283      40.55063640       7.22328357
Li      10.99566931      41.65683392       6.10765756
Li       9.88947180      42.77245992       8.32948108
Li      12.11129532      43.87865744       5.00146005
Li      13.21749283      40.55063640      11.66693061
Li      10.99566931      41.65683392      10.55130461
Li       9.88947180      42.77245992      12.77312813
Li      12.11129532      43.87865744       9.44510709
Li      13.21749283      40.55063640      16.11057766
Li      10.99566931      41.65683392      14.99495165
Li       9.88947180      42.77245992      17.21677517
Li      12.11129532      43.87865744      13.88875414
Li      13.21749283      40.55063640      20.55422470
Li      10.99566931      41.65683392      19.43859870
Li       9.88947180      42.77245992      21.66042222
Li      12.11129532      43.87865744      18.33240118
Li      13.21749283      40.55063640      24.99787175
Li      10.99566931      41.65683392      23.88224574
Li       9.88947180      42.77245992      26.10406926
Li      12.11129532      43.87865744      22.77604822
Li      13.21749283      40.55063640      29.44151879
Li      10.99566931      41.65683392      28.32589278
Li       9.88947180      42.77245992      30.54771631
Li      12.11129532      43.87865744      27.21969527
Li      13.21749283      40.55063640      33.88516583
Li      10.99566931      41.65683392      32.76953983
Li       9.88947180      42.77245992      34.99136335
Li      12.11129532      43.87865744      31.66334231
Li      13.21749283      40.55063640      38.32881288
Li      10.99566931      41.65683392      37.21318687
Li       9.88947180      42.77245992      39.43501039
Li      12.11129532      43.87865744      36.10698936
Li      13.21749283      40.55063640      42.77245992
Li      10.99566931      41.65683392      41.65683392
Li       9.88947180      42.77245992      43.87865744
Li      12.11129532      43.87865744      40.55063640
Li      17.88332223       0.55781300       2.77963653
Li      15.66149871       1.66401052       1.66401052
Li      14.55530119       2.77963653       3.88583404
Li      16.77712471       3.88583404       0.55781300
Li      17.88332223       0.55781300       7.22328357
Li      15.66149871       1.66401052       6.10765756
Li      14.55530119       2.77963653       8.32948108
Li      16.77712471       3.88583404       5.00146005
Li      17.88332223       0.55781300      11.66693061
Li      15.66149871       1.66401052      10.55130461
Li      14.55530119       2.77963653      12.77312813
Li      16.77712471       3.88583404       9.44510709
Li      17.88332223       0.55781300      16.11057766
Li      15.66149871       1.66401052      14.99495165
Li      14.55530119       2.77963653      17.21677517
Li      16.77712471       3.88583404      13.88875414
Li      17.88332223       0.55781300      20.55422470
Li      15.66149871       1.66401052      19.43859870
Li      14.55530119       2.77963653      21.66042222
Li      16.77712471       3.88583404      18.33240118
Li      17.88332223       0.55781300      24.99787175
Li      15.66149871       1.66401052      23.88224574
Li      14.55530119       2.77963653      26.10406926
Li      16.77712471       3.88583404      22.77604822
Li      17.88332223       0.55781300      29.44151879
Li      15.66149871       1.66401052      28.32589278
Li      14.55530119       2.77963653      30.54771631
Li      16.77712471       3.88583404      27.21969527
Li      17.88332223       0.55781300      33.88516583
Li      15.66149871       1.66401052      32.76953983
Li      14.55530119       2.77963653      34.99136335
Li      16.77712471       3.88583404      31.66334231
Li      17.88332223       0.55781300      38.32881288
Li      15.66149871       1.66401052      37.21318687
Li      14.55530119       2.77963653      39.43501039
Li      16.77712471       3.88583404      36.10698936
Li      17.88332223       0.55781300      42.77245992
Li      15.66149871       1.66401052      41.65683392
Li      14.55530119       2.77963653      43.87865744
Li      16.77712471       3.88583404      40.55063640
Li      17.88332223       5.00146005       2.77963653
Li      15.66149871       6.10765756       1.66401052
Li      14.55530119       7.22328357       3.88583404
Li      16.77712471       8.32948108       0.55781300
Li      17.88332223       5.00146005       7.22328357
Li      15.66149871       6.10765756       6.10765756
Li      14.55530119       7.22328357       8.32948108
Li      16.77712471       8.32948108       5.00146005
Li      17.88332223       5.00146005      11.66693061
Li      15.66149871       6.10765756      10.55130461
Li      14.55530119       7.22328357      12.77312813
Li      16.77712471       8.32948108       9.44510709
Li      17.88332223       5.00146005      16.11057766
Li      15.66149871       6.10765756      14.99495165
Li      14.55530119       7.22328357      17.21677517
Li      16.77712471       8.32948108      13.88875414
Li      17.88332223       5.00146005      20.55422470
Li      15.66149871       6.10765756      19.43859870
Li      14.55530119       7.22328357      21.66042222
Li      16.77712471       8.32948108      18.33240118
Li      17.88332223       5.00146005      24.99787175
Li      15.66149871       6.10765756      23.88224574
Li      14.55530119       7.22328357      26.10406926
Li      16.77712471       8.32948108      22.77604822
Li      17.88332223       5.00146005      29.44151879
Li      15.66149871       6.10765756      28.32589278
Li      14.55530119       7.22328357      30.54771631
Li      16.77712471       8.32948108      27.21969527
Li      17.88332223       5.00146005      33.88516583
Li      15.66149871       6.10765756      32.76953983
Li      14.55530119       7.22328357      34.99136335
Li      16.77712471       8.32948108      31.66334231
Li      17.88332223       5.00146005      38.32881288
Li      15.66149871       6.10765756      37.21318687
Li      14.55530119       7.22328357      39.43501039
Li      16.77712471       8.32948108      36.10698936
Li      17.88332223       5.00146005      42.77245992
Li      15.66149871       6.10765756      41.65683392
Li      14.55530119       7.22328357      43.87865744
Li      16.77712471       8.32948108      40.55063640
Li      17.88332223       9.44510709       2.77963653
Li      15.66149871      10.55130461       1.66401052
Li      14.55530119      11.66693061       3.88583404
Li      16.77712471      12.77312813       0.55781300
Li      17.88332223       9.44510709       7.22328357
Li      15.66149871      10.55130461       6.10765756
Li      14.55530119      11.66693061       8.32948108
Li      16.77712471      12.77312813       5.00146005
Li      17.88332223       9.44510709      11.66693061
Li      15.66149871      10.55130461      10.55130461
Li      14.55530119      11.66693061      12.77312813
Li      16.77712471      12.77312813       9.44510709
Li      17.88332223       9.44510709      16.11057766
Li      15.66149871      10.55130461      14.99495165
Li      14.55530119      11.66693061      17.21677517
Li      16.77712471      12.77312813      13.88875414
Li      17.88332223       9.44510709      20.55422470
Li      15.66149871      10.55130461      19.43859870
Li      14.55530119      11.66693061      21.66042222
Li      16.77712471      12.77312813      18.33240118
Li      17.88332223       9.44510709      24.99787175
Li      15.66149871      10.55130461      23.88224574
Li      14.55530119      11.66693061      26.10406926
Li      16.77712471      12.77312813      22.77604822
Li      17.88332223       9.44510709      29.44151879
Li      15.66149871      10.55130461      28.32589278
Li      14.55530119      11.66693061      30.54771631
Li      16.77712471      12.77312813      27.21969527
Li      17.88332223       9.44510709      33.88516583
Li      15.66149871      10.55130461      32.76953983
Li      14.55530119      11.66693061      34.99136335
Li      16.77712471      12.77312813      31.66334231
Li      17.88332223       9.44510709      38.32881288
Li      15.66149871      10.55130461      37.21318687
Li      14.55530119      11.66693061      39.43501039
Li      16.77712471      12.77312813      36.10698936
Li      17.88332223       9.44510709      42.77245992
Li      15.66149871      10.55130461      41.65683392
Li      14.55530119      11.66693061      43.87865744
Li      16.77712471      12.77312813      40.55063640
Li      17.88332223      13.88875414       2.77963653
Li      15.66149871      14.99495165       1.66401052
Li      14.55530119      16.11057766       3.88583404
Li      16.77712471      17.21677517       0.55781300
Li      17.88332223      13.88875414       7.22328357
Li      15.66149871      14.99495165       6.10765756
Li      14.55530119      16.11057766       8.32948108
Li      16.77712471      17.21677517       5.00146005
Li      17.88332223      13.88875414      11.66693061
Li      15.66149871      14.99495165      10.55130461
Li      14.55530119      16.11057766      12.77312813
Li      16.77712471      17.21677517       9.44510709
Li      17.88332223      13.88875414      16.11057766
Li      15.66149871      14.99495165      14.99495165
Li      14.55530119      16.11057766      17.21677517
Li      16.77712471      17.21677517      13.88875414
Li      17.88332223      13.88875414      20.55422470
Li      15.66149871      14.99495165      19.43859870
Li      14.55530119      16.11057766      21.66042222
Li      16.77712471      17.21677517      18.33240118
Li      17.88332223      13.88875414      24.99787175
Li      15.66149871      14.99495165      23.88224574
Li      14.55530119      16.11057766      26.10406926
Li      16.77712471      17.21677517      22.77604822
Li      17.88332223      13.88875414      29.44151879
Li      15.66149871      14.99495165      28.32589278
Li      14.55530119      16.11057766      30.54771631
Li      16.77712471      17.21677517      27.21969527
Li      17.88332223      13.88875414      33.88516583
Li      15.66149871      14.99495165      32.76953983
Li      14.55530119      16.11057766      34.99136335
Li      16.77712471      17.21677517      31.66334231
Li      17.88332223      13.88875414      38.32881288
Li      15.66149871      14.99495165      37.21318687
Li      14.55530119      16.11057766      39.43501039
Li      16.77712471      17.21677517      36.10698936
Li      17.88332223      13.88875414      42.77245992
Li      15.66149871      14.99495165      41.65683392
Li      14.55530119      16.11057766      43.87865744
Li      16.77712471      17.21677517      40.55063640
Li      17.88332223      18.33240118       2.77963653
Li      15.66149871      19.43859870       1.66401052
Li      14.55530119      20.55422470       3.88583404
Li      16.77712471      21.66042222       0.55781300
Li      17.88332223      18.33240118       7.22328357
Li      15.66149871      19.43859870       6.10765756
Li      14.55530119      20.55422470       8.32948108
Li      16.77712471      21.66042222       5.00146005
Li      17.88332223      18.33240118      11.66693061
Li      15.66149871      19.43859870      10.55130461
Li      14.55530119      20.55422470      12.77312813
Li      16.77712471      21.66042222       9.44510709
Li      17.88332223      18.33240118      16.11057766
Li      15.66149871      19.43859870      14.99495165
Li      14.55530119      20.55422470      17.21677517
Li      16.77712471      21.66042222      13.88875414
Li      17.88332223      18.33240118      20.55422470
Li      15.66149871      19.43859870      19.43859870
Li      14.55530119      20.55422470      21.66042222
Li      16.77712471      21.66042222      18.33240118
Li      17.88332223      18.33240118      24.99787175
Li      15.66149871      19.43859870      23.88224574
Li      14.55530119      20.55422470      26.10406926
Li      16.77712471      21.66042222      22.77604822
Li      17.88332223      18.33240118      29.44151879
Li      15.66149871      19.43859870      28.32589278
Li      14.55530119      20.55422470      30.54771631
Li      16.77712471      21.66042222      27.21969527
Li      17.88332223      18.33240118      33.88516583
Li      15.66149871      19.43859870      32.76953983
Li      14.55530119      20.55422470      34.99136335
Li      16.77712471      21.66042222      31.66334231
Li      17.88332223      18.33240118      38.32881288
Li      15.66149871      19.43859870      37.21318687
Li      14.55530119      20.55422470      39.43501039
Li      16.77712471      21.66042222      36.10698936
Li      17.88332223      18.33240118      42.77245992
Li      15.66149871      19.43859870      41.65683392
Li      14.55530119      20.55422470      43.87865744
Li      16.77712471      21.66042222      40.55063640
Li      17.88332223      22.77604822       2.77963653
Li      15.66149871      23.88224574       1.66401052
Li      14.55530119      24.99787175       3.88583404
Li      16.77712471      26.10406926       0.55781300
Li      17.88332223      22.77604822       7.22328357
Li      15.66149871      23.88224574       6.10765756
Li      14.55530119      24.99787175       8.32948108
Li      16.77712471      26.10406926       5.00146005
Li      17.88332223      22.77604822      11.66693061
Li      15.66149871      23.88224574      10.55130461
Li      14.55530119      24.99787175      12.77312813
Li      16.77712471      26.10406926       9.44510709
Li      17.88332223      22.77604822      16.11057766
Li      15.66149871      23.88224574      14.99495165
Li      14.55530119      24.99787175      17.21677517
Li      16.77712471      26.10406926      13.88875414
Li      17.88332223      22.77604822      20.55422470
Li      15.66149871      23.88224574      19.43859870
Li      14.55530119      24.99787175      21.66042222
Li      16.77712471      26.10406926      18.33240118
Li      17.88332223      22.77604822      24.99787175
Li      15.66149871      23.88224574      23.88224574
Li      14.55530119      24.99787175      26.10406926
Li      16.77712471      26.10406926      22.77604822
Li      17.88332223      22.77604822      29.44151879
Li      15.66149871      23.88224574      28.32589278
Li      14.55530119      24.99787175      30.54771631
Li      16.77712471      26.10406926      27.21969527
Li      17.88332223      22.77604822      33.88516583
Li      15.66149871      23.88224574      32.76953983
Li      14.55530119      24.99787175      34.99136335
Li      16.77712471      26.10406926      31.66334231
Li      17.88332223      22.77604822      38.32881288
Li      15.66149871      23.88224574      37.21318687
Li      14.55530119      24.99787175      39.43501039
Li      16.77712471      26.10406926      36.10698936
Li      17.88332223      22.77604822      42.77245992
Li      15.66149871      23.88224574      41.65683392
Li      14.55530119      24.99787175      43.87865744
Li      16.77712471      26.10406926      40.55063640
Li      17.88332223      27.21969527       2.77963653
Li      15.66149871      28.32589278       1.66401052
Li      14.55530119      29.44151879       3.88583404
Li      16.77712471      30.54771631       0.55781300
Li      17.88332223      27.21969527       7.22328357
Li      15.66149871      28.32589278       6.10765756
Li      14.55530119      29.44151879       8.32948108
Li      16.77712471      30.54771631       5.00146005
Li      17.88332223      27.21969527      11.66693061
Li      15.66149871      28.32589278      10.55130461
Li      14.55530119      29.44151879      12.77312813
Li      16.77712471      30.54771631       9.44510709
Li      17.88332223      27.21969527      16.11057766
Li      15.66149871      28.32589278      14.99495165
Li      14.55530119      29.44151879      17.21677517
Li      16.77712471      30.54771631      13.88875414
Li      17.88332223      27.21969527      20.55422470
Li      15.66149871      28.32589278      19.43859870
Li      14.55530119      29.44151879      21.66042222
Li      16.77712471      30.54771631      18.33240118
Li      17.88332223      27.21969527      24.99787175
Li      15.66149871      28.32589278      23.88224574
Li      14.55530119      29.44151879      26.10406926
Li      16.77712471      30.54771631      22.77604822
Li      17.88332223      27.21969527      29.44151879
Li      15.66149871      28.32589278      28.32589278
Li      14.55530119      29.44151879      30.54771631
Li      16.77712471      30.54771631      27.21969527
Li      17.88332223      27.21969527      33.88516583
Li      15.66149871      28.32589278      32.76953983
Li      14.55530119      29.44151879      34.99136335
Li      16.77712471      30.54771631      31.66334231
Li      17.88332223      27.21969527      38.32881288
Li      15.66149871      28.32589278      37.21318687
Li      14.55530119      29.44151879      39.43501039
Li      16.77712471      30.54771631      36.10698936
Li      17.88332223      27.21969527      42.77245992
Li      15.66149871      28.32589278      41.65683392
Li      14.55530119      29.44151879      43.87865744
Li      16.77712471      30.54771631      40.55063640
Li      17.88332223      31.66334231       2.77963653
Li      15.66149871      32.76953983       1.66401052
Li      14.55530119      33.88516583       3.88583404
Li      16.77712471      34.99136335       0.55781300
Li      17.88332223      31.66334231       7.22328357
Li      15.66149871      32.76953983       6.10765756
Li      14.55530119      33.88516583       8.32948108
Li      16.77712471      34.99136335       5.00146005
Li      17.88332223      31.66334231      11.66693061
Li      15.66149871      32.76953983      10.55130461
Li      14.55530119      33.88516583      12.77312813
Li      16.77712471      34.99136335       9.44510709
Li      17.88332223      31.66334231      16.11057766
Li      15.66149871      32.76953983      14.99495165
Li      14.55530119      33.88516583      17.21677517
Li      16.77712471      34.99136335      13.88875414
Li      17.88332223      31.66334231      20.55422470
Li      15.66149871      32.76953983      19.43859870
Li      14.55530119      33.88516583      21.66042222
Li      16.77712471      34.99136335      18.33240118
Li      17.88332223      31.66334231      24.99787175
Li      15.66149871      32.76953983      23.88224574
Li      14.55530119      33.88516583      26.10406926
Li      16.77712471      34.99136335      22.77604822
Li      17.88332223      31.66334231      29.44151879
Li      15.66149871      32.76953983      28.32589278
Li      14.55530119      33.88516583      30.54771631
Li      16.77712471      34.99136335      27.21969527
Li      17.88332223      31.66334231      33.88516583
Li      15.66149871      32.76953983      32.76953983
Li      14.55530119      33.88516583      34.99136335
Li      16.77712471      34.99136335      31.66334231
Li      17.88332223      31.66334231      38.32881288
Li      15.66149871      32.76953983      37.21318687
Li      14.55530119      33.88516583      39.43501039
Li      16.77712471      34.99136335      36.10698936
Li      17.88332223      31.66334231      42.77245992
Li      15.66149871      32.76953983      41.65683392
Li      14.55530119      33.88516583      43.87865744
Li      16.77712471      34.99136335      40.55063640
Li      17.88332223      36.10698936       2.77963653
Li      15.66149871      37.21318687       1.66401052
Li      14.55530119      38.32881288       3.88583404
Li      16.77712471      39.43501039       0.55781300
Li      17.88332223      36.10698936       7.22328357
Li      15.66149871      37.21318687       6.10765756
Li      14.55530119      38.32881288       8.32948108
Li      16.77712471      39.43501039       5.00146005
Li      17.88332223      36.10698936      11.66693061
Li      15.66149871      37.21318687      10.55130461
Li      14.55530119      38.32881288      12.77312813
Li      16.77712471      39.43501039       9.44510709
Li      17.88332223      36.10698936      16.11057766
Li      15.66149871      37.21318687      14.99495165
Li      14.55530119      38.32881288      17.21677517
Li      16.77712471      39.43501039      13.88875414
Li      17.88332223      36.10698936      20.55422470
Li      15.66149871      37.21318687      19.43859870
Li      14.55530119      38.32881288      21.66042222
Li      16.77712471      39.43501039      18.33240118
Li      17.88332223      36.10698936      24.99787175
Li      15.66149871      37.21318687      23.88224574
Li      14.55530119      38.32881288      26.10406926
Li      16.77712471      39.43501039      22.77604822
Li      17.88332223      36.10698936      29.44151879
Li      15.66149871      37.21318687      28.32589278
Li      14.55530119      38.32881288      30.54771631
Li      16.77712471      39.43501039      27.21969527
Li      17.88332223      36.10698936      33.88516583
Li      15.66149871      37.21318687      32.76953983
Li      14.55530119      38.32881288      34.99136335
Li      16.77712471      39.43501039      31.66334231
Li      17.88332223      36.10698936      38.32881288
Li      15.66149871      37.21318687      37.21318687
Li      14.55530119      38.32881288      39.43501039
Li      16.77712471      39.43501039      36.10698936
Li      17.88332223      36.10698936      42.77245992
Li      15.66149871      37.21318687      41.65683392
Li      14.55530119      38.32881288      43.87865744
Li      16.77712471      39.43501039      40.55063640
Li      17.88332223      40.55063640       2.77963653
Li      15.66149871      41.65683392       1.66401052
Li      14.55530119      42.77245992       3.88583404
Li      16.77712471      43.87865744       0.55781300
Li      17.88332223      40.55063640       7.22328357
Li      15.66149871      41.65683392       6.10765756
Li      14.55530119      42.77245992       8.32948108
Li      16.77712471      43.87865744       5.00146005
Li      17.88332223      40.55063640      11.66693061
Li      15.66149871      41.65683392      10.55130461
Li      14.55530119      42.77245992      12.77312813
Li      16.77712471      43.87865744       9.44510709
Li      17.88332223      40.55063640      16.11057766
Li      15.66149871      41.65683392      14.99495165
Li      14.55530119      42.77245992      17.21677517
Li      16.77712471      43.87865744      13.88875414
Li      17.88332223      40.55063640      20.55422470
Li      15.66149871      41.65683392      19.43859870
Li      14.55530119      42.77245992      21.66042222
Li      16.77712471      43.87865744      18.33240118
Li      17.88332223      40.55063640      24.99787175
Li      15.66149871      41.65683392      23.88224574
Li      14.55530119      42.77245992      26.10406926
Li      16.77712471      43.87865744      22.77604822
Li      17.88332223      40.55063640      29.44151879
Li      15.66149871      41.65683392      28.32589278
Li      14.55530119      42.77245992      30.54771631
Li      16.77712471      43.87865744      27.21969527
Li      17.88332223      40.55063640      33.88516583
Li      15.66149871      41.65683392      32.76953983
Li      14.55530119      42.77245992      34.99136335
Li      16.77712471      43.87865744      31.66334231
Li      17.88332223      40.55063640      38.32881288
Li      15.66149871      41.65683392      37.21318687
Li      14.55530119      42.77245992      39.43501039
Li      16.77712471      43.87865744      36.10698936
Li      17.88332223      40.55063640      42.77245992
Li      15.66149871      41.65683392      41.65683392
Li      14.55530119      42.77245992      43.87865744
Li      16.77712471      43.87865744      40.55063640
Li      22.54915163       0.55781300       2.77963653
Li      20.32732810       1.66401052       1.66401052
Li      19.22113059       2.77963653       3.88583404
Li      21.44295411       3.88583404       0.55781300
Li      22.54915163       0.55781300       7.22328357
Li      20.32732810       1.66401052       6.10765756
Li      19.22113059       2.77963653       8.32948108
Li      21.44295411       3.88583404       5.00146005
Li      22.54915163       0.55781300      11.66693061
Li      20.32732810       1.66401052      10.55130461
Li      19.22113059       2.77963653      12.77312813
Li      21.44295411       3.88583404       9.44510709
Li      22.54915163       0.55781300      16.11057766
Li      20.32732810       1.66401052      14.99495165
Li      19.22113059       2.77963653      17.21677517
Li      21.44295411       3.88583404      13.88875414
Li      22.54915163       0.55781300      20.55422470
Li      20.32732810       1.66401052      19.43859870
Li      19.22113059       2.77963653      21.66042222
Li      21.44295411       3.88583404      18.33240118
Li      22.54915163       0.55781300      24.99787175
Li      20.32732810       1.66401052      23.88224574
Li      19.22113059       2.77963653      26.10406926
Li      21.44295411       3.88583404      22.77604822
Li      22.54915163       0.55781300      29.44151879
Li      20.32732810       1.66401052      28.32589278
Li      19.22113059       2.77963653      30.54771631
Li      21.44295411       3.88583404      27.21969527
Li      22.54915163       0.55781300      33.88516583
Li      20.32732810       1.66401052      32.76953983
Li      19.22113059       2.77963653      34.99136335
Li      21.44295411       3.88583404      31.66334231
Li      22.54915163       0.55781300      38.32881288
Li      20.32732810       1.66401052      37.21318687
Li      19.22113059       2.77963653      39.43501039
Li      21.44295411       3.88583404      36.10698936
Li      22.54915163       0.55781300      42.77245992
Li      20.32732810       1.66401052      41.65683392
Li      19.22113059       2.77963653      43.87865744
Li      21.44295411       3.88583404      40.55063640
Li      22.54915163       5.00146005       2.77963653
Li      20.32732810       6.10765756       1.66401052
Li      19.22113059       7.22328357       3.88583404
Li      21.44295411       8.32948108       0.55781300
Li      22.54915163       5.00146005       7.22328357
Li      20.32732810       6.10765756       6.10765756
Li      19.22113059       7.22328357       8.32948108
Li      21.44295411       8.32948108       5.00146005
Li      22.54915163       5.00146005      11.66693061
Li      20.32732810       6.10765756      10.55130461
Li      19.22113059       7.22328357      12.77312813
Li      21.44295411       8.32948108       9.44510709
Li      22.54915163       5.00146005      16.11057766
Li      20.32732810       6.10765756      14.99495165
Li      19.22113059       7.22328357      17.21677517
Li      21.44295411       8.32948108      13.88875414
Li      22.54915163       5.00146005      20.55422470
Li      20.32732810       6.10765756      19.43859870
Li      19.22113059       7.22328357      21.66042222
Li      21.44295411       8.32948108      18.33240118
Li      22.54915163       5.00146005      24.99787175
Li      20.32732810       6.10765756      23.88224574
Li      19.22113059       7.22328357      26.10406926
Li      21.44295411       8.32948108      22.77604822
Li      22.54915163       5.00146005      29.44151879
Li      20.32732810       6.10765756      28.32589278
Li      19.22113059       7.22328357      30.54771631
Li      21.44295411       8.32948108      27.21969527
Li      22.54915163       5.00146005      33.88516583
Li      20.32732810       6.10765756      32.76953983
Li      19.22113059       7.22328357      34.99136335
Li      21.44295411       8.32948108      31.66334231
Li      22.54915163       5.00146005      38.32881288
Li      20.32732810       6.10765756      37.21318687
Li      19.22113059       7.22328357      39.43501039
Li      21.44295411       8.32948108      36.10698936
Li      22.54915163       5.00146005      42.77245992
Li      20.32732810       6.10765756      41.65683392
Li      19.22113059       7.22328357      43.87865744
Li      21.44295411       8.32948108      40.55063640
Li      22.54915163       9.44510709       2.77963653
Li      20.32732810      10.55130461       1.66401052
Li      19.22113059      11.66693061       3.88583404
Li      21.44295411      12.77312813       0.55781300
Li      22.54915163       9.44510709       7.22328357
Li      20.32732810      10.55130461       6.10765756
Li      19.22113059      11.66693061       8.32948108
Li      21.44295411      12.77312813       5.00146005
Li      22.54915163       9.44510709      11.66693061
Li      20.32732810      10.55130461      10.55130461
Li      19.22113059      11.66693061      12.77312813
Li      21.44295411      12.77312813       9.44510709
Li      22.54915163       9.44510709      16.11057766
Li      20.32732810      10.55130461      14.99495165
Li      19.22113059      11.66693061      17.21677517
Li      21.44295411      12.77312813      13.88875414
Li      22.54915163       9.44510709      20.55422470
Li      20.32732810      10.55130461      19.43859870
Li      19.22113059      11.66693061      21.66042222
Li      21.44295411      12.77312813      18.33240118
Li      22.54915163       9.44510709      24.99787175
Li      20.32732810      10.55130461      23.88224574
Li      19.22113059      11.66693061      26.10406926
Li      21.44295411      12.77312813      22.77604822
Li      22.54915163       9.44510709      29.44151879
Li      20.32732810      10.55130461      28.32589278
Li      19.22113059      11.66693061      30.54771631
Li      21.44295411      12.77312813      27.21969527
Li      22.54915163       9.44510709      33.88516583
Li      20.32732810      10.55130461      32.76953983
Li      19.22113059      11.66693061      34.99136335
Li      21.44295411      12.77312813      31.66334231
Li      22.54915163       9.44510709      38.32881288
Li      20.32732810      10.55130461      37.21318687
Li      19.22113059      11.66693061      39.43501039
Li      21.44295411      12.77312813      36.10698936
Li      22.54915163       9.44510709      42.77245992
Li      20.32732810      10.55130461      41.65683392
Li      19.22113059      11.66693061      43.87865744
Li      21.44295411      12.77312813      40.55063640
Li      22.54915163      13.88875414       2.77963653
Li      20.32732810      14.99495165       1.66401052
Li      19.22113059      16.11057766       3.88583404
Li      21.44295411      17.21677517       0.55781300
Li      22.54915163      13.88875414       7.22328357
Li      20.32732810      14.99495165       6.10765756
Li      19.22113059      16.11057766       8.32948108
Li      21.44295411      17.21677517       5.00146005
Li      22.54915163      13.88875414      11.66693061
Li      20.32732810      14.99495165      10.55130461
Li      19.22113059      16.11057766      12.77312813
Li      21.44295411      17.21677517       9.44510709
Li      22.54915163      13.88875414      16.11057766
Li      20.32732810      14.99495165      14.99495165
Li      19.22113059      16.11057766      17.21677517
Li      21.44295411      17.21677517      13.88875414
Li      22.54915163      13.88875414      20.55422470
Li      20.32732810      14.99495165      19.43859870
Li      19.22113059      16.11057766      21.66042222
Li      21.44295411      17.21677517      18.33240118
Li      22.54915163      13.88875414      24.99787175
Li      20.32732810      14.99495165      23.88224574
Li      19.22113059      16.11057766      26.10406926
Li      21.44295411      17.21677517      22.77604822
Li      22.54915163      13.88875414      29.44151879
Li      20.32732810      14.99495165      28.32589278
Li      19.22113059      16.11057766      30.54771631
Li      21.44295411      17.21677517      27.21969527
Li      22.54915163      13.88875414      33.88516583
Li      20.32732810      14.99495165      32.76953983
Li      19.22113059      16.11057766      34.99136335
Li      21.44295411      17.21677517      31.66334231
Li      22.54915163      13.88875414      38.32881288
Li      20.32732810      14.99495165      37.21318687
Li      19.22113059      16.11057766      39.43501039
Li      21.44295411      17.21677517      36.10698936
Li      22.54915163      13.88875414      42.77245992
Li      20.32732810      14.99495165      41.65683392
Li      19.22113059      16.11057766      43.87865744
Li      21.44295411      17.21677517      40.55063640
Li      22.54915163      18.33240118       2.77963653
Li      20.32732810      19.43859870       1.66401052
Li      19.22113059      20.55422470       3.88583404
Li      21.44295411      21.66042222       0.55781300
Li      22.54915163      18.33240118       7.22328357
Li      20.32732810      19.43859870       6.10765756
Li      19.22113059      20.55422470       8.32948108
Li      21.44295411      21.66042222       5.00146005
Li      22.54915163      18.33240118      11.66693061
Li      20.32732810      19.43859870      10.55130461
Li      19.22113059      20.55422470      12.77312813
Li      21.44295411      21.66042222       9.44510709
Li      22.54915163      18.33240118      16.11057766
Li      20.32732810      19.43859870      14.99495165
Li      19.22113059      20.55422470      17.21677517
Li      21.44295411      21.66042222      13.88875414
Li      22.54915163      18.33240118      20.55422470
Li      20.32732810      19.43859870      19.43859870
Li      19.22113059      20.55422470      21.66042222
Li      21.44295411      21.66042222      18.33240118
Li      22.54915163      18.33240118      24.99787175
Li      20.32732810      19.43859870      23.88224574
Li      19.22113059      20.55422470      26.10406926
Li      21.44295411      21.66042222      22.77604822
Li      22.54915163      18.33240118      29.44151879
Li      20.32732810      19.43859870      28.32589278
Li      19.22113059      20.55422470      30.54771631
Li      21.44295411      21.66042222      27.21969527
Li      22.54915163      18.33240118      33.88516583
Li      20.32732810      19.43859870      32.76953983
Li      19.22113059      20.55422470      34.99136335
Li      21.44295411      21.66042222      31.66334231
Li      22.54915163      18.33240118      38.32881288
Li      20.32732810      19.43859870      37.21318687
Li      19.22113059      20.55422470      39.43501039
Li      21.44295411      21.66042222      36.10698936
Li      22.54915163      18.33240118      42.77245992
Li      20.32732810      19.43859870      41.65683392
Li      19.22113059      20.55422470      43.87865744
Li      21.44295411      21.66042222      40.55063640
Li      22.54915163      22.77604822       2.77963653
Li      20.32732810      23.88224574       1.66401052
Li      19.22113059      24.99787175       3.88583404
Li      21.44295411      26.10406926       0.55781300
Li      22.54915163      22.77604822       7.22328357
Li      20.32732810      23.88224574       6.10765756
Li      19.22113059      24.99787175       8.32948108
Li      21.44295411      26.10406926       5.00146005
Li      22.54915163      22.77604822      11.66693061
Li      20.32732810      23.88224574      10.55130461
Li      19.22113059      24.99787175      12.77312813
Li      21.44295411      26.10406926       9.44510709
Li      22.54915163      22.77604822      16.11057766
Li      20.32732810      23.88224574      14.99495165
Li      19.22113059      24.99787175      17.21677517
Li      21.44295411      26.10406926      13.88875414
Li      22.54915163      22.77604822      20.55422470
Li      20.32732810      23.88224574      19.43859870
Li      19.22113059      24.99787175      21.66042222
Li      21.44295411      26.10406926      18.33240118
Li      22.54915163      22.77604822      24.99787175
Li      20.32732810      23.88224574      23.88224574
Li      19.22113059      24.99787175      26.10406926
Li      21.44295411      26.10406926      22.77604822
Li      22.54915163      22.77604822      29.44151879
Li      20.32732810      23.88224574      28.32589278
Li      19.22113059      24.99787175      30.54771631
Li      21.44295411      26.10406926      27.21969527
Li      22.54915163      22.77604822      33.88516583
Li      20.32732810      23.88224574      32.76953983
Li      19.22113059      24.99787175      34.99136335
Li      21.44295411      26.10406926      31.66334231
Li      22.54915163      22.77604822      38.32881288
Li      20.32732810      23.88224574      37.21318687
Li      19.22113059      24.99787175      39.43501039
Li      21.44295411      26.10406926      36.10698936
Li      22.54915163      22.77604822      42.77245992
Li      20.32732810      23.88224574      41.65683392
Li      19.22113059      24.99787175      43.87865744
Li      21.44295411      26.10406926      40.55063640
Li      22.54915163      27.21969527       2.77963653
Li      20.32732810      28.32589278       1.66401052
Li      19.22113059      29.44151879       3.88583404
Li      21.44295411      30.54771631       0.55781300
Li      22.54915163      27.21969527       7.22328357
Li      20.32732810      28.32589278       6.10765756
Li      19.22113059      29.44151879       8.32948108
Li      21.44295411      30.54771631       5.00146005
Li      22.54915163      27.21969527      11.66693061
Li      20.32732810      28.32589278      10.55130461
Li      19.22113059      29.44151879      12.77312813
Li      21.44295411      30.54771631       9.44510709
Li      22.54915163      27.21969527      16.11057766
Li      20.32732810      28.32589278      14.99495165
Li      19.22113059      29.44151879      17.21677517
Li      21.44295411      30.54771631      13.88875414
Li      22.54915163      27.21969527      20.55422470
Li      20.32732810      28.32589278      19.43859870
Li      19.22113059      29.44151879      21.66042222
Li      21.44295411      30.54771631      18.33240118
Li      22.54915163      27.21969527      24.99787175
Li      20.32732810      28.32589278      23.88224574
Li      19.22113059      29.44151879      26.10406926
Li      21.44295411      30.54771631      22.77604822
Li      22.54915163      27.21969527      29.44151879
Li      20.32732810      28.32589278      28.32589278
Li      19.22113059      29.44151879      30.54771631
Li      21.44295411      30.54771631      27.21969527
Li      22.54915163      27.21969527      33.88516583
Li      20.32732810      28.32589278      32.76953983
Li      19.22113059      29.44151879      34.99136335
Li      21.44295411      30.54771631      31.66334231
Li      22.54915163      27.21969527      38.32881288
Li      20.32732810      28.32589278      37.21318687
Li      19.22113059      29.44151879      39.43501039
Li      21.44295411      30.54771631      36.10698936
Li      22.54915163      27.21969527      42.77245992
Li      20.32732810      28.32589278      41.65683392
Li      19.22113059      29.44151879      43.87865744
Li      21.44295411      30.54771631      40.55063640
Li      22.54915163      31.66334231       2.77963653
Li      20.32732810      32.76953983       1.66401052
Li      19.22113059      33.88516583       3.88583404
Li      21.44295411      34.99136335       0.55781300
Li      22.54915163      31.66334231       7.22328357
Li      20.32732810      32.76953983       6.10765756
Li      19.22113059      33.88516583       8.32948108
Li      21.44295411      34.99136335       5.00146005
Li      22.54915163      31.66334231      11.66693061
Li      20.32732810      32.76953983      10.55130461
Li      19.22113059      33.88516583      12.77312813
Li      21.44295411      34.99136335       9.44510709
Li      22.54915163      31.66334231      16.11057766
Li      20.32732810      32.76953983      14.99495165
Li      19.22113059      33.88516583      17.21677517
Li      21.44295411      34.99136335      13.88875414
Li      22.54915163      31.66334231      20.55422470
Li      20.32732810      32.76953983      19.43859870
Li      19.22113059      33.88516583      21.66042222
Li      21.44295411      34.99136335      18.33240118
Li      22.54915163      31.66334231      24.99787175
Li      20.32732810      32.76953983      23.88224574
Li      19.22113059      33.88516583      26.10406926
Li      21.44295411      34.99136335      22.77604822
Li      22.54915163      31.66334231      29.44151879
Li      20.32732810      32.76953983      28.32589278
Li      19.22113059      33.88516583      30.54771631
Li      21.44295411      34.99136335      27.21969527
Li      22.54915163      31.66334231      33.88516583
Li      20.32732810      32.76953983      32.76953983
Li      19.22113059      33.88516583      34.99136335
Li      21.44295411      34.99136335      31.66334231
Li      22.54915163      31.66334231      38.32881288
Li      20.32732810      32.76953983      37.21318687
Li      19.22113059      33.88516583      39.43501039
Li      21.44295411      34.99136335      36.10698936
Li      22.54915163      31.66334231      42.77245992
Li      20.32732810      32.76953983      41.65683392
Li      19.22113059      33.88516583      43.87865744
Li      21.44295411      34.99136335      40.55063640
Li      22.54915163      36.10698936       2.77963653
Li      20.32732810      37.21318687       1.66401052
Li      19.22113059      38.32881288       3.88583404
Li      21.44295411      39.43501039       0.55781300
Li      22.54915163      36.10698936       7.22328357
Li      20.32732810      37.21318687       6.10765756
Li      19.22113059      38.32881288       8.32948108
Li      21.44295411      39.43501039       5.00146005
Li      22.54915163      36.10698936      11.66693061
Li      20.32732810      37.21318687      10.55130461
Li      19.22113059      38.32881288      12.77312813
Li      21.44295411      39.43501039       9.44510709
Li      22.54915163      36.10698936      16.11057766
Li      20.32732810      37.21318687      14.99495165
Li      19.22113059      38.32881288      17.21677517
Li      21.44295411      39.43501039      13.88875414
Li      22.54915163      36.10698936      20.55422470
Li      20.32732810      37.21318687      19.43859870
Li      19.22113059      38.32881288      21.66042222
Li      21.44295411      39.43501039      18.33240118
Li      22.54915163      36.10698936      24.99787175
Li      20.32732810      37.21318687      23.88224574
Li      19.22113059      38.32881288      26.10406926
Li      21.44295411      39.43501039      22.77604822
Li      22.54915163      36.10698936      29.44151879
Li      20.32732810      37.21318687      28.32589278
Li      19.22113059      38.32881288      30.54771631
Li      21.44295411      39.43501039      27.21969527
Li      22.54915163      36.10698936      33.88516583
Li      20.32732810      37.21318687      32.76953983
Li      19.22113059      38.32881288      34.99136335
Li      21.44295411      39.43501039      31.66334231
Li      22.54915163      36.10698936      38.32881288
Li      20.32732810      37.21318687      37.21318687
Li      19.22113059      38.32881288      39.43501039
Li      21.44295411      39.43501039      36.10698936
Li      22.54915163      36.10698936      42.77245992
Li      20.32732810      37.21318687      41.65683392
Li      19.22113059      38.32881288      43.87865744
Li      21.44295411      39.43501039      40.55063640
Li      22.54915163      40.55063640       2.77963653
Li      20.32732810      41.65683392       1.66401052
Li      19.22113059      42.77245992       3.88583404
Li      21.44295411      43.87865744       0.55781300
Li      22.54915163      40.55063640       7.22328357
Li      20.32732810      41.65683392       6.10765756
Li      19.22113059      42.77245992       8.32948108
Li      21.44295411      43.87865744       5.00146005
Li      22.54915163      40.55063640      11.66693061
Li      20.32732810      41.65683392      10.55130461
Li      19.22113059      42.77245992      12.77312813
Li      21.44295411      43.87865744       9.44510709
Li      22.54915163      40.55063640      16.11057766
Li      20.32732810      41.65683392      14.99495165
Li      19.22113059      42.77245992      17.21677517
Li      21.44295411      43.87865744      13.88875414
Li      22.54915163      40.55063640      20.55422470
Li      20.32732810      41.65683392      19.43859870
Li      19.22113059      42.77245992      21.66042222
Li      21.44295411      43.87865744      18.33240118
Li      22.54915163      40.55063640      24.99787175
Li      20.32732810      41.65683392      23.88224574
Li      19.22113059      42.77245992      26.10406926
Li      21.44295411      43.87865744      22.77604822
Li      22.54915163      40.55063640      29.44151879
Li      20.32732810      41.65683392      28.32589278
Li      19.22113059      42.77245992      30.54771631
Li      21.44295411      43.87865744      27.21969527
Li      22.54915163      40.55063640      33.88516583
Li      20.32732810      41.65683392      32.76953983
Li      19.22113059      42.77245992      34.99136335
Li      21.44295411      43.87865744      31.66334231
Li      22.54915163      40.55063640      38.32881288
Li      20.32732810      41.65683392      37.21318687
Li      19.22113059      42.77245992      39.43501039
Li      21.44295411      43.87865744      36.10698936
Li      22.54915163      40.55063640      42.77245992
Li      20.32732810      41.65683392      41.65683392
Li      19.22113059      42.77245992      43.87865744
Li      21.44295411      43.87865744      40.55063640
Li      27.21498102       0.55781300       2.77963653
Li      24.99315750       1.66401052       1.66401052
Li      23.88695998       2.77963653       3.88583404
Li      26.10878351       3.88583404       0.55781300
Li      27.21498102       0.55781300       7.22328357
Li      24.99315750       1.66401052       6.10765756
Li      23.88695998       2.77963653       8.32948108
Li      26.10878351       3.88583404       5.00146005
Li      27.21498102       0.55781300      11.66693061
Li      24.99315750       1.66401052      10.55130461
Li      23.88695998       2.77963653      12.77312813
Li      26.10878351       3.88583404       9.44510709
Li      27.21498102       0.55781300      16.11057766
Li      24.99315750       1.66401052      14.99495165
Li      23.88695998       2.77963653      17.21677517
Li      26.10878351       3.88583404      13.88875414
Li      27.21498102       0.55781300      20.55422470
Li      24.99315750       1.66401052      19.43859870
Li      23.88695998       2.77963653      21.66042222
Li      26.10878351       3.88583404      18.33240118
Li      27.21498102       0.55781300      24.99787175
Li      24.99315750       1.66401052      23.88224574
Li      23.88695998       2.77963653      26.10406926
Li      26.10878351       3.88583404      22.77604822
Li      27.21498102       0.55781300      29.44151879
Li      24.99315750       1.66401052      28.32589278
Li      23.88695998       2.77963653      30.54771631
Li      26.10878351       3.88583404      27.21969527
Li      27.21498102       0.55781300      33.88516583
Li      24.99315750       1.66401052      32.76953983
Li      23.88695998       2.77963653      34.99136335
Li      26.10878351       3.88583404      31.66334231
Li      27.21498102       0.55781300      38.32881288
Li      24.99315750       1.66401052      37.21318687
Li      23.88695998       2.77963653      39.43501039
Li      26.10878351       3.88583404      36.10698936
Li      27.21498102       0.55781300      42.77245992
Li      24.99315750       1.66401052      41.65683392
Li      23.88695998       2.77963653      43.87865744
Li      26.10878351       3.88583404      40.55063640
Li      27.21498102       5.00146005       2.77963653
Li      24.99315750       6.10765756       1.66401052
Li      23.88695998       7.22328357       3.88583404
Li      26.10878351       8.32948108       0.55781300
Li      27.21498102       5.00146005       7.22328357
Li      24.99315750       6.10765756       6.10765756
Li      23.88695998       7.22328357       8.32948108
Li      26.10878351       8.32948108       5.00146005
Li      27.21498102       5.00146005      11.66693061
Li      24.99315750       6.10765756      10.55130461
Li      23.88695998       7.22328357      12.77312813
Li      26.10878351       8.32948108       9.44510709
Li      27.21498102       5.00146005      16.11057766
Li      24.99315750       6.10765756      14.99495165
Li      23.88695998       7.22328357      17.21677517
Li      26.10878351       8.32948108      13.88875414
Li      27.21498102       5.00146005      20.55422470
Li      24.99315750       6.10765756      19.43859870
Li      23.88695998       7.22328357      21.66042222
Li      26.10878351       8.32948108      18.33240118
Li      27.21498102       5.00146005      24.99787175
Li      24.99315750       6.10765756      23.88224574
Li      23.88695998       7.22328357      26.10406926
Li      26.10878351       8.32948108      22.77604822
Li      27.21498102       5.00146005      29.44151879
Li      24.99315750       6.10765756      28.32589278
Li      23.88695998       7.22328357      30.54771631
Li      26.10878351       8.32948108      27.21969527
Li      27.21498102       5.00146005      33.88516583
Li      24.99315750       6.10765756      32.76953983
Li      23.88695998       7.22328357      34.99136335
Li      26.10878351       8.32948108      31.66334231
Li      27.21498102       5.00146005      38.32881288
Li      24.99315750       6.10765756      37.21318687
Li      23.88695998       7.22328357      39.43501039
Li      26.10878351       8.32948108      36.10698936
Li      27.21498102       5.00146005      42.77245992
Li      24.99315750       6.10765756      41.65683392
Li      23.88695998       7.22328357      43.87865744
Li      26.10878351       8.32948108      40.55063640
Li      27.21498102       9.44510709       2.77963653
Li      24.99315750      10.55130461       1.66401052
Li      23.88695998      11.66693061       3.88583404
Li      26.10878351      12.77312813       0.55781300
Li      27.21498102       9.44510709       7.22328357
Li      24.99315750      10.55130461       6.10765756
Li      23.88695998      11.66693061       8.32948108
Li      26.10878351      12.77312813       5.00146005
Li      27.21498102       9.44510709      11.66693061
Li      24.99315750      10.55130461      10.55130461
Li      23.88695998      11.66693061      12.77312813
Li      26.10878351      12.77312813       9.44510709
Li      27.21498102       9.44510709      16.11057766
Li      24.99315750      10.55130461      14.99495165
Li      23.88695998      11.66693061      17.21677517
Li      26.10878351      12.77312813      13.88875414
Li      27.21498102       9.44510709      20.55422470
Li      24.99315750      10.55130461      19.43859870
Li      23.88695998      11.66693061      21.66042222
Li      26.10878351      12.77312813      18.33240118
Li      27.21498102       9.44510709      24.99787175
Li      24.99315750      10.55130461      23.88224574
Li      23.88695998      11.66693061      26.10406926
Li      26.10878351      12.77312813      22.77604822
Li      27.21498102       9.44510709      29.44151879
Li      24.99315750      10.55130461      28.32589278
Li      23.88695998      11.66693061      30.54771631
Li      26.10878351      12.77312813      27.21969527
Li      27.21498102       9.44510709      33.88516583
Li      24.99315750      10.55130461      32.76953983
Li      23.88695998      11.66693061      34.99136335
Li      26.10878351      12.77312813      31.66334231
Li      27.21498102       9.44510709      38.32881288
Li      24.99315750      10.55130461      37.21318687
Li      23.88695998      11.66693061      39.43501039
Li      26.10878351      12.77312813      36.10698936
Li      27.21498102       9.44510709      42.77245992
Li      24.99315750      10.55130461      41.65683392
Li      23.88695998      11.66693061      43.87865744
Li      26.10878351      12.77312813      40.55063640
Li      27.21498102      13.88875414       2.77963653
Li      24.99315750      14.99495165       1.66401052
Li      23.88695998      16.11057766       3.88583404
Li      26.10878351      17.21677517       0.55781300
Li      27.21498102      13.88875414       7.22328357
Li      24.99315750      14.99495165       6.10765756
Li      23.88695998      16.11057766       8.32948108
Li      26.10878351      17.21677517       5.00146005
Li      27.21498102      13.88875414      11.66693061
Li      24.99315750      14.99495165      10.55130461
Li      23.88695998      16.11057766      12.77312813
Li      26.10878351      17.21677517       9.44510709
Li      27.21498102      13.88875414      16.11057766
Li      24.99315750      14.99495165      14.99495165
Li      23.88695998      16.11057766      17.21677517
Li      26.10878351      17.21677517      13.88875414
Li      27.21498102      13.88875414      20.55422470
Li      24.99315750      14.99495165      19.43859870
Li      23.88695998      16.11057766      21.66042222
Li      26.10878351      17.21677517      18.33240118
Li      27.21498102      13.88875414      24.99787175
Li      24.99315750      14.99495165      23.88224574
Li      23.88695998      16.11057766      26.10406926
Li      26.10878351      17.21677517      22.77604822
Li      27.21498102      13.88875414      29.44151879
Li      24.99315750      14.99495165      28.32589278
Li      23.88695998      16.11057766      30.54771631
Li      26.10878351      17.21677517      27.21969527
Li      27.21498102      13.88875414      33.88516583
Li      24.99315750      14.99495165      32.76953983
Li      23.88695998      16.11057766      34.99136335
Li      26.10878351      17.21677517      31.66334231
Li      27.21498102      13.88875414      38.32881288
Li      24.99315750      14.99495165      37.21318687
Li      23.88695998      16.11057766      39.43501039
Li      26.10878351      17.21677517      36.10698936
Li      27.21498102      13.88875414      42.77245992
Li      24.99315750      14.99495165      41.65683392
Li      23.88695998      16.11057766      43.87865744
Li      26.10878351      17.21677517      40.55063640
Li      27.21498102      18.33240118       2.77963653
Li      24.99315750      19.43859870       1.66401052
Li      23.88695998      20.55422470       3.88583404
Li      26.10878351      21.66042222       0.55781300
Li      27.21498102      18.33240118       7.22328357
Li      24.99315750      19.43859870       6.10765756
Li      23.88695998      20.55422470       8.32948108
Li      26.10878351      21.66042222       5.00146005
Li      27.21498102      18.33240118      11.66693061
Li      24.99315750      19.43859870      10.55130461
Li      23.88695998      20.55422470      12.77312813
Li      26.10878351      21.66042222       9.44510709
Li      27.21498102      18.33240118      16.11057766
Li      24.99315750      19.43859870      14.99495165
Li      23.88695998      20.55422470      17.21677517
Li      26.10878351      21.66042222      13.88875414
Li      27.21498102      18.33240118      20.55422470
Li      24.99315750      19.43859870      19.43859870
Li      23.88695998      20.55422470      21.66042222
Li      26.10878351      21.66042222      18.33240118
Li      27.21498102      18.33240118      24.99787175
Li      24.99315750      19.43859870      23.88224574
Li      23.88695998      20.55422470      26.10406926
Li      26.10878351      21.66042222      22.77604822
Li      27.21498102      18.33240118      29.44151879
Li      24.99315750      19.43859870      28.32589278
Li      23.88695998      20.55422470      30.54771631
Li      26.10878351      21.66042222      27.21969527
Li      27.21498102      18.33240118      33.88516583
Li      24.99315750      19.43859870      32.76953983
Li      23.88695998      20.55422470      34.99136335
Li      26.10878351      21.66042222      31.66334231
Li      27.21498102      18.33240118      38.32881288
Li      24.99315750      19.43859870      37.21318687
Li      23.88695998      20.55422470      39.43501039
Li      26.10878351      21.66042222      36.10698936
Li      27.21498102      18.33240118      42.77245992
Li      24.99315750      19.43859870      41.65683392
Li      23.88695998      20.55422470      43.87865744
Li      26.10878351      21.66042222      40.55063640
Li      27.21498102      22.77604822       2.77963653
Li      24.99315750      23.88224574       1.66401052
Li      23.88695998      24.99787175       3.88583404
Li      26.10878351      26.10406926       0.55781300
Li      27.21498102      22.77604822       7.22328357
Li      24.99315750      23.88224574       6.10765756
Li      23.88695998      24.99787175       8.32948108
Li      26.10878351      26.10406926       5.00146005
Li      27.21498102      22.77604822      11.66693061
Li      24.99315750      23.88224574      10.55130461
Li      23.88695998      24.99787175      12.77312813
Li      26.10878351      26.10406926       9.44510709
Li      27.21498102      22.77604822      16.11057766
Li      24.99315750      23.88224574      14.99495165
Li      23.88695998      24.99787175      17.21677517
Li      26.10878351      26.10406926      13.88875414
Li      27.21498102      22.77604822      20.55422470
Li      24.99315750      23.88224574      19.43859870
Li      23.88695998      24.99787175      21.66042222
Li      26.10878351      26.10406926      18.33240118
Li      27.21498102      22.77604822      24.99787175
Li      24.99315750      23.88224574      23.88224574
Li      23.88695998      24.99787175      26.10406926
Li      26.10878351      26.10406926      22.77604822
Li      27.21498102      22.77604822      29.44151879
Li      24.99315750      23.88224574      28.32589278
Li      23.88695998      24.99787175      30.54771631
Li      26.10878351      26.10406926      27.21969527
Li      27.21498102      22.77604822      33.88516583
Li      24.99315750      23.88224574      32.76953983
Li      23.88695998      24.99787175      34.99136335
Li      26.10878351      26.10406926      31.66334231
Li      27.21498102      22.77604822      38.32881288
Li      24.99315750      23.88224574      37.21318687
Li      23.88695998      24.99787175      39.43501039
Li      26.10878351      26.10406926      36.10698936
Li      27.21498102      22.77604822      42.77245992
Li      24.99315750      23.88224574      41.65683392
Li      23.88695998      24.99787175      43.87865744
Li      26.10878351      26.10406926      40.55063640
Li      27.21498102      27.21969527       2.77963653
Li      24.99315750      28.32589278       1.66401052
Li      23.88695998      29.44151879       3.88583404
Li      26.10878351      30.54771631       0.55781300
Li      27.21498102      27.21969527       7.22328357
Li      24.99315750      28.32589278       6.10765756
Li      23.88695998      29.44151879       8.32948108
Li      26.10878351      30.54771631       5.00146005
Li      27.21498102      27.21969527      11.66693061
Li      24.99315750      28.32589278      10.55130461
Li      23.88695998      29.44151879      12.77312813
Li      26.10878351      30.54771631       9.44510709
Li      27.21498102      27.21969527      16.11057766
Li      24.99315750      28.32589278      14.99495165
Li      23.88695998      29.44151879      17.21677517
Li      26.10878351      30.54771631      13.88875414
Li      27.21498102      27.21969527      20.55422470
Li      24.99315750      28.32589278      19.43859870
Li      23.88695998      29.44151879      21.66042222
Li      26.10878351      30.54771631      18.33240118
Li      27.21498102      27.21969527      24.99787175
Li      24.99315750      28.32589278      23.88224574
Li      23.88695998      29.44151879      26.10406926
Li      26.10878351      30.54771631      22.77604822
Li      27.21498102      27.21969527      29.44151879
Li      24.99315750      28.32589278      28.32589278
Li      23.88695998      29.44151879      30.54771631
Li      26.10878351      30.54771631      27.21969527
Li      27.21498102      27.21969527      33.88516583
Li      24.99315750      28.32589278      32.76953983
Li      23.88695998      29.44151879      34.99136335
Li      26.10878351      30.54771631      31.66334231
Li      27.21498102      27.21969527      38.32881288
Li      24.99315750      28.32589278      37.21318687
Li      23.88695998      29.44151879      39.43501039
Li      26.10878351      30.54771631      36.10698936
Li      27.21498102      27.21969527      42.77245992
Li      24.99315750      28.32589278      41.65683392
Li      23.88695998      29.44151879      43.87865744
Li      26.10878351      30.54771631      40.55063640
Li      27.21498102      31.66334231       2.77963653
Li      24.99315750      32.76953983       1.66401052
Li      23.88695998      33.88516583       3.88583404
Li      26.10878351      34.99136335       0.55781300
Li      27.21498102      31.66334231       7.22328357
Li      24.99315750      32.76953983       6.10765756
Li      23.88695998      33.88516583       8.32948108
Li      26.10878351      34.99136335       5.00146005
Li      27.21498102      31.66334231      11.66693061
Li      24.99315750      32.76953983      10.55130461
Li      23.88695998      33.88516583      12.77312813
Li      26.10878351      34.99136335       9.44510709
Li      27.21498102      31.66334231      16.11057766
Li      24.99315750      32.76953983      14.99495165
Li      23.88695998      33.88516583      17.21677517
Li      26.10878351      34.99136335      13.88875414
Li      27.21498102      31.66334231      20.55422470
Li      24.99315750      32.76953983      19.43859870
Li      23.88695998      33.88516583      21.66042222
Li      26.10878351      34.99136335      18.33240118
Li      27.21498102      31.66334231      24.99787175
Li      24.99315750      32.76953983      23.88224574
Li      23.88695998      33.88516583      26.10406926
Li      26.10878351      34.99136335      22.77604822
Li      27.21498102      31.66334231      29.44151879
Li      24.99315750      32.76953983      28.32589278
Li      23.88695998      33.88516583      30.54771631
Li      26.10878351      34.99136335      27.21969527
Li      27.21498102      31.66334231      33.88516583
Li      24.99315750      32.76953983      32.76953983
Li      23.88695998      33.88516583      34.99136335
Li      26.10878351      34.99136335      31.66334231
Li      27.21498102      31.66334231      38.32881288
Li      24.99315750      32.76953983      37.21318687
Li      23.88695998      33.88516583      39.43501039
Li      26.10878351      34.99136335      36.10698936
Li      27.21498102      31.66334231      42.77245992
Li      24.99315750      32.76953983      41.65683392
Li      23.88695998      33.88516583      43.87865744
Li      26.10878351      34.99136335      40.55063640
Li      27.21498102      36.10698936       2.77963653
Li      24.99315750      37.21318687       1.66401052
Li      23.88695998      38.32881288       3.88583404
Li      26.10878351      39.43501039       0.55781300
Li      27.21498102      36.10698936       7.22328357
Li      24.99315750      37.21318687       6.10765756
Li      23.88695998      38.32881288       8.32948108
Li      26.10878351      39.43501039       5.00146005
Li      27.21498102      36.10698936      11.66693061
Li      24.99315750      37.21318687      10.55130461
Li      23.88695998      38.32881288      12.77312813
Li      26.10878351      39.43501039       9.44510709
Li      27.21498102      36.10698936      16.11057766
Li      24.99315750      37.21318687      14.99495165
Li      23.88695998      38.32881288      17.21677517
Li      26.10878351      39.43501039      13.88875414
Li      27.21498102      36.10698936      20.55422470
Li      24.99315750      37.21318687      19.43859870
Li      23.88695998      38.32881288      21.66042222
Li      26.10878351      39.43501039      18.33240118
Li      27.21498102      36.10698936      24.99787175
Li      24.99315750      37.21318687      23.88224574
Li      23.88695998      38.32881288      26.10406926
Li      26.10878351      39.43501039      22.77604822
Li      27.21498102      36.10698936      29.44151879
Li      24.99315750      37.21318687      28.32589278
Li      23.88695998      38.32881288      30.54771631
Li      26.10878351      39.43501039      27.21969527
Li      27.21498102      36.10698936      33.88516583
Li      24.99315750      37.21318687      32.76953983
Li      23.88695998      38.32881288      34.99136335
Li      26.10878351      39.43501039      31.66334231
Li      27.21498102      36.10698936      38.32881288
Li      24.99315750      37.21318687      37.21318687
Li      23.88695998      38.32881288      39.43501039
Li      26.10878351      39.43501039      36.10698936
Li      27.21498102      36.10698936      42.77245992
Li      24.99315750      37.21318687      41.65683392
Li      23.88695998      38.32881288      43.87865744
Li      26.10878351      39.43501039      40.55063640
Li      27.21498102      40.55063640       2.77963653
Li      24.99315750      41.65683392       1.66401052
Li      23.88695998      42.77245992       3.88583404
Li      26.10878351      43.87865744       0.55781300
Li      27.21498102      40.55063640       7.22328357
Li      24.99315750      41.65683392       6.10765756
Li      23.88695998      42.77245992       8.32948108
Li      26.10878351      43.87865744       5.00146005
Li      27.21498102      40.55063640      11.66693061
Li      24.99315750      41.65683392      10.55130461
Li      23.88695998      42.77245992      12.77312813
Li      26.10878351      43.87865744       9.44510709
Li      27.21498102      40.55063640      16.11057766
Li      24.99315750      41.65683392      14.99495165
Li      23.88695998      42.77245992      17.21677517
Li      26.10878351      43.87865744      13.88875414
Li      27.21498102      40.55063640      20.55422470
Li      24.99315750      41.65683392      19.43859870
Li      23.88695998      42.77245992      21.66042222
Li      26.10878351      43.87865744      18.33240118
Li      27.21498102      40.55063640      24.99787175
Li      24.99315750      41.65683392      23.88224574
Li      23.88695998      42.77245992      26.10406926
Li      26.10878351      43.87865744      22.77604822
Li      27.21498102      40.55063640      29.44151879
Li      24.99315750      41.65683392      28.32589278
Li      23.88695998      42.77245992      30.54771631
Li      26.10878351      43.87865744      27.21969527
Li      27.21498102      40.55063640      33.88516583
Li      24.99315750      41.65683392      32.76953983
Li      23.88695998      42.77245992      34.99136335
Li      26.10878351      43.87865744      31.66334231
Li      27.21498102      40.55063640      38.32881288
Li      24.99315750      41.65683392      37.21318687
Li      23.88695998      42.77245992      39.43501039
Li      26.10878351      43.87865744      36.10698936
Li      27.21498102      40.55063640      42.77245992
Li      24.99315750      41.65683392      41.65683392
Li      23.88695998      42.77245992      43.87865744
Li      26.10878351      43.87865744      40.55063640
Li      31.88081042       0.55781300       2.77963653
Li      29.65898690       1.66401052       1.66401052
Li      28.55278938       2.77963653       3.88583404
Li      30.77461290       3.88583404       0.55781300
Li      31.88081042       0.55781300       7.22328357
Li      29.65898690       1.66401052       6.10765756
Li      28.55278938       2.77963653       8.32948108
Li      30.77461290       3.88583404       5.00146005
Li      31.88081042       0.55781300      11.66693061
Li      29.65898690       1.66401052      10.55130461
Li      28.55278938       2.77963653      12.77312813
Li      30.77461290       3.88583404       9.44510709
Li      31.88081042       0.55781300      16.11057766
Li      29.65898690       1.66401052      14.99495165
Li      28.55278938       2.77963653      17.21677517
Li      30.77461290       3.88583404      13.88875414
Li      31.88081042       0.55781300      20.55422470
Li      29.65898690       1.66401052      19.43859870
Li      28.55278938       2.77963653      21.66042222
Li      30.77461290       3.88583404      18.33240118
Li      31.88081042       0.55781300      24.99787175
Li      29.65898690       1.66401052      23.88224574
Li      28.55278938       2.77963653      26.10406926
Li      30.77461290       3.88583404      22.77604822
Li      31.88081042       0.55781300      29.44151879
Li      29.65898690       1.66401052      28.32589278
Li      28.55278938       2.77963653      30.54771631
Li      30.77461290       3.88583404      27.21969527
Li      31.88081042       0.55781300      33.88516583
Li      29.65898690       1.66401052      32.76953983
Li      28.55278938       2.77963653      34.99136335
Li      30.77461290       3.88583404      31.66334231
Li      31.88081042       0.55781300      38.32881288
Li      29.65898690       1.66401052      37.21318687
Li      28.55278938       2.77963653      39.43501039
Li      30.77461290       3.88583404      36.10698936
Li      31.88081042       0.55781300      42.77245992
Li      29.65898690       1.66401052      41.65683392
Li      28.55278938       2.77963653      43.87865744
Li      30.77461290       3.88583404      40.55063640
Li      31.88081042       5.00146005       2.77963653
Li      29.65898690       6.10765756       1.66401052
Li      28.55278938       7.22328357       3.88583404
Li      30.77461290       8.32948108       0.55781300
Li      31.88081042       5.00146005       7.22328357
Li      29.65898690       6.10765756       6.10765756
Li      28.55278938       7.22328357       8.32948108
Li      30.77461290       8.32948108       5.00146005
Li      31.88081042       5.00146005      11.66693061
Li      29.65898690       6.10765756      10.55130461
Li      28.55278938       7.22328357      12.77312813
Li      30.77461290       8.32948108       9.44510709
Li      31.88081042       5.00146005      16.11057766
Li      29.65898690       6.10765756      14.99495165
Li      28.55278938       7.22328357      17.21677517
Li      30.77461290       8.32948108      13.88875414
Li      31.88081042       5.00146005      20.55422470
Li      29.65898690       6.10765756      19.43859870
Li      28.55278938       7.22328357      21.66042222
Li      30.77461290       8.32948108      18.33240118
Li      31.88081042       5.00146005      24.99787175
Li      29.65898690       6.10765756      23.88224574
Li      28.55278938       7.22328357      26.10406926
Li      30.77461290       8.32948108      22.77604822
Li      31.88081042       5.00146005      29.44151879
Li      29.65898690       6.10765756      28.32589278
Li      28.55278938       7.22328357      30.54771631
Li      30.77461290       8.32948108      27.21969527
Li      31.88081042       5.00146005      33.88516583
Li      29.65898690       6.10765756      32.76953983
Li      28.55278938       7.22328357      34.99136335
Li      30.77461290       8.32948108      31.66334231
Li      31.88081042       5.00146005      38.32881288
Li      29.65898690       6.10765756      37.21318687
Li      28.55278938       7.22328357      39.43501039
Li      30.77461290       8.32948108      36.10698936
Li      31.88081042       5.00146005      42.77245992
Li      29.65898690       6.10765756      41.65683392
Li      28.55278938       7.22328357      43.87865744
Li      30.77461290       8.32948108      40.55063640
Li      31.88081042       9.44510709       2.77963653
Li      29.65898690      10.55130461       1.66401052
Li      28.55278938      11.66693061       3.88583404
Li      30.77461290      12.77312813       0.55781300
Li      31.88081042       9.44510709       7.22328357
Li      29.65898690      10.55130461       6.10765756
Li      28.55278938      11.66693061       8.32948108
Li      30.77461290      12.77312813       5.00146005
Li      31.88081042       9.44510709      11.66693061
Li      29.65898690      10.55130461      10.55130461
Li      28.55278938      11.66693061      12.77312813
Li      30.77461290      12.77312813       9.44510709
Li      31.88081042       9.44510709      16.11057766
Li      29.65898690      10.55130461      14.99495165
Li      28.55278938      11.66693061      17.21677517
Li      30.77461290      12.77312813      13.88875414
Li      31.88081042       9.44510709      20.55422470
Li      29.65898690      10.55130461      19.43859870
Li      28.55278938      11.66693061      21.66042222
Li      30.77461290      12.77312813      18.33240118
Li      31.88081042       9.44510709      24.99787175
Li      29.65898690      10.55130461      23.88224574
Li      28.55278938      11.66693061      26.10406926
Li      30.77461290      12.77312813      22.77604822
Li      31.88081042       9.44510709      29.44151879
Li      29.65898690      10.55130461      28.32589278
Li      28.55278938      11.66693061      30.54771631
Li      30.77461290      12.77312813      27.21969527
Li      31.88081042       9.44510709      33.88516583
Li      29.65898690      10.55130461      32.76953983
Li      28.55278938      11.66693061      34.99136335
Li      30.77461290      12.77312813      31.66334231
Li      31.88081042       9.44510709      38.32881288
Li      29.65898690      10.55130461      37.21318687
Li      28.55278938      11.66693061      39.43501039
Li      30.77461290      12.77312813      36.10698936
Li      31.88081042       9.44510709      42.77245992
Li      29.65898690      10.55130461      41.65683392
Li      28.55278938      11.66693061      43.87865744
Li      30.77461290      12.77312813      40.55063640
Li      31.88081042      13.88875414       2.77963653
Li      29.65898690      14.99495165       1.66401052
Li      28.55278938      16.11057766       3.88583404
Li      30.77461290      17.21677517       0.55781300
Li      31.88081042      13.88875414       7.22328357
Li      29.65898690      14.99495165       6.10765756
Li      28.55278938      16.11057766       8.32948108
Li      30.77461290      17.21677517       5.00146005
Li      31.88081042      13.88875414      11.66693061
Li      29.65898690      14.99495165      10.55130461
Li      28.55278938      16.11057766      12.77312813
Li      30.77461290      17.21677517       9.44510709
Li      31.88081042      13.88875414      16.11057766
Li      29.65898690      14.99495165      14.99495165
Li      28.55278938      16.11057766      17.21677517
Li      30.77461290      17.21677517      13.88875414
Li      31.88081042      13.88875414      20.55422470
Li      29.65898690      14.99495165      19.43859870
Li      28.55278938      16.11057766      21.66042222
Li      30.77461290      17.21677517      18.33240118
Li      31.88081042      13.88875414      24.99787175
Li      29.65898690      14.99495165      23.88224574
Li      28.55278938      16.11057766      26.10406926
Li      30.77461290      17.21677517      22.77604822
Li      31.88081042      13.88875414      29.44151879
Li      29.65898690      14.99495165      28.32589278
Li      28.55278938      16.11057766      30.54771631
Li      30.77461290      17.21677517      27.21969527
Li      31.88081042      13.88875414      33.88516583
Li      29.65898690      14.99495165      32.76953983
Li      28.55278938      16.11057766      34.99136335
Li      30.77461290      17.21677517      31.66334231
Li      31.88081042      13.88875414      38.32881288
Li      29.65898690      14.99495165      37.21318687
Li      28.55278938      16.11057766      39.43501039
Li      30.77461290      17.21677517      36.10698936
Li      31.88081042      13.88875414      42.77245992
Li      29.65898690      14.99495165      41.65683392
Li      28.55278938      16.11057766      43.87865744
Li      30.77461290      17.21677517      40.55063640
Li      31.88081042      18.33240118       2.77963653
Li      29.65898690      19.43859870       1.66401052
Li      28.55278938      20.55422470       3.88583404
Li      30.77461290      21.66042222       0.55781300
Li      31.88081042      18.33240118       7.22328357
Li      29.65898690      19.43859870       6.10765756
Li      28.55278938      20.55422470       8.32948108
Li      30.77461290      21.66042222       5.00146005
Li      31.88081042      18.33240118      11.66693061
Li      29.65898690      19.43859870      10.55130461
Li      28.55278938      20.55422470      12.77312813
Li      30.77461290      21.66042222       9.44510709
Li      31.88081042      18.33240118      16.11057766
Li      29.65898690      19.43859870      14.99495165
Li      28.55278938      20.55422470      17.21677517
Li      30.77461290      21.66042222      13.88875414
Li      31.88081042      18.33240118      20.55422470
Li      29.65898690      19.43859870      19.43859870
Li      28.55278938      20.55422470      21.66042222
Li      30.77461290      21.66042222      18.33240118
Li      31.88081042      18.33240118      24.99787175
Li      29.65898690      19.43859870      23.88224574
Li      28.55278938      20.55422470      26.10406926
Li      30.77461290      21.66042222      22.77604822
Li      31.88081042      18.33240118      29.44151879
Li      29.65898690      19.43859870      28.32589278
Li      28.55278938      20.55422470      30.54771631
Li      30.77461290      21.66042222      27.21969527
Li      31.88081042      18.33240118      33.88516583
Li      29.65898690      19.43859870      32.76953983
Li      28.55278938      20.55422470      34.99136335
Li      30.77461290      21.66042222      31.66334231
Li      31.88081042      18.33240118      38.32881288
Li      29.65898690      19.43859870      37.21318687
Li      28.55278938      20.55422470      39.43501039
Li      30.77461290      21.66042222      36.10698936
Li      31.88081042      18.33240118      42.77245992
Li      29.65898690      19.43859870      41.65683392
Li      28.55278938      20.55422470      43.87865744
Li      30.77461290      21.66042222      40.55063640
Li      31.88081042      22.77604822       2.77963653
Li      29.65898690      23.88224574       1.66401052
Li      28.55278938      24.99787175       3.88583404
Li      30.77461290      26.10406926       0.55781300
Li      31.88081042      22.77604822       7.22328357
Li      29.65898690      23.88224574       6.10765756
Li      28.55278938      24.99787175       8.32948108
Li      30.77461290      26.10406926       5.00146005
Li      31.88081042      22.77604822      11.66693061
Li      29.65898690      23.88224574      10.55130461
Li      28.55278938      24.99787175      12.77312813
Li      30.77461290      26.10406926       9.44510709
Li      31.88081042      22.77604822      16.11057766
Li      29.65898690      23.88224574      14.99495165
Li      28.55278938      24.99787175      17.21677517
Li      30.77461290      26.10406926      13.88875414
Li      31.88081042      22.77604822      20.55422470
Li      29.65898690      23.88224574      19.43859870
Li      28.55278938      24.99787175      21.66042222
Li      30.77461290      26.10406926      18.33240118
Li      31.88081042      22.77604822      24.99787175
Li      29.65898690      23.88224574      23.88224574
Li      28.55278938      24.99787175      26.10406926
Li      30.77461290      26.10406926      22.77604822
Li      31.88081042      22.77604822      29.44151879
Li      29.65898690      23.88224574      28.32589278
Li      28.55278938      24.99787175      30.54771631
Li      30.77461290      26.10406926      27.21969527
Li      31.88081042      22.77604822      33.88516583
Li      29.65898690      23.88224574      32.76953983
Li      28.55278938      24.99787175      34.99136335
Li      30.77461290      26.10406926      31.66334231
Li      31.88081042      22.77604822      38.32881288
Li      29.65898690      23.88224574      37.21318687
Li      28.55278938      24.99787175      39.43501039
Li      30.77461290      26.10406926      36.10698936
Li      31.88081042      22.77604822      42.77245992
Li      29.65898690      23.88224574      41.65683392
Li      28.55278938      24.99787175      43.87865744
Li      30.77461290      26.10406926      40.55063640
Li      31.88081042      27.21969527       2.77963653
Li      29.65898690      28.32589278       1.66401052
Li      28.55278938      29.44151879       3.88583404
Li      30.77461290      30.54771631       0.55781300
Li      31.88081042      27.21969527       7.22328357
Li      29.65898690      28.32589278       6.10765756
Li      28.55278938      29.44151879       8.32948108
Li      30.77461290      30.54771631       5.00146005
Li      31.88081042      27.21969527      11.66693061
Li      29.65898690      28.32589278      10.55130461
Li      28.55278938      29.44151879      12.77312813
Li      30.77461290      30.54771631       9.44510709
Li      31.88081042      27.21969527      16.11057766
Li      29.65898690      28.32589278      14.99495165
Li      28.55278938      29.44151879      17.21677517
Li      30.77461290      30.54771631      13.88875414
Li      31.88081042      27.21969527      20.55422470
Li      29.65898690      28.32589278      19.43859870
Li      28.55278938      29.44151879      21.66042222
Li      30.77461290      30.54771631      18.33240118
Li      31.88081042      27.21969527      24.99787175
Li      29.65898690      28.32589278      23.88224574
Li      28.55278938      29.44151879      26.10406926
Li      30.77461290      30.54771631      22.77604822
Li      31.88081042      27.21969527      29.44151879
Li      29.65898690      28.32589278      28.32589278
Li      28.55278938      29.44151879      30.54771631
Li      30.77461290      30.54771631      27.21969527
Li      31.88081042      27.21969527      33.88516583
Li      29.65898690      28.32589278      32.76953983
Li      28.55278938      29.44151879      34.99136335
Li      30.77461290      30.54771631      31.66334231
Li      31.88081042      27.21969527      38.32881288
Li      29.65898690      28.32589278      37.21318687
Li      28.55278938      29.44151879      39.43501039
Li      30.77461290      30.54771631      36.10698936
Li      31.88081042      27.21969527      42.77245992
Li      29.65898690      28.32589278      41.65683392
Li      28.55278938      29.44151879      43.87865744
Li      30.77461290      30.54771631      40.55063640
Li      31.88081042      31.66334231       2.77963653
Li      29.65898690      32.76953983       1.66401052
Li      28.55278938      33.88516583       3.88583404
Li      30.77461290      34.99136335       0.55781300
Li      31.88081042      31.66334231       7.22328357
Li      29.65898690      32.76953983       6.10765756
Li      28.55278938      33.88516583       8.32948108
Li      30.77461290      34.99136335       5.00146005
Li      31.88081042      31.66334231      11.66693061
Li      29.65898690      32.76953983      10.55130461
Li      28.55278938      33.88516583      12.77312813
Li      30.77461290      34.99136335       9.44510709
Li      31.88081042      31.66334231      16.11057766
Li      29.65898690      32.76953983      14.99495165
Li      28.55278938      33.88516583      17.21677517
Li      30.77461290      34.99136335      13.88875414
Li      31.88081042      31.66334231      20.55422470
Li      29.65898690      32.76953983      19.43859870
Li      28.55278938      33.88516583      21.66042222
Li      30.77461290      34.99136335      18.33240118
Li      31.88081042      31.66334231      24.99787175
Li      29.65898690      32.76953983      23.88224574
Li      28.55278938      33.88516583      26.10406926
Li      30.77461290      34.99136335      22.77604822
Li      31.88081042      31.66334231      29.44151879
Li      29.65898690      32.76953983      28.32589278
Li      28.55278938      33.88516583      30.54771631
Li      30.77461290      34.99136335      27.21969527
Li      31.88081042      31.66334231      33.88516583
Li      29.65898690      32.76953983      32.76953983
Li      28.55278938      33.88516583      34.99136335
Li      30.77461290      34.99136335      31.66334231
Li      31.88081042      31.66334231      38.32881288
Li      29.65898690      32.76953983      37.21318687
Li      28.55278938      33.88516583      39.43501039
Li      30.77461290      34.99136335      36.10698936
Li      31.88081042      31.66334231      42.77245992
Li      29.65898690      32.76953983      41.65683392
Li      28.55278938      33.88516583      43.87865744
Li      30.77461290      34.99136335      40.55063640
Li      31.88081042      36.10698936       2.77963653
Li      29.65898690      37.21318687       1.66401052
Li      28.55278938      38.32881288       3.88583404
Li      30.77461290      39.43501039       0.55781300
Li      31.88081042      36.10698936       7.22328357
Li      29.65898690      37.21318687       6.10765756
Li      28.55278938      38.32881288       8.32948108
Li      30.77461290      39.43501039       5.00146005
Li      31.88081042      36.10698936      11.66693061
Li      29.65898690      37.21318687      10.55130461
Li      28.55278938      38.32881288      12.77312813
Li      30.77461290      39.43501039       9.44510709
Li      31.88081042      36.10698936      16.11057766
Li      29.65898690      37.21318687      14.99495165
Li      28.55278938      38.32881288      17.21677517
Li      30.77461290      39.43501039      13.88875414
Li      31.88081042      36.10698936      20.55422470
Li      29.65898690      37.21318687      19.43859870
Li      28.55278938      38.32881288      21.66042222
Li      30.77461290      39.43501039      18.33240118
Li      31.88081042      36.10698936      24.99787175
Li      29.65898690      37.21318687      23.88224574
Li      28.55278938      38.32881288      26.10406926
Li      30.77461290      39.43501039      22.77604822
Li      31.88081042      36.10698936      29.44151879
Li      29.65898690      37.21318687      28.32589278
Li      28.55278938      38.32881288      30.54771631
Li      30.77461290      39.43501039      27.21969527
Li      31.88081042      36.10698936      33.88516583
Li      29.65898690      37.21318687      32.76953983
Li      28.55278938      38.32881288      34.99136335
Li      30.77461290      39.43501039      31.66334231
Li      31.88081042      36.10698936      38.32881288
Li      29.65898690      37.21318687      37.21318687
Li      28.55278938      38.32881288      39.43501039
Li      30.77461290      39.43501039      36.10698936
Li      31.88081042      36.10698936      42.77245992
Li      29.65898690      37.21318687      41.65683392
Li      28.55278938      38.32881288      43.87865744
Li      30.77461290      39.43501039      40.55063640
Li      31.88081042      40.55063640       2.77963653
Li      29.65898690      41.65683392       1.66401052
Li      28.55278938      42.77245992       3.88583404
Li      30.77461290      43.87865744       0.55781300
Li      31.88081042      40.55063640       7.22328357
Li      29.65898690      41.65683392       6.10765756
Li      28.55278938      42.77245992       8.32948108
Li      30.77461290      43.87865744       5.00146005
Li      31.88081042      40.55063640      11.66693061
Li      29.65898690      41.65683392      10.55130461
Li      28.55278938      42.77245992      12.77312813
Li      30.77461290      43.87865744       9.44510709
Li      31.88081042      40.55063640      16.11057766
Li      29.65898690      41.65683392      14.99495165
Li      28.55278938      42.77245992      17.21677517
Li      30.77461290      43.87865744      13.88875414
Li      31.88081042      40.55063640      20.55422470
Li      29.65898690      41.65683392      19.43859870
Li      28.55278938      42.77245992      21.66042222
Li      30.77461290      43.87865744      18.33240118
Li      31.88081042      40.55063640      24.99787175
Li      29.65898690      41.65683392      23.88224574
Li      28.55278938      42.77245992      26.10406926
Li      30.77461290      43.87865744      22.77604822
Li      31.88081042      40.55063640      29.44151879
Li      29.65898690      41.65683392      28.32589278
Li      28.55278938      42.77245992      30.54771631
Li      30.77461290      43.87865744      27.21969527
Li      31.88081042      40.55063640      33.88516583
Li      29.65898690      41.65683392      32.76953983
Li      28.55278938      42.77245992      34.99136335
Li      30.77461290      43.87865744      31.66334231
Li      31.88081042      40.55063640      38.32881288
Li      29.65898690      41.65683392      37.21318687
Li      28.55278938      42.77245992      39.43501039
Li      30.77461290      43.87865744      36.10698936
Li      31.88081042      40.55063640      42.77245992
Li      29.65898690      41.65683392      41.65683392
Li      28.55278938      42.77245992      43.87865744
Li      30.77461290      43.87865744      40.55063640
Li      36.54663981       0.55781300       2.77963653
Li      34.32481629       1.66401052       1.66401052
Li      33.21861878       2.77963653       3.88583404
Li      35.44044230       3.88583404       0.55781300
Li      36.54663981       0.55781300       7.22328357
Li      34.32481629       1.66401052       6.10765756
Li      33.21861878       2.77963653       8.32948108
Li      35.44044230       3.88583404       5.00146005
Li      36.54663981       0.55781300      11.66693061
Li      34.32481629       1.66401052      10.55130461
Li      33.21861878       2.77963653      12.77312813
Li      35.44044230       3.88583404       9.44510709
Li      36.54663981       0.55781300      16.11057766
Li      34.32481629       1.66401052      14.99495165
Li      33.21861878       2.77963653      17.21677517
Li      35.44044230       3.88583404      13.88875414
Li      36.54663981       0.55781300      20.55422470
Li      34.32481629       1.66401052      19.43859870
Li      33.21861878       2.77963653      21.66042222
Li      35.44044230       3.88583404      18.33240118
Li      36.54663981       0.55781300      24.99787175
Li      34.32481629       1.66401052      23.88224574
Li      33.21861878       2.77963653      26.10406926
Li      35.44044230       3.88583404      22.77604822
Li      36.54663981       0.55781300      29.44151879
Li      34.32481629       1.66401052      28.32589278
Li      33.21861878       2.77963653      30.54771631
Li      35.44044230       3.88583404      27.21969527
Li      36.54663981       0.55781300      33.88516583
Li      34.32481629       1.66401052      32.76953983
Li      33.21861878       2.77963653      34.99136335
Li      35.44044230       3.88583404      31.66334231
Li      36.54663981       0.55781300      38.32881288
Li      34.32481629       1.66401052      37.21318687
Li      33.21861878       2.77963653      39.43501039
Li      35.44044230       3.88583404      36.10698936
Li      36.54663981       0.55781300      42.77245992
Li      34.32481629       1.66401052      41.65683392
Li      33.21861878       2.77963653      43.87865744
Li      35.44044230       3.88583404      40.55063640
Li      36.54663981       5.00146005       2.77963653
Li      34.32481629       6.10765756       1.66401052
Li      33.21861878       7.22328357       3.88583404
Li      35.44044230       8.32948108       0.55781300
Li      36.54663981       5.00146005       7.22328357
Li      34.32481629       6.10765756       6.10765756
Li      33.21861878       7.22328357       8.32948108
Li      35.44044230       8.32948108       5.00146005
Li      36.54663981       5.00146005      11.66693061
Li      34.32481629       6.10765756      10.55130461
Li      33.21861878       7.22328357      12.77312813
Li      35.44044230       8.32948108       9.44510709
Li      36.54663981       5.00146005      16.11057766
Li      34.32481629       6.10765756      14.99495165
Li      33.21861878       7.22328357      17.21677517
Li      35.44044230       8.32948108      13.88875414
Li      36.54663981       5.00146005      20.55422470
Li      34.32481629       6.10765756      19.43859870
Li      33.21861878       7.22328357      21.66042222
Li      35.44044230       8.32948108      18.33240118
Li      36.54663981       5.00146005      24.99787175
Li      34.32481629       6.10765756      23.88224574
Li      33.21861878       7.22328357      26.10406926
Li      35.44044230       8.32948108      22.77604822
Li      36.54663981       5.00146005      29.44151879
Li      34.32481629       6.10765756      28.32589278
Li      33.21861878       7.22328357      30.54771631
Li      35.44044230       8.32948108      27.21969527
Li      36.54663981       5.00146005      33.88516583
Li      34.32481629       6.10765756      32.76953983
Li      33.21861878       7.22328357      34.99136335
Li      35.44044230       8.32948108      31.66334231
Li      36.54663981       5.00146005      38.32881288
Li      34.32481629       6.10765756      37.21318687
Li      33.21861878       7.22328357      39.43501039
Li      35.44044230       8.32948108      36.10698936
Li      36.54663981       5.00146005      42.77245992
Li      34.32481629       6.10765756      41.65683392
Li      33.21861878       7.22328357      43.87865744
Li      35.44044230       8.32948108      40.55063640
Li      36.54663981       9.44510709       2.77963653
Li      34.32481629      10.55130461       1.66401052
Li      33.21861878      11.66693061       3.88583404
Li      35.44044230      12.77312813       0.55781300
Li      36.54663981       9.44510709       7.22328357
Li      34.32481629      10.55130461       6.10765756
Li      33.21861878      11.66693061       8.32948108
Li      35.44044230      12.77312813       5.00146005
Li      36.54663981       9.44510709      11.66693061
Li      34.32481629      10.55130461      10.55130461
Li      33.21861878      11.66693061      12.77312813
Li      35.44044230      12.77312813       9.44510709
Li      36.54663981       9.44510709      16.11057766
Li      34.32481629      10.55130461      14.99495165
Li      33.21861878      11.66693061      17.21677517
Li      35.44044230      12.77312813      13.88875414
Li      36.54663981       9.44510709      20.55422470
Li      34.32481629      10.55130461      19.43859870
Li      33.21861878      11.66693061      21.66042222
Li      35.44044230      12.77312813      18.33240118
Li      36.54663981       9.44510709      24.99787175
Li      34.32481629      10.55130461      23.88224574
Li      33.21861878      11.66693061      26.10406926
Li      35.44044230      12.77312813      22.77604822
Li      36.54663981       9.44510709      29.44151879
Li      34.32481629      10.55130461      28.32589278
Li      33.21861878      11.66693061      30.54771631
Li      35.44044230      12.77312813      27.21969527
Li      36.54663981       9.44510709      33.88516583
Li      34.32481629      10.55130461      32.76953983
Li      33.21861878      11.66693061      34.99136335
Li      35.44044230      12.77312813      31.66334231
Li      36.54663981       9.44510709      38.32881288
Li      34.32481629      10.55130461      37.21318687
Li      33.21861878      11.66693061      39.43501039
Li      35.44044230      12.77312813      36.10698936
Li      36.54663981       9.44510709      42.77245992
Li      34.32481629      10.55130461      41.65683392
Li      33.21861878      11.66693061      43.87865744
Li      35.44044230      12.77312813      40.55063640
Li      36.54663981      13.88875414       2.77963653
Li      34.32481629      14.99495165       1.66401052
Li      33.21861878      16.11057766       3.88583404
Li      35.44044230      17.21677517       0.55781300
Li      36.54663981      13.88875414       7.22328357
Li      34.32481629      14.99495165       6.10765756
Li      33.21861878      16.11057766       8.32948108
Li      35.44044230      17.21677517       5.00146005
Li      36.54663981      13.88875414      11.66693061
Li      34.32481629      14.99495165      10.55130461
Li      33.21861878      16.11057766      12.77312813
Li      35.44044230      17.21677517       9.44510709
Li      36.54663981      13.88875414      16.11057766
Li      34.32481629      14.99495165      14.99495165
Li      33.21861878      16.11057766      17.21677517
Li      35.44044230      17.21677517      13.88875414
Li      36.54663981      13.88875414      20.55422470
Li      34.32481629      14.99495165      19.43859870
Li      33.21861878      16.11057766      21.66042222
Li      35.44044230      17.21677517      18.33240118
Li      36.54663981      13.88875414      24.99787175
Li      34.32481629      14.99495165      23.88224574
Li      33.21861878      16.11057766      26.10406926
Li      35.44044230      17.21677517      22.77604822
Li      36.54663981      13.88875414      29.44151879
Li      34.32481629      14.99495165      28.32589278
Li      33.21861878      16.11057766      30.54771631
Li      35.44044230      17.21677517      27.21969527
Li      36.54663981      13.88875414      33.88516583
Li      34.32481629      14.99495165      32.76953983
Li      33.21861878      16.11057766      34.99136335
Li      35.44044230      17.21677517      31.66334231
Li      36.54663981      13.88875414      38.32881288
Li      34.32481629      14.99495165      37.21318687
Li      33.21861878      16.11057766      39.43501039
Li      35.44044230      17.21677517      36.10698936
Li      36.54663981      13.88875414      42.77245992
Li      34.32481629      14.99495165      41.65683392
Li      33.21861878      16.11057766      43.87865744
Li      35.44044230      17.21677517      40.55063640
Li      36.54663981      18.33240118       2.77963653
Li      34.32481629      19.43859870       1.66401052
Li      33.21861878      20.55422470       3.88583404
Li      35.44044230      21.66042222       0.55781300
Li      36.54663981      18.33240118       7.22328357
Li      34.32481629      19.43859870       6.10765756
Li      33.21861878      20.55422470       8.32948108
Li      35.44044230      21.66042222       5.00146005
Li      36.54663981      18.33240118      11.66693061
Li      34.32481629      19.43859870      10.55130461
Li      33.21861878      20.55422470      12.77312813
Li      35.44044230      21.66042222       9.44510709
Li      36.54663981      18.33240118      16.11057766
Li      34.32481629      19.43859870      14.99495165
Li      33.21861878      20.55422470      17.21677517
Li      35.44044230      21.66042222      13.88875414
Li      36.54663981      18.33240118      20.55422470
Li      34.32481629      19.43859870      19.43859870
Li      33.21861878      20.55422470      21.66042222
Li      35.44044230      21.66042222      18.33240118
Li      36.54663981      18.33240118      24.99787175
Li      34.32481629      19.43859870      23.88224574
Li      33.21861878      20.55422470      26.10406926
Li      35.44044230      21.66042222      22.77604822
Li      36.54663981      18.33240118      29.44151879
Li      34.32481629      19.43859870      28.32589278
Li      33.21861878      20.55422470      30.54771631
Li      35.44044230      21.66042222      27.21969527
Li      36.54663981      18.33240118      33.88516583
Li      34.32481629      19.43859870      32.76953983
Li      33.21861878      20.55422470      34.99136335
Li      35.44044230      21.66042222      31.66334231
Li      36.54663981      18.33240118      38.32881288
Li      34.32481629      19.43859870      37.21318687
Li      33.21861878      20.55422470      39.43501039
Li      35.44044230      21.66042222      36.10698936
Li      36.54663981      18.33240118      42.77245992
Li      34.32481629      19.43859870      41.65683392
Li      33.21861878      20.55422470      43.87865744
Li      35.44044230      21.66042222      40.55063640
Li      36.54663981      22.77604822       2.77963653
Li      34.32481629      23.88224574       1.66401052
Li      33.21861878      24.99787175       3.88583404
Li      35.44044230      26.10406926       0.55781300
Li      36.54663981      22.77604822       7.22328357
Li      34.32481629      23.88224574       6.10765756
Li      33.21861878      24.99787175       8.32948108
Li      35.44044230      26.10406926       5.00146005
Li      36.54663981      22.77604822      11.66693061
Li      34.32481629      23.88224574      10.55130461
Li      33.21861878      24.99787175      12.77312813
Li      35.44044230      26.10406926       9.44510709
Li      36.54663981      22.77604822      16.11057766
Li      34.32481629      23.88224574      14.99495165
Li      33.21861878      24.99787175      17.21677517
Li      35.44044230      26.10406926      13.88875414
Li      36.54663981      22.77604822      20.55422470
Li      34.32481629      23.88224574      19.43859870
Li      33.21861878      24.99787175      21.66042222
Li      35.44044230      26.10406926      18.33240118
Li      36.54663981      22.77604822      24.99787175
Li      34.32481629      23.88224574      23.88224574
Li      33.21861878      24.99787175      26.10406926
Li      35.44044230      26.10406926      22.77604822
Li      36.54663981      22.77604822      29.44151879
Li      34.32481629      23.88224574      28.32589278
Li      33.21861878      24.99787175      30.54771631
Li      35.44044230      26.10406926      27.21969527
Li      36.54663981      22.77604822      33.88516583
Li      34.32481629      23.88224574      32.76953983
Li      33.21861878      24.99787175      34.99136335
Li      35.44044230      26.10406926      31.66334231
Li      36.54663981      22.77604822      38.32881288
Li      34.32481629      23.88224574      37.21318687
Li      33.21861878      24.99787175      39.43501039
Li      35.44044230      26.10406926      36.10698936
Li      36.54663981      22.77604822      42.77245992
Li      34.32481629      23.88224574      41.65683392
Li      33.21861878      24.99787175      43.87865744
Li      35.44044230      26.10406926      40.55063640
Li      36.54663981      27.21969527       2.77963653
Li      34.32481629      28.32589278       1.66401052
Li      33.21861878      29.44151879       3.88583404
Li      35.44044230      30.54771631       0.55781300
Li      36.54663981      27.21969527       7.22328357
Li      34.32481629      28.32589278       6.10765756
Li      33.21861878      29.44151879       8.32948108
Li      35.44044230      30.54771631       5.00146005
Li      36.54663981      27.21969527      11.66693061
Li      34.32481629      28.32589278      10.55130461
Li      33.21861878      29.44151879      12.77312813
Li      35.44044230      30.54771631       9.44510709
Li      36.54663981      27.21969527      16.11057766
Li      34.32481629      28.32589278      14.99495165
Li      33.21861878      29.44151879      17.21677517
Li      35.44044230      30.54771631      13.88875414
Li      36.54663981      27.21969527      20.55422470
Li      34.32481629      28.32589278      19.43859870
Li      33.21861878      29.44151879      21.66042222
Li      35.44044230      30.54771631      18.33240118
Li      36.54663981      27.21969527      24.99787175
Li      34.32481629      28.32589278      23.88224574
Li      33.21861878      29.44151879      26.10406926
Li      35.44044230      30.54771631      22.77604822
Li      36.54663981      27.21969527      29.44151879
Li      34.32481629      28.32589278      28.32589278
Li      33.21861878      29.44151879      30.54771631
Li      35.44044230      30.54771631      27.21969527
Li      36.54663981      27.21969527      33.88516583
Li      34.32481629      28.32589278      32.76953983
Li      33.21861878      29.44151879      34.99136335
Li      35.44044230      30.54771631      31.66334231
Li      36.54663981      27.21969527      38.32881288
Li      34.32481629      28.32589278      37.21318687
Li      33.21861878      29.44151879      39.43501039
Li      35.44044230      30.54771631      36.10698936
Li      36.54663981      27.21969527      42.77245992
Li      34.32481629      28.32589278      41.65683392
Li      33.21861878      29.44151879      43.87865744
Li      35.44044230      30.54771631      40.55063640
Li      36.54663981      31.66334231       2.77963653
Li      34.32481629      32.76953983       1.66401052
Li      33.21861878      33.88516583       3.88583404
Li      35.44044230      34.99136335       0.55781300
Li      36.54663981      31.66334231       7.22328357
Li      34.32481629      32.76953983       6.10765756
Li      33.21861878      33.88516583       8.32948108
Li      35.44044230      34.99136335       5.00146005
Li      36.54663981      31.66334231      11.66693061
Li      34.32481629      32.76953983      10.55130461
Li      33.21861878      33.88516583      12.77312813
Li      35.44044230      34.99136335       9.44510709
Li      36.54663981      31.66334231      16.11057766
Li      34.32481629      32.76953983      14.99495165
Li      33.21861878      33.88516583      17.21677517
Li      35.44044230      34.99136335      13.88875414
Li      36.54663981      31.66334231      20.55422470
Li      34.32481629      32.76953983      19.43859870
Li      33.21861878      33.88516583      21.66042222
Li      35.44044230      34.99136335      18.33240118
Li      36.54663981      31.66334231      24.99787175
Li      34.32481629      32.76953983      23.88224574
Li      33.21861878      33.88516583      26.10406926
Li      35.44044230      34.99136335      22.77604822
Li      36.54663981      31.66334231      29.44151879
Li      34.32481629      32.76953983      28.32589278
Li      33.21861878      33.88516583      30.54771631
Li      35.44044230      34.99136335      27.21969527
Li      36.54663981      31.66334231      33.88516583
Li      34.32481629      32.76953983      32.76953983
Li      33.21861878      33.88516583      34.99136335
Li      35.44044230      34.99136335      31.66334231
Li      36.54663981      31.66334231      38.32881288
Li      34.32481629      32.76953983      37.21318687
Li      33.21861878      33.88516583      39.43501039
Li      35.44044230      34.99136335      36.10698936
Li      36.54663981      31.66334231      42.77245992
Li      34.32481629      32.76953983      41.65683392
Li      33.21861878      33.88516583      43.87865744
Li      35.44044230      34.99136335      40.55063640
Li      36.54663981      36.10698936       2.77963653
Li      34.32481629      37.21318687       1.66401052
Li      33.21861878      38.32881288       3.88583404
Li      35.44044230      39.43501039       0.55781300
Li      36.54663981      36.10698936       7.22328357
Li      34.32481629      37.21318687       6.10765756
Li      33.21861878      38.32881288       8.32948108
Li      35.44044230      39.43501039       5.00146005
Li      36.54663981      36.10698936      11.66693061
Li      34.32481629      37.21318687      10.55130461
Li      33.21861878      38.32881288      12.77312813
Li      35.44044230      39.43501039       9.44510709
Li      36.54663981      36.10698936      16.11057766
Li      34.32481629      37.21318687      14.99495165
Li      33.21861878      38.32881288      17.21677517
Li      35.44044230      39.43501039      13.88875414
Li      36.54663981      36.10698936      20.55422470
Li      34.32481629      37.21318687      19.43859870
Li      33.21861878      38.32881288      21.66042222
Li      35.44044230      39.43501039      18.33240118
Li      36.54663981      36.10698936      24.99787175
Li      34.32481629      37.21318687      23.88224574
Li      33.21861878      38.32881288      26.10406926
Li      35.44044230      39.43501039      22.77604822
Li      36.54663981      36.10698936      29.44151879
Li      34.32481629      37.21318687      28.32589278
Li      33.21861878      38.32881288      30.54771631
Li      35.44044230      39.43501039      27.21969527
Li      36.54663981      36.10698936      33.88516583
Li      34.32481629      37.21318687      32.76953983
Li      33.21861878      38.32881288      34.99136335
Li      35.44044230      39.43501039      31.66334231
Li      36.54663981      36.10698936      38.32881288
Li      34.32481629      37.21318687      37.21318687
Li      33.21861878      38.32881288      39.43501039
Li      35.44044230      39.43501039      36.10698936
Li      36.54663981      36.10698936      42.77245992
Li      34.32481629      37.21318687      41.65683392
Li      33.21861878      38.32881288      43.87865744
Li      35.44044230      39.43501039      40.55063640
Li      36.54663981      40.55063640       2.77963653
Li      34.32481629      41.65683392       1.66401052
Li      33.21861878      42.77245992       3.88583404
Li      35.44044230      43.87865744       0.55781300
Li      36.54663981      40.55063640       7.22328357
Li      34.32481629      41.65683392       6.10765756
Li      33.21861878      42.77245992       8.32948108
Li      35.44044230      43.87865744       5.00146005
Li      36.54663981      40.55063640      11.66693061
Li      34.32481629      41.65683392      10.55130461
Li      33.21861878      42.77245992      12.77312813
Li      35.44044230      43.87865744       9.44510709
Li      36.54663981      40.55063640      16.11057766
Li      34.32481629      41.65683392      14.99495165
Li      33.21861878      42.77245992      17.21677517
Li      35.44044230      43.87865744      13.88875414
Li      36.54663981      40.55063640      20.55422470
Li      34.32481629      41.65683392      19.43859870
Li      33.21861878      42.77245992      21.66042222
Li      35.44044230      43.87865744      18.33240118
Li      36.54663981      40.55063640      24.99787175
Li      34.32481629      41.65683392      23.88224574
Li      33.21861878      42.77245992      26.10406926
Li      35.44044230      43.87865744      22.77604822
Li      36.54663981      40.55063640      29.44151879
Li      34.32481629      41.65683392      28.32589278
Li      33.21861878      42.77245992      30.54771631
Li      35.44044230      43.87865744      27.21969527
Li      36.54663981      40.55063640      33.88516583
Li      34.32481629      41.65683392      32.76953983
Li      33.21861878      42.77245992      34.99136335
Li      35.44044230      43.87865744      31.66334231
Li      36.54663981      40.55063640      38.32881288
Li      34.32481629      41.65683392      37.21318687
Li      33.21861878      42.77245992      39.43501039
Li      35.44044230      43.87865744      36.10698936
Li      36.54663981      40.55063640      42.77245992
Li      34.32481629      41.65683392      41.65683392
Li      33.21861878      42.77245992      43.87865744
Li      35.44044230      43.87865744      40.55063640
Li      41.21246921       0.55781300       2.77963653
Li      38.99064569       1.66401052       1.66401052
Li      37.88444817       2.77963653       3.88583404
Li      40.10627170       3.88583404       0.55781300
Li      41.21246921       0.55781300       7.22328357
Li      38.99064569       1.66401052       6.10765756
Li      37.88444817       2.77963653       8.32948108
Li      40.10627170       3.88583404       5.00146005
Li      41.21246921       0.55781300      11.66693061
Li      38.99064569       1.66401052      10.55130461
Li      37.88444817       2.77963653      12.77312813
Li      40.10627170       3.88583404       9.44510709
Li      41.21246921       0.55781300      16.11057766
Li      38.99064569       1.66401052      14.99495165
Li      37.88444817       2.77963653      17.21677517
Li      40.10627170       3.88583404      13.88875414
Li      41.21246921       0.55781300      20.55422470
Li      38.99064569       1.66401052      19.43859870
Li      37.88444817       2.77963653      21.66042222
Li      40.10627170       3.88583404      18.33240118
Li      41.21246921       0.55781300      24.99787175
Li      38.99064569       1.66401052      23.88224574
Li      37.88444817       2.77963653      26.10406926
Li      40.10627170       3.88583404      22.77604822
Li      41.21246921       0.55781300      29.44151879
Li      38.99064569       1.66401052      28.32589278
Li      37.88444817       2.77963653      30.54771631
Li      40.10627170       3.88583404      27.21969527
Li      41.21246921       0.55781300      33.88516583
Li      38.99064569       1.66401052      32.76953983
Li      37.88444817       2.77963653      34.99136335
Li      40.10627170       3.88583404      31.66334231
Li      41.21246921       0.55781300      38.32881288
Li      38.99064569       1.66401052      37.21318687
Li      37.88444817       2.77963653      39.43501039
Li      40.10627170       3.88583404      36.10698936
Li      41.21246921       0.55781300      42.77245992
Li      38.99064569       1.66401052      41.65683392
Li      37.88444817       2.77963653      43.87865744
Li      40.10627170       3.88583404      40.55063640
Li      41.21246921       5.00146005       2.77963653
Li      38.99064569       6.10765756       1.66401052
Li      37.88444817       7.22328357       3.88583404
Li      40.10627170       8.32948108       0.55781300
Li      41.21246921       5.00146005       7.22328357
Li      38.99064569       6.10765756       6.10765756
Li      37.88444817       7.22328357       8.32948108
Li      40.10627170       8.32948108       5.00146005
Li      41.21246921       5.00146005      11.66693061
Li      38.99064569       6.10765756      10.55130461
Li      37.88444817       7.22328357      12.77312813
Li      40.10627170       8.32948108       9.44510709
Li      41.21246921       5.00146005      16.11057766
Li      38.99064569       6.10765756      14.99495165
Li      37.88444817       7.22328357      17.21677517
Li      40.10627170       8.32948108      13.88875414
Li      41.21246921       5.00146005      20.55422470
Li      38.99064569       6.10765756      19.43859870
Li      37.88444817       7.22328357      21.66042222
Li      40.10627170       8.32948108      18.33240118
Li      41.21246921       5.00146005      24.99787175
Li      38.99064569       6.10765756      23.88224574
Li      37.88444817       7.22328357      26.10406926
Li      40.10627170       8.32948108      22.77604822
Li      41.21246921       5.00146005      29.44151879
Li      38.99064569       6.10765756      28.32589278
Li      37.88444817       7.22328357      30.54771631
Li      40.10627170       8.32948108      27.21969527
Li      41.21246921       5.00146005      33.88516583
Li      38.99064569       6.10765756      32.76953983
Li      37.88444817       7.22328357      34.99136335
Li      40.10627170       8.32948108      31.66334231
Li      41.21246921       5.00146005      38.32881288
Li      38.99064569       6.10765756      37.21318687
Li      37.88444817       7.22328357      39.43501039
Li      40.10627170       8.32948108      36.10698936
Li      41.21246921       5.00146005      42.77245992
Li      38.99064569       6.10765756      41.65683392
Li      37.88444817       7.22328357      43.87865744
Li      40.10627170       8.32948108      40.55063640
Li      41.21246921       9.44510709       2.77963653
Li      38.99064569      10.55130461       1.66401052
Li      37.88444817      11.66693061       3.88583404
Li      40.10627170      12.77312813       0.55781300
Li      41.21246921       9.44510709       7.22328357
Li      38.99064569      10.55130461       6.10765756
Li      37.88444817      11.66693061       8.32948108
Li      40.10627170      12.77312813       5.00146005
Li      41.21246921       9.44510709      11.66693061
Li      38.99064569      10.55130461      10.55130461
Li      37.88444817      11.66693061      12.77312813
Li      40.10627170      12.77312813       9.44510709
Li      41.21246921       9.44510709      16.11057766
Li      38.99064569      10.55130461      14.99495165
Li      37.88444817      11.66693061      17.21677517
Li      40.10627170      12.77312813      13.88875414
Li      41.21246921       9.44510709      20.55422470
Li      38.99064569      10.55130461      19.43859870
Li      37.88444817      11.66693061      21.66042222
Li      40.10627170      12.77312813      18.33240118
Li      41.21246921       9.44510709      24.99787175
Li      38.99064569      10.55130461      23.88224574
Li      37.88444817      11.66693061      26.10406926
Li      40.10627170      12.77312813      22.77604822
Li      41.21246921       9.44510709      29.44151879
Li      38.99064569      10.55130461      28.32589278
Li      37.88444817      11.66693061      30.54771631
Li      40.10627170      12.77312813      27.21969527
Li      41.21246921       9.44510709      33.88516583
Li      38.99064569      10.55130461      32.76953983
Li      37.88444817      11.66693061      34.99136335
Li      40.10627170      12.77312813      31.66334231
Li      41.21246921       9.44510709      38.32881288
Li      38.99064569      10.55130461      37.21318687
Li      37.88444817      11.66693061      39.43501039
Li      40.10627170      12.77312813      36.10698936
Li      41.21246921       9.44510709      42.77245992
Li      38.99064569      10.55130461      41.65683392
Li      37.88444817      11.66693061      43.87865744
Li      40.10627170      12.77312813      40.55063640
Li      41.21246921      13.88875414       2.77963653
Li      38.99064569      14.99495165       1.66401052
Li      37.88444817      16.11057766       3.88583404
Li      40.10627170      17.21677517       0.55781300
Li      41.21246921      13.88875414       7.22328357
Li      38.99064569      14.99495165       6.10765756
Li      37.88444817      16.11057766       8.32948108
Li      40.10627170      17.21677517       5.00146005
Li      41.21246921      13.88875414      11.66693061
Li      38.99064569      14.99495165      10.55130461
Li      37.88444817      16.11057766      12.77312813
Li      40.10627170      17.21677517       9.44510709
Li      41.21246921      13.88875414      16.11057766
Li      38.99064569      14.99495165      14.99495165
Li      37.88444817      16.11057766      17.21677517
Li      40.10627170      17.21677517      13.88875414
Li      41.21246921      13.88875414      20.55422470
Li      38.99064569      14.99495165      19.43859870
Li      37.88444817      16.11057766      21.66042222
Li      40.10627170      17.21677517      18.33240118
Li      41.21246921      13.88875414      24.99787175
Li      38.99064569      14.99495165      23.88224574
Li      37.88444817      16.11057766      26.10406926
Li      40.10627170      17.21677517      22.77604822
Li      41.21246921      13.88875414      29.44151879
Li      38.99064569      14.99495165      28.32589278
Li      37.88444817      16.11057766      30.54771631
Li      40.10627170      17.21677517      27.21969527
Li      41.21246921      13.88875414      33.88516583
Li      38.99064569      14.99495165      32.76953983
Li      37.88444817      16.11057766      34.99136335
Li      40.10627170      17.21677517      31.66334231
Li      41.21246921      13.88875414      38.32881288
Li      38.99064569      14.99495165      37.21318687
Li      37.88444817      16.11057766      39.43501039
Li      40.10627170      17.21677517      36.10698936
Li      41.21246921      13.88875414      42.77245992
Li      38.99064569      14.99495165      41.65683392
Li      37.88444817      16.11057766      43.87865744
Li      40.10627170      17.21677517      40.55063640
Li      41.21246921      18.33240118       2.77963653
Li      38.99064569      19.43859870       1.66401052
Li      37.88444817      20.55422470       3.88583404
Li      40.10627170      21.66042222       0.55781300
Li      41.21246921      18.33240118       7.22328357
Li      38.99064569      19.43859870       6.10765756
Li      37.88444817      20.55422470       8.32948108
Li      40.10627170      21.66042222       5.00146005
Li      41.21246921      18.33240118      11.66693061
Li      38.99064569      19.43859870      10.55130461
Li      37.88444817      20.55422470      12.77312813
Li      40.10627170      21.66042222       9.44510709
Li      41.21246921      18.33240118      16.11057766
Li      38.99064569      19.43859870      14.99495165
Li      37.88444817      20.55422470      17.21677517
Li      40.10627170      21.66042222      13.88875414
Li      41.21246921      18.33240118      20.55422470
Li      38.99064569      19.43859870      19.43859870
Li      37.88444817      20.55422470      21.66042222
Li      40.10627170      21.66042222      18.33240118
Li      41.21246921      18.33240118      24.99787175
Li      38.99064569      19.43859870      23.88224574
Li      37.88444817      20.55422470      26.10406926
Li      40.10627170      21.66042222      22.77604822
Li      41.21246921      18.33240118      29.44151879
Li      38.99064569      19.43859870      28.32589278
Li      37.88444817      20.55422470      30.54771631
Li      40.10627170      21.66042222      27.21969527
Li      41.21246921      18.33240118      33.88516583
Li      38.99064569      19.43859870      32.76953983
Li      37.88444817      20.55422470      34.99136335
Li      40.10627170      21.66042222      31.66334231
Li      41.21246921      18.33240118      38.32881288
Li      38.99064569      19.43859870      37.21318687
Li      37.88444817      20.55422470      39.43501039
Li      40.10627170      21.66042222      36.10698936
Li      41.21246921      18.33240118      42.77245992
Li      38.99064569      19.43859870      41.65683392
Li      37.88444817      20.55422470      43.87865744
Li      40.10627170      21.66042222      40.55063640
Li      41.21246921      22.77604822       2.77963653
Li      38.99064569      23.88224574       1.66401052
Li      37.88444817      24.99787175       3.88583404
Li      40.10627170      26.10406926       0.55781300
Li      41.21246921      22.77604822       7.22328357
Li      38.99064569      23.88224574       6.10765756
Li      37.88444817      24.99787175       8.32948108
Li      40.10627170      26.10406926       5.00146005
Li      41.21246921      22.77604822      11.66693061
Li      38.99064569      23.88224574      10.55130461
Li      37.88444817      24.99787175      12.77312813
Li      40.10627170      26.10406926       9.44510709
Li      41.21246921      22.77604822      16.11057766
Li      38.99064569      23.88224574      14.99495165
Li      37.88444817      24.99787175      17.21677517
Li      40.10627170      26.10406926      13.88875414
Li      41.21246921      22.77604822      20.55422470
Li      38.99064569      23.88224574      19.43859870
Li      37.88444817      24.99787175      21.66042222
Li      40.10627170      26.10406926      18.33240118
Li      41.21246921      22.77604822      24.99787175
Li      38.99064569      23.88224574      23.88224574
Li      37.88444817      24.99787175      26.10406926
Li      40.10627170      26.10406926      22.77604822
Li      41.21246921      22.77604822      29.44151879
Li      38.99064569      23.88224574      28.32589278
Li      37.88444817      24.99787175      30.54771631
Li      40.10627170      26.10406926      27.21969527
Li      41.21246921      22.77604822      33.88516583
Li      38.99064569      23.88224574      32.76953983
Li      37.88444817      24.99787175      34.99136335
Li      40.10627170      26.10406926      31.66334231
Li      41.21246921      22.77604822      38.32881288
Li      38.99064569      23.88224574      37.21318687
Li      37.88444817      24.99787175      39.43501039
Li      40.10627170      26.10406926      36.10698936
Li      41.21246921      22.77604822      42.77245992
Li      38.99064569      23.88224574      41.65683392
Li      37.88444817      24.99787175      43.87865744
Li      40.10627170      26.10406926      40.55063640
Li      41.21246921      27.21969527       2.77963653
Li      38.99064569      28.32589278       1.66401052
Li      37.88444817      29.44151879       3.88583404
Li      40.10627170      30.54771631       0.55781300
Li      41.21246921      27.21969527       7.22328357
Li      38.99064569      28.32589278       6.10765756
Li      37.88444817      29.44151879       8.32948108
Li      40.10627170      30.54771631       5.00146005
Li      41.21246921      27.21969527      11.66693061
Li      38.99064569      28.32589278      10.55130461
Li      37.88444817      29.44151879      12.77312813
Li      40.10627170      30.54771631       9.44510709
Li      41.21246921      27.21969527      16.11057766
Li      38.99064569      28.32589278      14.99495165
Li      37.88444817      29.44151879      17.21677517
Li      40.10627170      30.54771631      13.88875414
Li      41.21246921      27.21969527      20.55422470
Li      38.99064569      28.32589278      19.43859870
Li      37.88444817      29.44151879      21.66042222
Li      40.10627170      30.54771631      18.33240118
Li      41.21246921      27.21969527      24.99787175
Li      38.99064569      28.32589278      23.88224574
Li      37.88444817      29.44151879      26.10406926
Li      40.10627170      30.54771631      22.77604822
Li      41.21246921      27.21969527      29.44151879
Li      38.99064569      28.32589278      28.32589278
Li      37.88444817      29.44151879      30.54771631
Li      40.10627170      30.54771631      27.21969527
Li      41.21246921      27.21969527      33.88516583
Li      38.99064569      28.32589278      32.76953983
Li      37.88444817      29.44151879      34.99136335
Li      40.10627170      30.54771631      31.66334231
Li      41.21246921      27.21969527      38.32881288
Li      38.99064569      28.32589278      37.21318687
Li      37.88444817      29.44151879      39.43501039
Li      40.10627170      30.54771631      36.10698936
Li      41.21246921      27.21969527      42.77245992
Li      38.99064569      28.32589278      41.65683392
Li      37.88444817      29.44151879      43.87865744
Li      40.10627170      30.54771631      40.55063640
Li      41.21246921      31.66334231       2.77963653
Li      38.99064569      32.76953983       1.66401052
Li      37.88444817      33.88516583       3.88583404
Li      40.10627170      34.99136335       0.55781300
Li      41.21246921      31.66334231       7.22328357
Li      38.99064569      32.76953983       6.10765756
Li      37.88444817      33.88516583       8.32948108
Li      40.10627170      34.99136335       5.00146005
Li      41.21246921      31.66334231      11.66693061
Li      38.99064569      32.76953983      10.55130461
Li      37.88444817      33.88516583      12.77312813
Li      40.10627170      34.99136335       9.44510709
Li      41.21246921      31.66334231      16.11057766
Li      38.99064569      32.76953983      14.99495165
Li      37.88444817      33.88516583      17.21677517
Li      40.10627170      34.99136335      13.88875414
Li      41.21246921      31.66334231      20.55422470
Li      38.99064569      32.76953983      19.43859870
Li      37.88444817      33.88516583      21.66042222
Li      40.10627170      34.99136335      18.33240118
Li      41.21246921      31.66334231      24.99787175
Li      38.99064569      32.76953983      23.88224574
Li      37.88444817      33.88516583      26.10406926
Li      40.10627170      34.99136335      22.77604822
Li      41.21246921      31.66334231      29.44151879
Li      38.99064569      32.76953983      28.32589278
Li      37.88444817      33.88516583      30.54771631
Li      40.10627170      34.99136335      27.21969527
Li      41.21246921      31.66334231      33.88516583
Li      38.99064569      32.76953983      32.76953983
Li      37.88444817      33.88516583      34.99136335
Li      40.10627170      34.99136335      31.66334231
Li      41.21246921      31.66334231      38.32881288
Li      38.99064569      32.76953983      37.21318687
Li      37.88444817      33.88516583      39.43501039
Li      40.10627170      34.99136335      36.10698936
Li      41.21246921      31.66334231      42.77245992
Li      38.99064569      32.76953983      41.65683392
Li      37.88444817      33.88516583      43.87865744
Li      40.10627170      34.99136335      40.55063640
Li      41.21246921      36.10698936       2.77963653
Li      38.99064569      37.21318687       1.66401052
Li      37.88444817      38.32881288       3.88583404
Li      40.10627170      39.43501039       0.55781300
Li      41.21246921      36.10698936       7.22328357
Li      38.99064569      37.21318687       6.10765756
Li      37.88444817      38.32881288       8.32948108
Li      40.10627170      39.43501039       5.00146005
Li      41.21246921      36.10698936      11.66693061
Li      38.99064569      37.21318687      10.55130461
Li      37.88444817      38.32881288      12.77312813
Li      40.10627170      39.43501039       9.44510709
Li      41.21246921      36.10698936      16.11057766
Li      38.99064569      37.21318687      14.99495165
Li      37.88444817      38.32881288      17.21677517
Li      40.10627170      39.43501039      13.88875414
Li      41.21246921      36.10698936      20.55422470
Li      38.99064569      37.21318687      19.43859870
Li      37.88444817      38.32881288      21.66042222
Li      40.10627170      39.43501039      18.33240118
Li      41.21246921      36.10698936      24.99787175
Li      38.99064569      37.21318687      23.88224574
Li      37.88444817      38.32881288      26.10406926
Li      40.10627170      39.43501039      22.77604822
Li      41.21246921      36.10698936      29.44151879
Li      38.99064569      37.21318687      28.32589278
Li      37.88444817      38.32881288      30.54771631
Li      40.10627170      39.43501039      27.21969527
Li      41.21246921      36.10698936      33.88516583
Li      38.99064569      37.21318687      32.76953983
Li      37.88444817      38.32881288      34.99136335
Li      40.10627170      39.43501039      31.66334231
Li      41.21246921      36.10698936      38.32881288
Li      38.99064569      37.21318687      37.21318687
Li      37.88444817      38.32881288      39.43501039
Li      40.10627170      39.43501039      36.10698936
Li      41.21246921      36.10698936      42.77245992
Li      38.99064569      37.21318687      41.65683392
Li      37.88444817      38.32881288      43.87865744
Li      40.10627170      39.43501039      40.55063640
Li      41.21246921      40.55063640       2.77963653
Li      38.99064569      41.65683392       1.66401052
Li      37.88444817      42.77245992       3.88583404
Li      40.10627170      43.87865744       0.55781300
Li      41.21246921      40.55063640       7.22328357
Li      38.99064569      41.65683392       6.10765756
Li      37.88444817      42.77245992       8.32948108
Li      40.10627170      43.87865744       5.00146005
Li      41.21246921      40.55063640      11.66693061
Li      38.99064569      41.65683392      10.55130461
Li      37.88444817      42.77245992      12.77312813
Li      40.10627170      43.87865744       9.44510709
Li      41.21246921      40.55063640      16.11057766
Li      38.99064569      41.65683392      14.99495165
Li      37.88444817      42.77245992      17.21677517
Li      40.10627170      43.87865744      13.88875414
Li      41.21246921      40.55063640      20.55422470
Li      38.99064569      41.65683392      19.43859870
Li      37.88444817      42.77245992      21.66042222
Li      40.10627170      43.87865744      18.33240118
Li      41.21246921      40.55063640      24.99787175
Li      38.99064569      41.65683392      23.88224574
Li      37.88444817      42.77245992      26.10406926
Li      40.10627170      43.87865744      22.77604822
Li      41.21246921      40.55063640      29.44151879
Li      38.99064569      41.65683392      28.32589278
Li      37.88444817      42.77245992      30.54771631
Li      40.10627170      43.87865744      27.21969527
Li      41.21246921      40.55063640      33.88516583
Li      38.99064569      41.65683392      32.76953983
Li      37.88444817      42.77245992      34.99136335
Li      40.10627170      43.87865744      31.66334231
Li      41.21246921      40.55063640      38.32881288
Li      38.99064569      41.65683392      37.21318687
Li      37.88444817      42.77245992      39.43501039
Li      40.10627170      43.87865744      36.10698936
Li      41.21246921      40.55063640      42.77245992
Li      38.99064569      41.65683392      41.65683392
Li      37.88444817      42.77245992      43.87865744
Li      40.10627170      43.87865744      40.55063640
Li      45.87829861       0.55781300       2.77963653
Li      43.65647509       1.66401052       1.66401052
Li      42.55027757       2.77963653       3.88583404
Li      44.77210109       3.88583404       0.55781300
Li      45.87829861       0.55781300       7.22328357
Li      43.65647509       1.66401052       6.10765756
Li      42.55027757       2.77963653       8.32948108
Li      44.77210109       3.88583404       5.00146005
Li      45.87829861       0.55781300      11.66693061
Li      43.65647509       1.66401052      10.55130461
Li      42.55027757       2.77963653      12.77312813
Li      44.77210109       3.88583404       9.44510709
Li      45.87829861       0.55781300      16.11057766
Li      43.65647509       1.66401052      14.99495165
Li      42.55027757       2.77963653      17.21677517
Li      44.77210109       3.88583404      13.88875414
Li      45.87829861       0.55781300      20.55422470
Li      43.65647509       1.66401052      19.43859870
Li      42.55027757       2.77963653      21.66042222
Li      44.77210109       3.88583404      18.33240118
Li      45.87829861       0.55781300      24.99787175
Li      43.65647509       1.66401052      23.88224574
Li      42.55027757       2.77963653      26.10406926
Li      44.77210109       3.88583404      22.77604822
Li      45.87829861       0.55781300      29.44151879
Li      43.65647509       1.66401052      28.32589278
Li      42.55027757       2.77963653      30.54771631
Li      44.77210109       3.88583404      27.21969527
Li      45.87829861       0.55781300      33.88516583
Li      43.65647509       1.66401052      32.76953983
Li      42.55027757       2.77963653      34.99136335
Li      44.77210109       3.88583404      31.66334231
Li      45.87829861       0.55781300      38.32881288
Li      43.65647509       1.66401052      37.21318687
Li      42.55027757       2.77963653      39.43501039
Li      44.77210109       3.88583404      36.10698936
Li      45.87829861       0.55781300      42.77245992
Li      43.65647509       1.66401052      41.65683392
Li      42.55027757       2.77963653      43.87865744
Li      44.77210109       3.88583404      40.55063640
Li      45.87829861       5.00146005       2.77963653
Li      43.65647509       6.10765756       1.66401052
Li      42.55027757       7.22328357       3.88583404
Li      44.77210109       8.32948108       0.55781300
Li      45.87829861       5.00146005       7.22328357
Li      43.65647509       6.10765756       6.10765756
Li      42.55027757       7.22328357       8.32948108
Li      44.77210109       8.32948108       5.00146005
Li      45.87829861       5.00146005      11.66693061
Li      43.65647509       6.10765756      10.55130461
Li      42.55027757       7.22328357      12.77312813
Li      44.77210109       8.32948108       9.44510709
Li      45.87829861       5.00146005      16.11057766
Li      43.65647509       6.10765756      14.99495165
Li      42.55027757       7.22328357      17.21677517
Li      44.77210109       8.32948108      13.88875414
Li      45.87829861       5.00146005      20.55422470
Li      43.65647509       6.10765756      19.43859870
Li      42.55027757       7.22328357      21.66042222
Li      44.77210109       8.32948108      18.33240118
Li      45.87829861       5.00146005      24.99787175
Li      43.65647509       6.10765756      23.88224574
Li      42.55027757       7.22328357      26.10406926
Li      44.77210109       8.32948108      22.77604822
Li      45.87829861       5.00146005      29.44151879
Li      43.65647509       6.10765756      28.32589278
Li      42.55027757       7.22328357      30.54771631
Li      44.77210109       8.32948108      27.21969527
Li      45.87829861       5.00146005      33.88516583
Li      43.65647509       6.10765756      32.76953983
Li      42.55027757       7.22328357      34.99136335
Li      44.77210109       8.32948108      31.66334231
Li      45.87829861       5.00146005      38.32881288
Li      43.65647509       6.10765756      37.21318687
Li      42.55027757       7.22328357      39.43501039
Li      44.77210109       8.32948108      36.10698936
Li      45.87829861       5.00146005      42.77245992
Li      43.65647509       6.10765756      41.65683392
Li      42.55027757       7.22328357      43.87865744
Li      44.77210109       8.32948108      40.55063640
Li      45.87829861       9.44510709       2.77963653
Li      43.65647509      10.55130461       1.66401052
Li      42.55027757      11.66693061       3.88583404
Li      44.77210109      12.77312813       0.55781300
Li      45.87829861       9.44510709       7.22328357
Li      43.65647509      10.55130461       6.10765756
Li      42.55027757      11.66693061       8.32948108
Li      44.77210109      12.77312813       5.00146005
Li      45.87829861       9.44510709      11.66693061
Li      43.65647509      10.55130461      10.55130461
Li      42.55027757      11.66693061      12.77312813
Li      44.77210109      12.77312813       9.44510709
Li      45.87829861       9.44510709      16.11057766
Li      43.65647509      10.55130461      14.99495165
Li      42.55027757      11.66693061      17.21677517
Li      44.77210109      12.77312813      13.88875414
Li      45.87829861       9.44510709      20.55422470
Li      43.65647509      10.55130461      19.43859870
Li      42.55027757      11.66693061      21.66042222
Li      44.77210109      12.77312813      18.33240118
Li      45.87829861       9.44510709      24.99787175
Li      43.65647509      10.55130461      23.88224574
Li      42.55027757      11.66693061      26.10406926
Li      44.77210109      12.77312813      22.77604822
Li      45.87829861       9.44510709      29.44151879
Li      43.65647509      10.55130461      28.32589278
Li      42.55027757      11.66693061      30.54771631
Li      44.77210109      12.77312813      27.21969527
Li      45.87829861       9.44510709      33.88516583
Li      43.65647509      10.55130461      32.76953983
Li      42.55027757      11.66693061      34.99136335
Li      44.77210109      12.77312813      31.66334231
Li      45.87829861       9.44510709      38.32881288
Li      43.65647509      10.55130461      37.21318687
Li      42.55027757      11.66693061      39.43501039
Li      44.77210109      12.77312813      36.10698936
Li      45.87829861       9.44510709      42.77245992
Li      43.65647509      10.55130461      41.65683392
Li      42.55027757      11.66693061      43.87865744
Li      44.77210109      12.77312813      40.55063640
Li      45.87829861      13.88875414       2.77963653
Li      43.65647509      14.99495165       1.66401052
Li      42.55027757      16.11057766       3.88583404
Li      44.77210109      17.21677517       0.55781300
Li      45.87829861      13.88875414       7.22328357
Li      43.65647509      14.99495165       6.10765756
Li      42.55027757      16.11057766       8.32948108
Li      44.77210109      17.21677517       5.00146005
Li      45.87829861      13.88875414      11.66693061
Li      43.65647509      14.99495165      10.55130461
Li      42.55027757      16.11057766      12.77312813
Li      44.77210109      17.21677517       9.44510709
Li      45.87829861      13.88875414      16.11057766
Li      43.65647509      14.99495165      14.99495165
Li      42.55027757      16.11057766      17.21677517
Li      44.77210109      17.21677517      13.88875414
Li      45.87829861      13.88875414      20.55422470
Li      43.65647509      14.99495165      19.43859870
Li      42.55027757      16.11057766      21.66042222
Li      44.77210109      17.21677517      18.33240118
Li      45.87829861      13.88875414      24.99787175
Li      43.65647509      14.99495165      23.88224574
Li      42.55027757      16.11057766      26.10406926
Li      44.77210109      17.21677517      22.77604822
Li      45.87829861      13.88875414      29.44151879
Li      43.65647509      14.99495165      28.32589278
Li      42.55027757      16.11057766      30.54771631
Li      44.77210109      17.21677517      27.21969527
Li      45.87829861      13.88875414      33.88516583
Li      43.65647509      14.99495165      32.76953983
Li      42.55027757      16.11057766      34.99136335
Li      44.77210109      17.21677517      31.66334231
Li      45.87829861      13.88875414      38.32881288
Li      43.65647509      14.99495165      37.21318687
Li      42.55027757      16.11057766      39.43501039
Li      44.77210109      17.21677517      36.10698936
Li      45.87829861      13.88875414      42.77245992
Li      43.65647509      14.99495165      41.65683392
Li      42.55027757      16.11057766      43.87865744
Li      44.77210109      17.21677517      40.55063640
Li      45.87829861      18.33240118       2.77963653
Li      43.65647509      19.43859870       1.66401052
Li      42.55027757      20.55422470       3.88583404
Li      44.77210109      21.66042222       0.55781300
Li      45.87829861      18.33240118       7.22328357
Li      43.65647509      19.43859870       6.10765756
Li      42.55027757      20.55422470       8.32948108
Li      44.77210109      21.66042222       5.00146005
Li      45.87829861      18.33240118      11.66693061
Li      43.65647509      19.43859870      10.55130461
Li      42.55027757      20.55422470      12.77312813
Li      44.77210109      21.66042222       9.44510709
Li      45.87829861      18.33240118      16.11057766
Li      43.65647509      19.43859870      14.99495165
Li      42.55027757      20.55422470      17.21677517
Li      44.77210109      21.66042222      13.88875414
Li      45.87829861      18.33240118      20.55422470
Li      43.65647509      19.43859870      19.43859870
Li      42.55027757      20.55422470      21.66042222
Li      44.77210109      21.66042222      18.33240118
Li      45.87829861      18.33240118      24.99787175
Li      43.65647509      19.43859870      23.88224574
Li      42.55027757      20.55422470      26.10406926
Li      44.77210109      21.66042222      22.77604822
Li      45.87829861      18.33240118      29.44151879
Li      43.65647509      19.43859870      28.32589278
Li      42.55027757      20.55422470      30.54771631
Li      44.77210109      21.66042222      27.21969527
Li      45.87829861      18.33240118      33.88516583
Li      43.65647509      19.43859870      32.76953983
Li      42.55027757      20.55422470      34.99136335
Li      44.77210109      21.66042222      31.66334231
Li      45.87829861      18.33240118      38.32881288
Li      43.65647509      19.43859870      37.21318687
Li      42.55027757      20.55422470      39.43501039
Li      44.77210109      21.66042222      36.10698936
Li      45.87829861      18.33240118      42.77245992
Li      43.65647509      19.43859870      41.65683392
Li      42.55027757      20.55422470      43.87865744
Li      44.77210109      21.66042222      40.55063640
Li      45.87829861      22.77604822       2.77963653
Li      43.65647509      23.88224574       1.66401052
Li      42.55027757      24.99787175       3.88583404
Li      44.77210109      26.10406926       0.55781300
Li      45.87829861      22.77604822       7.22328357
Li      43.65647509      23.88224574       6.10765756
Li      42.55027757      24.99787175       8.32948108
Li      44.77210109      26.10406926       5.00146005
Li      45.87829861      22.77604822      11.66693061
Li      43.65647509      23.88224574      10.55130461
Li      42.55027757      24.99787175      12.77312813
Li      44.77210109      26.10406926       9.44510709
Li      45.87829861      22.77604822      16.11057766
Li      43.65647509      23.88224574      14.99495165
Li      42.55027757      24.99787175      17.21677517
Li      44.77210109      26.10406926      13.88875414
Li      45.87829861      22.77604822      20.55422470
Li      43.65647509      23.88224574      19.43859870
Li      42.55027757      24.99787175      21.66042222
Li      44.77210109      26.10406926      18.33240118
Li      45.87829861      22.77604822      24.99787175
Li      43.65647509      23.88224574      23.88224574
Li      42.55027757      24.99787175      26.10406926
Li      44.77210109      26.10406926      22.77604822
Li      45.87829861      22.77604822      29.44151879
Li      43.65647509      23.88224574      28.32589278
Li      42.55027757      24.99787175      30.54771631
Li      44.77210109      26.10406926      27.21969527
Li      45.87829861      22.77604822      33.88516583
Li      43.65647509      23.88224574      32.76953983
Li      42.55027757      24.99787175      34.99136335
Li      44.77210109      26.10406926      31.66334231
Li      45.87829861      22.77604822      38.32881288
Li      43.65647509      23.88224574      37.21318687
Li      42.55027757      24.99787175      39.43501039
Li      44.77210109      26.10406926      36.10698936
Li      45.87829861      22.77604822      42.77245992
Li      43.65647509      23.88224574      41.65683392
Li      42.55027757      24.99787175      43.87865744
Li      44.77210109      26.10406926      40.55063640
Li      45.87829861      27.21969527       2.77963653
Li      43.65647509      28.32589278       1.66401052
Li      42.55027757      29.44151879       3.88583404
Li      44.77210109      30.54771631       0.55781300
Li      45.87829861      27.21969527       7.22328357
Li      43.65647509      28.32589278       6.10765756
Li      42.55027757      29.44151879       8.32948108
Li      44.77210109      30.54771631       5.00146005
Li      45.87829861      27.21969527      11.66693061
Li      43.65647509      28.32589278      10.55130461
Li      42.55027757      29.44151879      12.77312813
Li      44.77210109      30.54771631       9.44510709
Li      45.87829861      27.21969527      16.11057766
Li      43.65647509      28.32589278      14.99495165
Li      42.55027757      29.44151879      17.21677517
Li      44.77210109      30.54771631      13.88875414
Li      45.87829861      27.21969527      20.55422470
Li      43.65647509      28.32589278      19.43859870
Li      42.55027757      29.44151879      21.66042222
Li      44.77210109      30.54771631      18.33240118
Li      45.87829861      27.21969527      24.99787175
Li      43.65647509      28.32589278      23.88224574
Li      42.55027757      29.44151879      26.10406926
Li      44.77210109      30.54771631      22.77604822
Li      45.87829861      27.21969527      29.44151879
Li      43.65647509      28.32589278      28.32589278
Li      42.55027757      29.44151879      30.54771631
Li      44.77210109      30.54771631      27.21969527
Li      45.87829861      27.21969527      33.88516583
Li      43.65647509      28.32589278      32.76953983
Li      42.55027757      29.44151879      34.99136335
Li      44.77210109      30.54771631      31.66334231
Li      45.87829861      27.21969527      38.32881288
Li      43.65647509      28.32589278      37.21318687
Li      42.55027757      29.44151879      39.43501039
Li      44.77210109      30.54771631      36.10698936
Li      45.87829861      27.21969527      42.77245992
Li      43.65647509      28.32589278      41.65683392
Li      42.55027757      29.44151879      43.87865744
Li      44.77210109      30.54771631      40.55063640
Li      45.87829861      31.66334231       2.77963653
Li      43.65647509      32.76953983       1.66401052
Li      42.55027757      33.88516583       3.88583404
Li      44.77210109      34.99136335       0.55781300
Li      45.87829861      31.66334231       7.22328357
Li      43.65647509      32.76953983       6.10765756
Li      42.55027757      33.88516583       8.32948108
Li      44.77210109      34.99136335       5.00146005
Li      45.87829861      31.66334231      11.66693061
Li      43.65647509      32.76953983      10.55130461
Li      42.55027757      33.88516583      12.77312813
Li      44.77210109      34.99136335       9.44510709
Li      45.87829861      31.66334231      16.11057766
Li      43.65647509      32.76953983      14.99495165
Li      42.55027757      33.88516583      17.21677517
Li      44.77210109      34.99136335      13.88875414
Li      45.87829861      31.66334231      20.55422470
Li      43.65647509      32.76953983      19.43859870
Li      42.55027757      33.88516583      21.66042222
Li      44.77210109      34.99136335      18.33240118
Li      45.87829861      31.66334231      24.99787175
Li      43.65647509      32.76953983      23.88224574
Li      42.55027757      33.88516583      26.10406926
Li      44.77210109      34.99136335      22.77604822
Li      45.87829861      31.66334231      29.44151879
Li      43.65647509      32.76953983      28.32589278
Li      42.55027757      33.88516583      30.54771631
Li      44.77210109      34.99136335      27.21969527
Li      45.87829861      31.66334231      33.88516583
Li      43.65647509      32.76953983      32.76953983
Li      42.55027757      33.88516583      34.99136335
Li      44.77210109      34.99136335      31.66334231
Li      45.87829861      31.66334231      38.32881288
Li      43.65647509      32.76953983      37.21318687
Li      42.55027757      33.88516583      39.43501039
Li      44.77210109      34.99136335      36.10698936
Li      45.87829861      31.66334231      42.77245992
Li      43.65647509      32.76953983      41.65683392
Li      42.55027757      33.88516583      43.87865744
Li      44.77210109      34.99136335      40.55063640
Li      45.87829861      36.10698936       2.77963653
Li      43.65647509      37.21318687       1.66401052
Li      42.55027757      38.32881288       3.88583404
Li      44.77210109      39.43501039       0.55781300
Li      45.87829861      36.10698936       7.22328357
Li      43.65647509      37.21318687       6.10765756
Li      42.55027757      38.32881288       8.32948108
Li      44.77210109      39.43501039       5.00146005
Li      45.87829861      36.10698936      11.66693061
Li      43.65647509      37.21318687      10.55130461
Li      42.55027757      38.32881288      12.77312813
Li      44.77210109      39.43501039       9.44510709
Li      45.87829861      36.10698936      16.11057766
Li      43.65647509      37.21318687      14.99495165
Li      42.55027757      38.32881288      17.21677517
Li      44.77210109      39.43501039      13.88875414
Li      45.87829861      36.10698936      20.55422470
Li      43.65647509      37.21318687      19.43859870
Li      42.55027757      38.32881288      21.66042222
Li      44.77210109      39.43501039      18.33240118
Li      45.87829861      36.10698936      24.99787175
Li      43.65647509      37.21318687      23.88224574
Li      42.55027757      38.32881288      26.10406926
Li      44.77210109      39.43501039      22.77604822
Li      45.87829861      36.10698936      29.44151879
Li      43.65647509      37.21318687      28.32589278
Li      42.55027757      38.32881288      30.54771631
Li      44.77210109      39.43501039      27.21969527
Li      45.87829861      36.10698936      33.88516583
Li      43.65647509      37.21318687      32.76953983
Li      42.55027757      38.32881288      34.99136335
Li      44.77210109      39.43501039      31.66334231
Li      45.87829861      36.10698936      38.32881288
Li      43.65647509      37.21318687      37.21318687
Li      42.55027757      38.32881288      39.43501039
Li      44.77210109      39.43501039      36.10698936
Li      45.87829861      36.10698936      42.77245992
Li      43.65647509      37.21318687      41.65683392
Li      42.55027757      38.32881288      43.87865744
Li      44.77210109      39.43501039      40.55063640
Li      45.87829861      40.55063640       2.77963653
Li      43.65647509      41.65683392       1.66401052
Li      42.55027757      42.77245992       3.88583404
Li      44.77210109      43.87865744       0.55781300
Li      45.87829861      40.55063640       7.22328357
Li      43.65647509      41.65683392       6.10765756
Li      42.55027757      42.77245992       8.32948108
Li      44.77210109      43.87865744       5.00146005
Li      45.87829861      40.55063640      11.66693061
Li      43.65647509      41.65683392      10.55130461
Li      42.55027757      42.77245992      12.77312813
Li      44.77210109      43.87865744       9.44510709
Li      45.87829861      40.55063640      16.11057766
Li      43.65647509      41.65683392      14.99495165
Li      42.55027757      42.77245992      17.21677517
Li      44.77210109      43.87865744      13.88875414
Li      45.87829861      40.55063640      20.55422470
Li      43.65647509      41.65683392      19.43859870
Li      42.55027757      42.77245992      21.66042222
Li      44.77210109      43.87865744      18.33240118
Li      45.87829861      40.55063640      24.99787175
Li      43.65647509      41.65683392      23.88224574
Li      42.55027757      42.77245992      26.10406926
Li      44.77210109      43.87865744      22.77604822
Li      45.87829861      40.55063640      29.44151879
Li      43.65647509      41.65683392      28.32589278
Li      42.55027757      42.77245992      30.54771631
Li      44.77210109      43.87865744      27.21969527
Li      45.87829861      40.55063640      33.88516583
Li      43.65647509      41.65683392      32.76953983
Li      42.55027757      42.77245992      34.99136335
Li      44.77210109      43.87865744      31.66334231
Li      45.87829861      40.55063640      38.32881288
Li      43.65647509      41.65683392      37.21318687
Li      42.55027757      42.77245992      39.43501039
Li      44.77210109      43.87865744      36.10698936
Li      45.87829861      40.55063640      42.77245992
Li      43.65647509      41.65683392      41.65683392
Li      42.55027757      42.77245992      43.87865744
Li      44.77210109      43.87865744      40.55063640
