112
Lattice="17.21658502723464 0.0 0.0 0.0 17.04 0.0 0.0 0.0 20.0" Properties=species:S:1:pos:R:3:group:I:2 pbc="F F F"
C        1.22975607       0.00000000      10.00000000        1        1
C        0.00000000       0.71000000      10.00000000        1        1
C        0.00000000       2.13000000      10.00000000        1        1
C        1.22975607       2.84000000      10.00000000        1        1
C        3.68926822       0.00000000      10.00000000        1        1
C        2.45951215       0.71000000      10.00000000        1        1
C        2.45951215       2.13000000      10.00000000        1        1
C        3.68926822       2.84000000      10.00000000        1        1
C        6.14878037       0.00000000      10.00000000        1        1
C        4.91902429       0.71000000      10.00000000        1        1
C        4.91902429       2.13000000      10.00000000        1        1
C        6.14878037       2.84000000      10.00000000        1        1
C        8.60829251       0.00000000      10.00000000        1        1
C        7.37853644       0.71000000      10.00000000        1        1
C        7.37853644       2.13000000      10.00000000        1        1
C        8.60829251       2.84000000      10.00000000        1        1
C       11.06780466       0.00000000      10.00000000        1        1
C        9.83804859       0.71000000      10.00000000        1        1
C        9.83804859       2.13000000      10.00000000        1        1
C       11.06780466       2.84000000      10.00000000        1        1
C       13.52731681       0.00000000      10.00000000        1        1
C       12.29756073       0.71000000      10.00000000        1        1
C       12.29756073       2.13000000      10.00000000        1        1
C       13.52731681       2.84000000      10.00000000        1        1
C       15.98682895       0.00000000      10.00000000        1        1
C       14.75707288       0.71000000      10.00000000        1        1
C       14.75707288       2.13000000      10.00000000        1        1
C       15.98682895       2.84000000      10.00000000        1        1
C        1.22975607       4.26000000      10.00000000        1        1
C        0.00000000       4.97000000      10.00000000        1        1
C        0.00000000       6.39000000      10.00000000        1        1
C        1.22975607       7.10000000      10.00000000        1        1
C        3.68926822       4.26000000      10.00000000        0        1
C        2.45951215       4.97000000      10.00000000        0        1
C        2.45951215       6.39000000      10.00000000        0        1
C        3.68926822       7.10000000      10.00000000        0        1
C        6.14878037       4.26000000      10.00000000        0        1
C        4.91902429       4.97000000      10.00000000        0        1
C        4.91902429       6.39000000      10.00000000        0        1
C        6.14878037       7.10000000      10.00000000        0        1
C        8.60829251       4.26000000      10.00000000        0        1
C        7.37853644       4.97000000      10.00000000        0        1
C        7.37853644       6.39000000      10.00000000        0        1
C        8.60829251       7.10000000      10.00000000        0        1
C       11.06780466       4.26000000      10.00000000        0        1
C        9.83804859       4.97000000      10.00000000        0        1
C        9.83804859       6.39000000      10.00000000        0        1
C       11.06780466       7.10000000      10.00000000        0        1
C       13.52731681       4.26000000      10.00000000        0        1
C       12.29756073       4.97000000      10.00000000        0        1
C       12.29756073       6.39000000      10.00000000        0        1
C       13.52731681       7.10000000      10.00000000        0        1
C       15.98682895       4.26000000      10.00000000        1        1
C       14.75707288       4.97000000      10.00000000        1        1
C       14.75707288       6.39000000      10.00000000        1        1
C       15.98682895       7.10000000      10.00000000        1        1
C        1.22975607       8.52000000      10.00000000        1        1
C        0.00000000       9.23000000      10.00000000        1        1
C        0.00000000      10.65000000      10.00000000        1        1
C        1.22975607      11.36000000      10.00000000        1        1
C        3.68926822       8.52000000      10.00000000        0        1
C        2.45951215       9.23000000      10.00000000        0        1
C        2.45951215      10.65000000      10.00000000        0        1
C        3.68926822      11.36000000      10.00000000        0        1
C        6.14878037       8.52000000      10.00000000        0        1
C        4.91902429       9.23000000      10.00000000        0        1
C        4.91902429      10.65000000      10.00000000        0        1
C        6.14878037      11.36000000      10.00000000        0        1
C        8.60829251       8.52000000      10.00000000        0        1
C        7.37853644       9.23000000      10.00000000        0        1
C        7.37853644      10.65000000      10.00000000        0        1
C        8.60829251      11.36000000      10.00000000        0        1
C       11.06780466       8.52000000      10.00000000        0        1
C        9.83804859       9.23000000      10.00000000        0        1
C        9.83804859      10.65000000      10.00000000        0        1
C       11.06780466      11.36000000      10.00000000        0        1
C       13.52731681       8.52000000      10.00000000        0        1
C       12.29756073       9.23000000      10.00000000        0        1
C       12.29756073      10.65000000      10.00000000        0        1
C       13.52731681      11.36000000      10.00000000        0        1
C       15.98682895       8.52000000      10.00000000        1        1
C       14.75707288       9.23000000      10.00000000        1        1
C       14.75707288      10.65000000      10.00000000        1        1
C       15.98682895      11.36000000      10.00000000        1        1
C        1.22975607      12.78000000      10.00000000        1        1
C        0.00000000      13.49000000      10.00000000        1        1
C        0.00000000      14.91000000      10.00000000        1        1
C        1.22975607      15.62000000      10.00000000        1        1
C        3.68926822      12.78000000      10.00000000        1        1
C        2.45951215      13.49000000      10.00000000        1        1
C        2.45951215      14.91000000      10.00000000        1        1
C        3.68926822      15.62000000      10.00000000        1        1
C        6.14878037      12.78000000      10.00000000        1        1
C        4.91902429      13.49000000      10.00000000        1        1
C        4.91902429      14.91000000      10.00000000        1        1
C        6.14878037      15.62000000      10.00000000        1        1
C        8.60829251      12.78000000      10.00000000        1        1
C        7.37853644      13.49000000      10.00000000        1        1
C        7.37853644      14.91000000      10.00000000        1        1
C        8.60829251      15.62000000      10.00000000        1        1
C       11.06780466      12.78000000      10.00000000        1        1
C        9.83804859      13.49000000      10.00000000        1        1
C        9.83804859      14.91000000      10.00000000        1        1
C       11.06780466      15.62000000      10.00000000        1        1
C       13.52731681      12.78000000      10.00000000        1        1
C       12.29756073      13.49000000      10.00000000        1        1
C       12.29756073      14.91000000      10.00000000        1        1
C       13.52731681      15.62000000      10.00000000        1        1
C       15.98682895      12.78000000      10.00000000        1        1
C       14.75707288      13.49000000      10.00000000        1        1
C       14.75707288      14.91000000      10.00000000        1        1
C       15.98682895      15.62000000      10.00000000        1        1
