8240
pbc="T T T" Lattice="51.0242 0 0 0 51.0242 0 0 0 51.0242" Properties=species:S:1:pos:R:3:mass:R:1:vel:R:3
C 8.48586 7.57994 19.6151 12.011 0.000631662 0.00161012 0.000435598 
C 11.3471 50.4891 41.4611 12.011 0.00571355 0.00225302 0.00131112 
C 22.6494 0.435399 39.8495 12.011 0.00512282 0.0093839 0.00125594 
C 29.9534 32.7943 31.2762 12.011 0.00533369 -0.00250298 0.00122444 
C 40.1421 7.98752 42.4954 12.011 -0.00647298 -0.00260353 0.00463473 
C 41.1111 25.3864 33.9497 12.011 -0.00598464 -0.00534665 0.00281244 
C 22.8257 31.492 11.726 12.011 0.00103429 -0.00450685 0.00497496 
C 6.66061 40.6024 39.0997 12.011 -0.00132088 0.000764646 0.00140806 
C 10.5345 24.4439 35.5695 12.011 0.00226376 0.00143192 0.00568796 
C 15.3678 42.384 26.271 12.011 -0.00311075 -1.94226e-05 -0.0128701 
C 26.6541 21.9577 6.97583 12.011 -0.00094217 -7.22118e-05 0.00611121 
C 32.4392 9.52586 33.2539 12.011 -0.00913435 -9.20414e-05 -0.000528927 
C 32.8892 45.0602 47.3745 12.011 -0.00436383 -0.00240361 -0.000765621 
C 20.1825 48.3749 0.223147 12.011 -0.00686443 -0.00146961 -0.00218329 
C 27.8215 3.71529 13.5401 12.011 0.00169141 0.00373205 -0.000685691 
C 20.9711 31.153 10.0537 12.011 -0.00516216 -0.00346066 -0.00110176 
C 10.9455 7.21309 8.93937 12.011 0.0014678 -0.0118156 -0.00364969 
C 9.35436 19.9783 27.8265 12.011 -0.00775964 0.00920308 0.00107311 
C 49.9974 22.9565 10.3612 12.011 -0.00126048 0.000135975 -0.00729005 
C 14.1442 32.7685 21.99 12.011 -0.00345852 -0.00375066 -0.00525386 
C 1.87947 29.5378 47.2735 12.011 0.00113797 -0.000490897 -0.00131596 
C 34.8955 33.1108 17.4388 12.011 0.00511315 0.00328952 0.00788794 
C 12.0646 24.5948 9.79402 12.011 0.00103099 -0.00304328 0.00196831 
C 48.2154 38.4536 48.0747 12.011 0.00222378 0.00796988 -0.00623487 
C 21.8529 30.92 24.2922 12.011 -0.000224913 0.00306571 0.00536947 
C 7.82349 39.9714 12.9872 12.011 -0.00624219 -0.00993095 0.00384868 
C 8.17519 39.0808 14.126 12.011 -0.00935868 0.00320935 -0.00621769 
C 26.1979 45.103 29.9728 12.011 0.00674111 -0.000768633 0.00579973 
C 20.8364 32.425 36.139 12.011 0.0043812 0.00327804 -0.000413754 
C 33.8466 46.623 0.0769208 12.011 0.000206131 -0.00118272 -0.000641851 
C 26.2418 10.0082 32.5321 12.011 0.00647086 -0.00447312 0.00374191 
C 29.2535 46.1182 45.5081 12.011 0.00806947 0.0140726 -0.000220618 
C 12.2859 31.9003 19.4946 12.011 -0.00212539 -0.00401959 -0.000207918 
C 18.4691 34.0965 36.09 12.011 -0.003736 0.00497246 0.00338613 
C 17.0439 5.20193 9.19154 12.011 0.000227397 -7.5526e-05 -0.00147865 
C 39.9462 34.8276 46.1941 12.011 -0.00603505 0.00839701 -0.00168331 
C 6.57568 13.6645 11.4363 12.011 -0.000912032 0.00349118 -0.00482032 
C 4.79455 40.2639 6.09878 12.011 -0.01146 0.00546741 -0.00441928 
C 39.0001 6.476 34.8885 12.011 -0.00492613 0.00548247 -0.00063034 
C 2.67319 10.3983 14.162 12.011 0.00230432 -0.00319221 0.00238666 
C 18.1314 26.7732 35.1189 12.011 -0.000513389 0.00420163 -0.0059545 
C 10.3106 44.5425 42.8133 12.011 -0.000717427 0.00661588 0.00189908 
C 48.5126 49.0676 38.6613 12.011 -0.00472858 -0.00428742 0.00261372 
C 23.8994 13.5433 49.3273 12.011 -0.00046593 -0.00206449 0.000247452 
C 43.785 46.509 34.3799 12.011 0.00336604 -0.00339745 -0.00118008 
C 21.985 43.5794 2.96707 12.011 -0.00908818 -0.00283977 -0.00129427 
C 48.7695 8.89808 8.42963 12.011 0.00185584 0.00315023 -0.00250802 
C 23.9533 44.6364 5.9777 12.011 -0.00138946 -0.00719314 -0.00258425 
C 32.8899 21.5608 27.458 12.011 -0.00409293 -0.00619873 0.00225737 
C 4.72792 7.56683 45.5581 12.011 -0.00764768 -0.00578805 0.00332469 
C 40.8813 38.2251 21.2447 12.011 0.00090916 -0.00603803 -0.00347031 
C 27.4988 3.30456 17.5436 12.011 -0.0083605 0.000159213 0.00103048 
C 22.5841 48.6756 12.3604 12.011 -8.08437e-05 0.00409687 -0.00141162 
C 27.3413 2.64383 22.4208 12.011 0.000848888 0.00434592 0.00451387 
C 0.587966 10.2484 49.2181 12.011 -0.00120526 -0.00386937 -0.00898218 
C 5.15927 40.3345 21.9678 12.011 -0.000138988 0.00729463 -0.0054713 
C 48.3571 31.8272 6.49783 12.011 -0.00854441 -0.0027312 -0.00122285 
C 38.9045 24.3079 49.5568 12.011 -0.00145644 -0.000152628 -0.00484672 
C 37.4948 10.2378 48.7902 12.011 -0.00740316 -0.00341585 -0.0142005 
C 48.8767 11.9962 26.683 12.011 -0.00517272 -0.000924843 -0.00523523 
C 14.7121 47.3791 47.2435 12.011 -0.00306683 0.00773202 0.00493898 
C 30.5143 46.1078 47.545 12.011 0.00596768 -0.00275811 -0.00527982 
C 0.944796 11.602 49.0024 12.011 0.00276578 0.0037658 -0.0036458 
C 36.7618 22.2549 42.7175 12.011 0.00178818 0.00714683 -0.0107549 
C 29.1054 35.6792 15.7687 12.011 -0.000259105 0.00441489 0.000811711 
C 19.331 1.22349 34.2012 12.011 0.00495614 -0.00274719 0.00110607 
C 48.0767 41.7561 44.246 12.011 -0.00256939 0.00148725 0.0032919 
C 39.634 29.1403 21.542 12.011 -0.0100653 0.00131602 0.00386823 
C 23.4267 9.5395 17.7683 12.011 0.00225852 0.00118353 0.00438325 
C 43.3225 0.242392 12.5338 12.011 -0.00183141 -0.00228858 -0.00816764 
C 30.17 17.4709 41.6174 12.011 0.00240001 0.00541383 0.0096953 
C 34.4948 20.712 38.232 12.011 0.00403955 0.00160213 -0.000488831 
C 44.2909 40.1801 39.7395 12.011 -0.00655215 0.00542365 0.00158315 
C 48.8811 9.65049 25.8792 12.011 -0.0013659 -0.00130378 -0.0048898 
C 35.3589 25.1759 16.8521 12.011 -0.000502711 -0.00220881 -0.0055048 
C 25.1805 14.2601 4.12552 12.011 -0.00174699 -0.00610683 0.00524012 
C 15.098 16.2069 10.1701 12.011 -0.00538201 -0.000969644 0.00316933 
C 26.4012 26.9491 9.3201 12.011 -0.000224314 0.00308727 -9.83137e-05 
C 27.0757 10.3363 29.9764 12.011 -0.00273667 -0.00141022 0.00674867 
C 33.0398 36.7034 41.5708 12.011 -0.0020904 0.00273082 0.00198841 
C 6.86267 36.412 21.6462 12.011 -0.00831854 -0.000983657 -0.00177964 
C 0.569465 21.374 23.4712 12.011 -0.000762763 -0.00197815 0.00244919 
C 35.1307 42.9664 24.9941 12.011 0.0019719 -0.00284291 -0.000339278 
C 7.66398 12.8938 22.9491 12.011 -0.00542578 -0.000958537 0.00350844 
C 5.98371 47.7334 31.1055 12.011 0.00033546 0.00122595 0.00292043 
C 44.9552 9.04945 27.3623 12.011 0.0109209 0.00654978 -0.00386254 
C 46.2437 26.0415 38.5177 12.011 -0.00283339 -0.00110481 0.00301117 
C 36.7243 39.7928 17.2878 12.011 -0.00723522 -0.00271267 0.00237234 
C 37.4695 15.4076 37.8955 12.011 0.0107365 0.00923875 0.00105614 
C 9.29264 0.493905 33.6655 12.011 -0.00423317 -0.00105688 -0.0035224 
C 25.5202 19.1451 27.3162 12.011 0.0066015 -0.000754439 -0.000192238 
C 42.6134 17.4076 42.6601 12.011 -0.00260989 0.00318213 -0.000647825 
C 11.3688 5.36823 14.8711 12.011 -0.0143394 0.00745495 -0.000985077 
C 49.1728 47.9827 6.07407 12.011 -0.00218309 0.00250189 -0.00139457 
C 8.93792 35.1029 46.2032 12.011 -0.00994445 -0.0029368 0.00701847 
C 5.52764 38.5222 9.36881 12.011 -0.00111403 0.0059372 0.00292444 
C 38.0053 35.4004 13.2954 12.011 0.00408401 0.000592634 0.00426742 
C 43.4509 43.3976 8.19408 12.011 0.00814762 -0.00055628 0.00640777 
C 47.771 9.92913 44.4019 12.011 0.00218778 -0.00254234 0.00174685 
C 11.48 21.1827 11.1177 12.011 0.00430473 -0.00177105 0.00476777 
C 38.3856 42.9906 28.6446 12.011 -0.00564984 0.000379019 -0.000691584 
C 2.14251 30.9088 47.1666 12.011 -0.00109612 -0.00393368 -0.00808045 
C 17.5643 39.4844 42.3448 12.011 -0.00103879 -0.00340248 -0.000292676 
C 9.87555 25.8458 39.6011 12.011 0.000645618 0.00420825 -0.0101964 
C 14.3693 7.36002 32.8094 12.011 -0.00207208 0.00709266 0.000656669 
C 25.5411 7.95054 22.9273 12.011 -0.00555977 0.000812353 0.00224938 
C 27.6862 50.8001 7.68066 12.011 -0.00570455 -0.00227451 0.00484623 
C 38.9498 20.0475 36.064 12.011 -0.00511607 -0.00682329 -0.00233499 
C 26.7598 24.2858 15.2651 12.011 0.000649018 -0.00315099 -0.0101533 
C 37.4619 33.5462 24.2378 12.011 0.00463422 -0.00355222 0.00563791 
C 48.4899 28.6308 19.599 12.011 0.00287558 0.00486219 -0.000373442 
C 44.2102 3.17856 28.739 12.011 0.00253261 -0.00749962 0.0144761 
C 49.5142 20.1637 15.9653 12.011 -0.00707235 -0.00549861 0.000728115 
C 27.8634 44.9072 21.1974 12.011 0.00363737 -0.00953869 -0.000282201 
C 23.0607 21.0328 42.715 12.011 0.000659752 0.00194049 0.00310821 
C 7.35948 7.48673 20.5344 12.011 -0.00495916 -0.0055794 0.00391515 
C 36.4583 0.934221 24.72 12.011 -0.00610813 0.00323596 0.000678484 
C 18.8648 10.6829 16.0309 12.011 -0.00139946 -0.00481193 -0.00294689 
C 26.7843 33.3315 17.3439 12.011 -0.00572295 -0.00233864 -0.00463461 
C 39.3794 10.0782 3.32448 12.011 0.00954658 -0.00317694 0.000844924 
C 49.5051 44.8506 21.8299 12.011 -0.00478908 -0.0025657 0.00591179 
C 44.8038 41.6574 16.3296 12.011 0.00413242 -0.00438417 -0.00617473 
C 41.6301 1.83628 18.0145 12.011 -0.00384544 0.00420334 -0.00144341 
C 17.5403 23.1751 5.60759 12.011 0.0018755 -0.00125685 -0.00247065 
C 11.6245 24.7139 21.1623 12.011 -0.00435654 -0.000295 0.002956 
C 36.042 13.5264 10.9779 12.011 -0.00268358 0.00297264 -0.00257789 
C 49.1389 1.41732 0.35878 12.011 -0.00599361 -0.00146629 -0.00649189 
C 21.1988 37.4563 42.2747 12.011 0.00247331 0.000216976 -0.000865061 
C 0.113732 19.0468 23.0228 12.011 -0.00351539 0.00318492 -0.000703645 
C 25.9968 41.818 26.2257 12.011 0.00466934 -0.00119095 -0.000617893 
C 18.4208 3.49508 3.21212 12.011 -0.00104147 0.00496103 -0.00248235 
C 48.7738 34.4922 31.2979 12.011 -0.0010185 -0.000186052 -0.00119952 
C 36.9501 33.4864 20.5366 12.011 -0.00537557 -0.000915252 -0.00584949 
C 37.885 15.5488 3.04549 12.011 -0.00458064 0.00495398 0.00172822 
C 22.0904 7.14162 9.80619 12.011 0.00856798 0.0033129 -0.00100304 
C 19.4998 22.1889 50.957 12.011 -0.00254327 -0.00520909 0.0072825 
C 14.5527 42.4909 47.1094 12.011 0.00459352 0.00639638 -0.00236886 
C 25.4446 42.607 0.131754 12.011 -0.00162656 0.000482697 0.00385163 
C 34.5882 18.1442 39.314 12.011 0.000824057 -0.00264241 0.00232698 
C 11.749 45.1041 34.6954 12.011 -0.00792764 0.00370755 0.00196386 
C 10.1278 47.0914 26.0592 12.011 -0.000779995 0.00392087 -0.00787087 
C 11.9954 42.5463 37.4505 12.011 -0.00562617 0.00804915 0.00217689 
C 14.9405 20.2633 7.75773 12.011 0.00376673 0.00103006 0.00145089 
C 4.27872 9.71423 36.8654 12.011 -0.0060097 -0.0099676 0.000524195 
C 12.1557 12.2775 25.855 12.011 0.00117368 -0.00533879 -0.00622855 
C 8.63459 19.4331 34.0728 12.011 -0.000561639 0.00174167 -0.00304083 
C 44.5249 22.8225 15.8005 12.011 0.00386517 0.000482286 -0.000864365 
C 0.342684 6.89664 24.5209 12.011 -0.00201915 0.00670543 0.00211292 
C 15.0232 27.5381 39.1968 12.011 -0.00717224 -0.000871653 -0.0029175 
C 30.3801 8.37959 39.3933 12.011 -0.00667836 -0.00160259 0.00340969 
C 31.6302 9.41261 17.9755 12.011 -0.00685716 -0.00143225 0.00416165 
C 11.9119 32.8747 40.5128 12.011 0.00700628 0.00595386 0.0013209 
C 50.7377 3.83649 15.4807 12.011 -0.00682817 0.00224456 0.000853665 
C 32.6916 17.5667 18.3076 12.011 0.00296106 0.00246949 -0.00435098 
C 4.03869 35.6877 24.0951 12.011 0.00571445 -0.00707705 -0.000975716 
C 32.8658 1.12492 33.6834 12.011 -0.00141814 -0.00238345 0.00189195 
C 5.48949 40.9108 38.3245 12.011 -0.00169399 0.000649874 0.00214199 
C 22.7904 40.6984 30.9427 12.011 0.00125178 -0.000786504 0.00108821 
C 24.453 7.60602 43.4631 12.011 0.00800453 -0.000703502 0.00435732 
C 17.1578 42.4963 50.1399 12.011 -0.00327101 0.00668188 -0.00176 
C 35.2108 38.8875 44.3923 12.011 -0.00131262 0.00102663 0.00949301 
C 24.7357 19.5087 22.9648 12.011 -0.00082066 0.000992158 -0.0106448 
C 35.1406 27.8177 10.5712 12.011 -0.000306976 -0.00422681 0.00156965 
C 36.5104 6.56019 34.5119 12.011 0.00151715 -0.00580676 0.00604774 
C 25.4242 30.6958 42.0814 12.011 0.00573531 -0.00325405 -0.00345181 
C 43.071 25.8033 21.4394 12.011 0.00384791 -0.00891033 -0.00709984 
C 13.1565 12.8737 47.7013 12.011 0.000945885 -0.00617347 0.00291569 
C 45.0545 42.5217 39.9106 12.011 -0.00260013 -0.00406469 -0.00158968 
C 1.18918 37.6484 8.80116 12.011 -0.0029015 -0.00482265 -0.00375411 
C 14.4812 46.8039 44.8099 12.011 0.00639785 7.84501e-05 -0.0051754 
C 36.187 31.4449 23.8636 12.011 0.00428291 0.00102842 -0.0112326 
C 17.8578 33.832 15.3009 12.011 0.00253504 0.00721166 0.00127881 
C 10.1298 16.8639 6.11437 12.011 0.00213007 -0.00595232 0.00491009 
C 5.04821 20.7092 35.6665 12.011 -0.00268803 -0.000546547 -0.000858197 
C 50.6236 36.2699 50.0338 12.011 -0.00317533 0.00693877 0.00234698 
C 17.6149 21.395 17.5162 12.011 -0.00124801 0.00179363 -0.0129174 
C 9.02516 39.7056 40.3919 12.011 0.00712023 0.00102455 0.00220906 
C 13.2267 9.24682 35.6107 12.011 0.00212233 0.00237284 -0.000473033 
C 10.194 42.8403 33.6658 12.011 0.000546903 -0.000362995 -0.0038602 
C 47.1087 18.1286 18.5615 12.011 0.00101898 0.0030619 -0.00297563 
C 4.42222 19.2933 17.3627 12.011 0.011152 0.000824177 0.000931072 
C 50.1196 49.869 7.25295 12.011 0.000473053 -0.000419518 -0.00447679 
C 1.98309 19.7199 1.76327 12.011 0.0024128 0.00556377 0.00182902 
C 41.9661 31.5169 0.417368 12.011 -0.004205 -0.0082196 -0.00188881 
C 2.16037 17.8031 36.2951 12.011 0.00153572 0.00104857 0.00495533 
C 21.6843 0.54981 14.5687 12.011 -0.000580443 -0.00259133 0.00204477 
C 38.6287 17.2536 18.5939 12.011 0.00449025 0.00255801 1.63722e-05 
C 29.3063 23.1384 20.3948 12.011 -0.00188002 -0.00256896 -0.00875723 
C 42.2291 6.41374 20.2473 12.011 0.000726837 0.00434799 -0.00246827 
C 37.3542 48.419 13.7446 12.011 0.00640889 0.00605397 0.00458249 
C 41.1635 11.6863 27.889 12.011 -0.00260805 -0.00303825 0.00544972 
C 37.1934 49.4748 14.697 12.011 -0.00254703 0.00216649 -0.000518778 
C 33.7308 29.3293 20.4053 12.011 0.0012627 0.000807882 0.00663574 
C 49.6206 31.074 6.33877 12.011 -0.00587855 -0.00490735 0.00171086 
C 0.23207 50.8653 27.481 12.011 0.00505302 -0.0039796 -0.00601196 
C 16.2989 1.47483 49.1169 12.011 -0.000733763 0.00304335 -0.000838499 
C 29.7091 21.6237 1.32979 12.011 0.00350334 -0.00188463 0.00807535 
C 48.8013 27.6884 18.6209 12.011 0.00552302 -0.00343345 -0.00959412 
C 45.9642 6.7389 43.1107 12.011 -0.0046017 -0.000469731 -0.00496392 
C 13.8899 29.3763 31.1316 12.011 -0.00655547 0.00223166 0.00915784 
C 42.5112 45.8003 13.2205 12.011 -0.00358835 -0.00646233 0.00508356 
C 43.7078 0.259746 32.5485 12.011 -0.0032864 0.000488017 -0.000222402 
C 17.2539 38.7708 37.3634 12.011 -0.000536523 0.00923321 -0.000453609 
C 5.53919 34.2271 22.7593 12.011 0.00436331 -0.00294018 0.00285 
C 25.7902 49.0784 14.3013 12.011 -0.00341502 0.00389939 0.00115904 
C 2.98383 35.6328 6.29215 12.011 0.0116472 -0.00889528 -0.00265983 
C 24.0762 49.5667 20.283 12.011 0.000175336 0.00238304 0.000343123 
C 24.2719 18.6959 27.2853 12.011 -0.000734705 0.0111158 0.00401437 
C 9.50894 38.737 14.3632 12.011 0.000953168 0.00726499 -0.000439567 
C 30.8785 45.123 23.3417 12.011 0.000123184 -0.00470217 0.00597799 
C 10.1159 35.6343 18.6401 12.011 0.00661352 0.00355427 7.21078e-05 
C 21.7223 5.16877 29.5732 12.011 -0.0043838 0.000694427 -0.00318669 
C 50.9088 44.865 21.741 12.011 0.00108057 -0.00530171 -0.0102988 
C 42.7143 24.487 19.3814 12.011 0.000447923 -0.00114164 0.00559654 
C 1.01071 16.3949 49.7737 12.011 -0.00040072 -0.011151 -0.00396552 
C 46.7564 22.4522 12.7209 12.011 0.00385944 -0.00187294 -0.000299369 
C 48.6811 43.4104 30.1297 12.011 -0.00350746 -0.000188818 0.00650175 
C 48.973 1.80636 6.78756 12.011 0.0052199 -0.000275449 0.00486505 
C 35.9314 5.28506 42.4928 12.011 0.0102049 0.00359003 -0.00384038 
C 39.2826 48.0914 34.0238 12.011 0.000523766 0.0110788 0.00255766 
C 0.662639 17.5856 12.0098 12.011 -0.00273971 0.0039323 0.0072524 
C 4.35312 12.483 5.12914 12.011 0.00183719 0.00615361 -0.00372437 
C 25.9345 34.9357 2.98794 12.011 -0.00275565 -0.00246174 0.00107261 
C 48.7544 39.2896 43.553 12.011 0.00246417 0.0044118 -0.00191579 
C 15.0455 17.5195 28.2778 12.011 -0.00905272 -0.00549666 0.000164848 
C 20.4779 1.08078 23.74 12.011 0.000106938 -0.00492132 6.49045e-05 
C 41.8208 2.13463 27.0352 12.011 -0.00864007 0.00614777 0.000301139 
C 5.47067 36.8629 12.3754 12.011 -0.000962064 0.00774846 -0.00633252 
C 46.3884 20.0749 40.5147 12.011 0.0032401 -0.00561869 0.00476091 
C 1.09804 24.1811 10.3996 12.011 0.0042158 0.0050878 0.00406233 
C 2.89778 39.4684 25.8084 12.011 -0.00187773 -0.00321054 0.00121666 
C 20.0762 40.5915 34.9781 12.011 0.00156819 0.000360043 0.00449813 
C 38.2802 25.241 5.70586 12.011 0.00455882 0.00540797 -0.00667482 
C 35.5396 5.31757 37.2208 12.011 -0.00289749 -0.00369335 -0.00508386 
C 33.2705 31.0125 29.5044 12.011 0.000615277 5.65214e-05 -0.00564911 
C 14.7102 5.5704 13.6917 12.011 -0.00310148 -0.0022632 0.00746447 
C 48.9601 17.0025 2.67649 12.011 -0.000513822 -0.00685218 -0.00514124 
C 15.0652 32.1242 21.1028 12.011 0.0046622 0.00615282 -0.00334346 
C 22.0212 20.4588 11.1218 12.011 0.00605397 0.00205267 0.005316 
C 34.3931 10.6231 0.716994 12.011 0.000104762 0.00420364 0.00351559 
C 45.6783 39.6515 14.9788 12.011 -0.00573757 -0.00178075 -0.00386751 
C 41.4877 24.3552 39.7713 12.011 -0.00360341 -0.00351085 0.00780137 
C 24.1255 2.76439 47.3949 12.011 0.00507398 -0.00141456 -0.00695539 
C 21.7972 7.15187 26.8062 12.011 -0.000284091 0.00549107 -0.000456245 
C 46.3545 29.8519 2.03808 12.011 -0.00653185 0.00741053 0.00171345 
C 12.2085 34.1327 18.4694 12.011 -0.000778849 -0.00573498 -0.00290566 
C 18.5536 33.9657 0.379847 12.011 0.00169105 0.00407963 -0.00529053 
C 48.5302 6.23761 17.31 12.011 -0.000694138 -0.0063469 0.00220539 
C 42.4308 32.8332 50.9814 12.011 0.00108821 -0.00305381 0.00347762 
C 44.541 17.8713 8.60705 12.011 0.00274319 -0.000494313 0.00284302 
C 26.7802 33.1721 42.5952 12.011 0.000894178 0.00551219 -0.000215541 
C 50.681 39.8831 39.0027 12.011 0.00232362 0.00819608 0.00464888 
C 50.449 6.1408 41.1619 12.011 0.00179475 -0.000296288 0.00117394 
C 39.0723 2.37286 2.69889 12.011 0.00424724 -0.00365663 -0.000864063 
C 22.672 0.683858 42.2792 12.011 0.00260404 0.00194811 -0.00347905 
C 38.6192 6.11992 27.2766 12.011 -0.00637296 0.00327917 -0.00341309 
C 34.8712 45.9607 8.66155 12.011 0.00234251 0.00460926 -0.00238437 
C 1.90175 5.02602 12.6733 12.011 -0.00205462 0.00263432 -0.0113952 
C 35.2889 32.8731 28.6919 12.011 0.00442806 -0.00405422 0.0106041 
C 25.4376 40.6723 35.2557 12.011 0.00642923 -0.00103419 -0.00194865 
C 18.9281 5.1937 16.3964 12.011 -0.0042946 -0.00460746 0.00361231 
C 31.3334 11.3999 43.6683 12.011 0.00318415 0.00228127 0.00938669 
C 16.2108 48.9536 49.2457 12.011 0.00564332 -0.00256824 0.00304381 
C 0.749727 0.873566 25.3782 12.011 0.0011907 0.00557195 0.00572446 
C 1.11267 31.5905 49.3284 12.011 -0.00569154 -0.000738083 -0.0047643 
C 43.7858 39.7675 44.358 12.011 0.00640774 -0.00096347 -0.000173753 
C 38.3999 35.7076 35.8694 12.011 0.000359887 -0.0043485 -0.00351049 
C 30.0204 47.8287 23.2665 12.011 -0.00203245 0.00158379 0.00470666 
C 2.72924 32.0397 24.1481 12.011 0.00561498 -0.00176698 0.00119177 
C 12.5763 9.34279 16.8595 12.011 -0.00513732 -0.000241254 -0.00566659 
C 26.9537 39.7713 33.5957 12.011 -0.00377425 -0.00668847 0.00925802 
C 2.26693 28.9025 5.4907 12.011 0.00289542 -0.00132842 -0.00327432 
C 17.6333 28.9959 47.7633 12.011 0.00362028 0.00201528 0.00568085 
C 13.705 46.3098 43.7337 12.011 0.000948723 -0.00432668 -0.00313612 
C 45.9914 12.8238 40.8926 12.011 -0.00254309 0.000606469 -0.000644971 
C 37.1658 8.15676 4.39658 12.011 -0.00506196 0.00578661 0.00166596 
C 26.2295 10.0215 6.44106 12.011 0.001515 -0.00686795 -0.00103111 
C 18.487 13.5045 12.0037 12.011 -0.000400168 -0.000458883 0.00947786 
C 7.52228 40.1396 49.3722 12.011 -0.00150071 0.00444113 -0.000253059 
C 35.6261 22.2006 44.934 12.011 0.00128421 -0.000548851 -0.00141857 
C 44.1456 16.4714 6.50084 12.011 0.00296508 -0.00304112 0.00275588 
C 50.8521 18.4393 2.8906 12.011 -0.00498433 -0.00208412 -0.00422003 
C 29.3795 29.2052 12.7507 12.011 0.00291799 -0.000525395 -0.00232801 
C 1.86878 43.317 11.4468 12.011 0.000172906 0.0061364 0.00417294 
C 4.84061 8.84467 24.683 12.011 -0.000630512 0.00787273 0.00452764 
C 18.3959 11.1059 2.36528 12.011 -0.000388208 0.00197761 -0.00618434 
C 16.3207 50.5093 18.92 12.011 -0.0034896 0.00359564 0.00478186 
C 49.4697 17.5052 44.6504 12.011 0.00416577 0.00471862 9.10214e-05 
C 13.0617 33.7274 40.4797 12.011 0.00633952 0.00148239 -0.00977445 
C 9.02975 26.3301 8.76675 12.011 0.0025457 0.000650886 0.00058134 
C 46.975 16.5253 28.4514 12.011 0.00350284 -0.000408384 0.00226257 
C 38.4935 1.4471 29.3107 12.011 0.00501459 -0.00374577 -0.0058163 
C 50.4852 42.8084 11.5958 12.011 -0.00606915 -0.00325126 -0.000603597 
C 41.9494 10.6058 46.391 12.011 -0.00410298 -0.00113791 0.00779428 
C 21.4344 25.7845 40.4554 12.011 -0.00498965 -0.00631736 0.00920649 
C 45.7742 45.6495 4.81925 12.011 0.000421047 0.0152511 -0.00289427 
C 44.2398 25.974 6.92348 12.011 -0.000272173 -0.0021826 -0.000866403 
C 2.34508 18.0515 42.6126 12.011 -0.00396129 0.00318966 -0.0016178 
C 42.5818 30.3027 37.3686 12.011 -0.00198227 -0.00345103 0.00647281 
C 25.659 12.8558 13.0824 12.011 0.00408157 0.00330082 0.00463264 
C 9.26954 37.0447 0.688563 12.011 0.000312749 0.00403837 -0.0108666 
C 50.396 42.5907 31.6433 12.011 -0.00379123 -0.0029111 -0.00829591 
C 47.0351 39.2117 14.9639 12.011 0.00400948 -0.000741246 -0.00409168 
C 10.7454 42.883 5.27568 12.011 0.00629838 -0.0013511 -0.00267697 
C 39.2022 44.7867 27.1207 12.011 0.00383656 0.00476341 -0.00271666 
C 0.41306 13.7181 40.2707 12.011 -0.00350893 -0.00279213 -0.00723688 
C 43.9699 38.1458 13.8021 12.011 -0.00159957 0.00178293 -0.000318549 
C 5.80459 5.52885 44.9935 12.011 -0.00922516 -0.00314162 0.0021938 
C 9.31202 50.034 5.31017 12.011 0.00285551 -0.00381729 -0.00377155 
C 10.0891 16.8938 29.71 12.011 -0.00253752 0.00581035 0.00844871 
C 41.5751 26.3139 50.784 12.011 -0.00043118 -0.00727556 0.00245151 
C 43.0643 16.8479 17.1879 12.011 0.00184875 0.00350017 0.00262038 
C 28.4948 28.0956 12.7878 12.011 -0.0014179 0.0027275 -0.000714954 
C 38.8792 7.50227 2.78518 12.011 0.00144885 0.00470329 0.00743499 
C 24.1058 30.7666 36.8822 12.011 0.00214359 -0.00260637 0.00581884 
C 27.5771 8.66874 41.8136 12.011 0.000883462 -0.000699913 -0.00848287 
C 7.08911 42.2409 45.8822 12.011 0.00507875 -0.00108675 -0.00200195 
C 7.47777 26.6419 13.1827 12.011 0.00471748 -0.00371563 -0.000378748 
C 32.7097 15.4034 34.14 12.011 0.000179722 5.5824e-05 0.00317862 
C 37.2231 24.4292 41.5002 12.011 0.00284737 -0.00204461 0.00096668 
C 35.0737 40.476 50.2894 12.011 -0.0013737 -0.00115625 -0.00271802 
C 35.4708 36.4949 44.9353 12.011 0.00388675 0.00224163 -0.00187393 
C 39.3011 12.7999 29.2125 12.011 0.00011264 -0.000581923 -0.0079488 
C 34.0648 38.4452 4.91182 12.011 0.000759116 0.00423105 -0.00217259 
C 25.4909 30.9416 36.9395 12.011 0.00108426 -0.00573371 0.00268006 
C 39.1946 44.2001 3.89046 12.011 0.00485782 -0.00157183 0.00359931 
C 33.0077 29.7368 43.8595 12.011 0.000317531 -0.00316255 -0.00378006 
C 2.84819 2.92691 9.78506 12.011 0.00671897 0.00442233 -0.00199996 
C 7.11862 17.6808 36.5757 12.011 -0.0023211 0.000585811 2.02114e-05 
C 7.6396 1.08873 32.0343 12.011 -0.00417732 0.00604588 -0.000373339 
C 46.6855 42.7759 12.2417 12.011 -0.0145179 0.00483632 0.00870835 
C 7.54231 48.4928 41.733 12.011 0.00297636 0.00298501 0.000197638 
C 6.81163 36.6297 40.8935 12.011 -0.00387835 -0.00848884 0.010629 
C 50.4322 41.4396 28.1815 12.011 -0.00562188 0.0046959 0.00422288 
C 44.3545 19.6963 11.9119 12.011 0.00124718 -0.000777894 0.00263384 
C 2.96139 50.0865 40.0569 12.011 -0.00474325 -0.00657999 -0.00390356 
C 15.4248 7.13415 4.53965 12.011 0.00037737 -0.00573972 -0.00449457 
C 38.6049 8.68819 37.27 12.011 -0.00278937 -0.00248886 0.00375059 
C 4.14423 9.28377 12.0113 12.011 -0.00138643 -0.000294944 -0.00489054 
C 42.5503 37.6757 13.8774 12.011 -0.00381729 -0.000591876 0.00301608 
C 24.3427 1.29227 47.3899 12.011 0.000202417 -0.00500438 -0.00812369 
C 2.50699 27.0314 29.3867 12.011 0.00551119 -0.000925379 0.0106172 
C 10.8062 41.4965 35.6669 12.011 0.00225142 -0.00808498 -0.0013583 
C 5.19906 37.73 13.4605 12.011 0.000657415 0.002859 -0.00777748 
C 40.1714 18.5658 27.6609 12.011 -0.00950917 0.00148027 0.00498107 
C 48.0765 42.2982 11.9788 12.011 2.80164e-05 0.00674177 0.00418986 
C 32.5212 46.4251 31.4771 12.011 -0.000976415 -0.000592754 0.00748745 
C 21.7739 10.522 21.2701 12.011 -0.00191225 0.00285659 0.00370581 
C 27.6014 26.0318 37.1652 12.011 -0.00373322 0.00247436 0.000478583 
C 45.8069 43.3444 34.9924 12.011 -0.00209836 -0.00741205 -0.00113377 
C 21.5024 9.36701 10.9009 12.011 -0.00223797 0.00600886 0.000657075 
C 43.2591 24.3522 33.5933 12.011 0.00293677 -0.00383093 0.00207973 
C 6.42484 15.6418 47.5981 12.011 0.00326333 -0.00527912 -0.000578778 
C 47.3327 45.6467 45.8018 12.011 0.000599472 -0.0029897 -0.0127078 
C 23.3578 22.3013 42.3789 12.011 0.0078588 0.00291557 -0.00555876 
C 49.7593 39.1891 10.9682 12.011 0.00744814 0.00205139 0.00366875 
C 27.2054 9.97777 28.5767 12.011 0.00207337 0.00264307 1.7603e-05 
C 24.7329 3.51123 48.5852 12.011 -0.00377796 -0.00367192 -0.000923397 
C 13.0005 26.8781 17.6122 12.011 0.00114406 0.000324483 -0.00129761 
C 30.0826 44.9519 12.0093 12.011 0.000393636 -0.00137591 0.00220732 
C 1.57285 29.8935 31.1744 12.011 -0.0120023 -0.000997065 0.00601622 
C 45.9572 12.0004 35.5344 12.011 0.00056732 0.00265284 -0.00182899 
C 41.0905 24.2128 50.2821 12.011 1.15572e-05 -0.00688442 0.00441172 
C 2.87108 41.5673 24.7957 12.011 -0.00412245 -0.000338779 0.00385933 
C 15.8449 31.0691 21.653 12.011 -0.00891647 -0.00185567 -0.000848637 
C 8.78231 31.3239 33.9359 12.011 -0.00402078 -0.00263616 -0.00103385 
C 33.5567 41.6556 42.5001 12.011 -0.00424512 0.00192606 0.0025876 
C 43.0414 28.0353 38.2314 12.011 -0.00492691 -0.00358137 0.00715369 
C 13.1157 42.4429 47.0688 12.011 -0.00115958 -0.00232319 0.00181473 
C 29.8931 17.343 35.7307 12.011 -0.00277978 0.00426462 0.00411285 
C 27.772 27.6828 11.6018 12.011 0.00519296 -0.00580647 0.000978244 
C 28.4286 13.7944 5.73366 12.011 -0.00141898 -0.00782696 0.00330483 
C 2.69202 40.0215 48.7148 12.011 -0.00175725 0.00347045 -0.00126254 
C 29.8216 13.9374 5.34745 12.011 0.00117603 0.00364347 0.00237863 
C 14.1974 32.4864 33.9679 12.011 0.00410163 -0.00123269 0.00526664 
C 45.8768 26.535 25.1048 12.011 0.00543949 -0.000461392 0.00069899 
C 38.5719 10.3505 4.47013 12.011 0.0067153 -0.00724194 0.00279226 
C 39.5049 39.1034 40.1408 12.011 0.00626646 -0.00100749 0.00668198 
C 13.505 19.1069 41.6246 12.011 0.00222524 -0.00384156 -0.0110158 
C 35.7703 45.9097 9.85521 12.011 0.00147108 -0.0101977 0.00534794 
C 9.61192 38.8102 6.23844 12.011 0.0015846 0.00945329 -0.000776446 
C 47.3783 47.2759 30.8034 12.011 -0.00788792 -0.00465158 0.0033938 
C 27.5261 48.3909 50.3106 12.011 0.002381 0.00153043 -0.00374635 
C 29.639 2.93791 38.2516 12.011 0.00386129 -0.00758835 0.00159618 
C 30.6174 8.82043 37.9396 12.011 0.0069368 -0.00535155 -0.00237711 
C 35.818 48.1222 43.734 12.011 -0.000941044 -0.00669245 -0.00345729 
C 13.1493 14.5815 45.8548 12.011 -0.00356308 0.00385363 0.0090795 
C 23.8644 20.2675 43.5792 12.011 0.00197459 0.000836948 -0.00287096 
C 13.1126 5.51188 28.4367 12.011 -0.00469928 0.00156481 -0.00250234 
C 7.66286 12.3665 2.0265 12.011 -0.00181606 -0.00306887 0.00849929 
C 2.7545 41.1224 15.0972 12.011 0.000379746 0.000548057 -0.00444298 
C 3.6208 18.8911 13.6364 12.011 -0.0036009 -0.007797 -0.00289993 
C 4.47322 26.5649 31.4036 12.011 -0.00573241 0.00197091 0.0030019 
C 32.8887 24.7172 23.6641 12.011 0.00283764 -0.0009479 0.00149443 
C 31.1869 29.5661 50.3708 12.011 -0.000472841 0.0024759 -0.00881291 
C 32.852 5.7411 15.6067 12.011 -0.00368195 -0.00241352 0.00973674 
C 15.0204 2.66364 47.5454 12.011 0.00292902 -0.0090282 -0.00445915 
C 30.9146 33.1631 42.8587 12.011 0.00132599 -0.00826885 0.00279778 
C 11.9198 17.3271 17.1437 12.011 -0.00550229 0.00312881 -0.00537758 
C 31.3593 24.0992 3.62467 12.011 0.00428962 -0.00302338 0.00746755 
C 13.1161 5.72501 43.6614 12.011 0.00175871 -0.00421588 -0.00705686 
C 33.9139 18.3061 18.6862 12.011 0.000197154 -0.00434421 -0.00432796 
C 32.1163 46.3583 49.3228 12.011 0.000157395 0.00469375 -0.00347221 
C 49.6266 2.12545 4.29525 12.011 0.00558348 -0.00276004 -0.00375887 
C 35.7008 13.8068 7.19501 12.011 0.000844428 -0.00398938 -0.00226709 
C 44.2137 31.3871 35.9461 12.011 -0.000614829 -0.00622274 0.00119731 
C 27.6693 26.1514 14.0272 12.011 -0.00588326 0.00326534 0.00271861 
C 19.4398 16.1605 44.9736 12.011 0.00334063 0.0106829 0.00211917 
C 12.7163 35.1019 6.34485 12.011 -0.00936499 0.0013858 0.00400671 
C 13.7079 44.8744 6.7799 12.011 0.00376466 0.0121699 0.00362977 
C 8.81692 35.7542 0.877244 12.011 -0.00456944 -0.0117594 0.00840866 
C 13.3009 21.3038 40.4445 12.011 0.00389883 -0.00122281 -0.00271152 
C 17.6525 50.6926 14.9868 12.011 0.00318311 -0.00418385 -0.000969717 
C 21.2485 7.44443 29.0661 12.011 -0.000845781 0.006428 0.00451176 
C 32.8808 20.148 15.7784 12.011 -0.00187968 -0.00775718 -0.00382091 
C 49.4154 23.268 17.9558 12.011 0.00148238 -0.00137925 0.00746659 
C 38.5457 15.8345 37.0454 12.011 0.0110773 0.00557061 0.000956773 
C 3.7486 37.0046 24.6595 12.011 -0.00462923 -0.0037205 -0.00764543 
C 27.8766 19.7423 26.8268 12.011 -0.00115117 -0.00508329 -0.00044741 
C 29.5961 46.9171 48.2867 12.011 -0.00216971 -0.00584972 -0.00327617 
C 30.9011 48.7383 7.93796 12.011 0.00577943 -0.00347159 0.0050913 
C 15.7146 18.2181 42.2436 12.011 -0.00412767 -0.00242042 0.00545865 
C 12.266 46.6359 6.97026 12.011 0.00133955 0.00518708 -0.0069697 
C 40.5926 36.507 13.0135 12.011 0.00212192 0.00498232 -0.00279456 
C 1.77267 33.2466 47.5741 12.011 -0.00529869 -0.00256368 -0.00416611 
C 20.6482 9.24831 44.1692 12.011 -0.00102942 0.00446051 0.00262434 
C 43.5973 50.2058 33.567 12.011 0.013022 -0.000287533 0.00377694 
C 2.13584 22.2152 43.0603 12.011 -0.008942 0.00192151 -0.00153072 
C 37.6428 32.2067 36.1643 12.011 0.000575951 -0.00101578 0.00609851 
C 24.7445 6.31995 44.0298 12.011 0.000727308 0.00160376 -0.00397479 
C 26.0484 37.6342 31.304 12.011 0.00123153 0.00172081 0.00646045 
C 48.7131 45.0132 20.6563 12.011 -0.000598786 -0.0049818 0.00454124 
C 10.2259 49.6023 6.32382 12.011 -0.000766687 0.000383665 -0.00207025 
C 46.1187 8.15643 11.6759 12.011 0.00529276 0.00298314 0.00864163 
C 13.4413 31.6071 31.9048 12.011 0.00341169 0.00176059 -0.000492234 
C 24.7494 47.1906 1.50906 12.011 0.000786762 -0.006807 -0.00294548 
C 33.6862 50.6557 13.8909 12.011 0.00479493 0.0087207 0.00148065 
C 34.2851 43.2371 36.0871 12.011 5.44402e-05 -0.00326523 -0.0017156 
C 35.8271 30.787 36.3892 12.011 -0.00219875 0.00284607 -0.000758188 
C 30.2984 6.53409 38.0718 12.011 -0.00170182 0.00197466 -0.00416603 
C 48.1787 27.559 6.42072 12.011 -0.00311326 0.00047365 -0.00454472 
C 22.3294 8.20718 21.2087 12.011 -0.00349243 -0.00367286 0.00285469 
C 27.9104 7.38611 11.6821 12.011 0.00792296 -0.00418461 0.00243767 
C 28.6368 24.6742 47.8472 12.011 -0.00236503 0.00679418 -0.00641636 
C 18.3037 34.5504 14.1485 12.011 -0.00674679 0.00919656 -0.000280037 
C 3.11491 43.7588 34.9779 12.011 -0.00179636 -0.0064786 -0.000200323 
C 5.66514 17.3129 17.5313 12.011 -0.000875104 -0.00228396 0.000817528 
C 49.4547 38.3664 48.6551 12.011 -0.00367615 -0.00158404 0.000156192 
C 5.75904 18.0971 47.2308 12.011 -0.00179144 -0.00573 -0.0013875 
C 17.8711 35.5495 40.7424 12.011 -0.00696032 0.00312641 0.00430123 
C 48.8651 25.3713 5.62539 12.011 0.00322245 0.00313443 -0.000608088 
C 41.0209 46.351 28.0881 12.011 0.000322209 -0.00273157 -0.00367917 
C 2.28137 42.6923 24.1825 12.011 -0.00379936 -0.0015856 0.00215643 
C 20.0928 32.2402 48.9036 12.011 -0.00724218 0.00517916 0.0033041 
C 18.0581 4.89222 3.07184 12.011 0.00188547 0.00535332 0.0048364 
C 2.20572 1.13013 40.9028 12.011 0.00484755 -0.00608667 -0.00687404 
C 1.11393 16.6749 10.9389 12.011 -0.00860414 0.0109464 -0.000186132 
C 24.2061 13.6453 40.4645 12.011 0.000465675 -0.00114776 -0.000338456 
C 1.15609 20.3491 5.89123 12.011 0.000688825 0.000324079 0.0061038 
C 47.1102 26.582 31.6389 12.011 -0.000844136 0.00296794 0.00358942 
C 46.6889 15.6526 19.9001 12.011 0.00411891 -0.00180025 0.00304868 
C 33.7141 15.5722 33.0834 12.011 0.0048669 -0.00378972 -0.00103734 
C 46.3346 1.96889 28.5998 12.011 0.00223339 0.00148093 0.0012478 
C 22.4195 6.03299 44.8871 12.011 -0.000852663 -0.0108297 0.00297305 
C 15.5408 46.0501 23.2789 12.011 -0.000124332 -0.00191362 -4.30197e-05 
C 16.3194 3.50133 45.3427 12.011 -0.0129985 -0.00209438 0.00444803 
C 41.6357 3.57262 14.7206 12.011 -0.00232382 0.00353943 -0.00223819 
C 23.1513 47.8937 3.18366 12.011 -0.00223099 -0.0034948 0.00213637 
C 11.794 17.4802 19.3893 12.011 0.000933813 0.00316267 0.00396685 
C 36.6183 49.2131 24.0703 12.011 0.00505667 -0.00135443 0.00325527 
C 5.45247 38.5836 39.8979 12.011 0.00120259 -0.00280021 -0.00163182 
C 4.67269 30.4132 10.1636 12.011 -4.27726e-05 0.00122968 -0.00208108 
C 45.2103 43.8328 45.524 12.011 0.00477244 0.00417522 0.00415172 
C 31.8261 48.0819 7.0268 12.011 0.00337372 -0.00176908 0.000945578 
C 39.9365 49.5084 8.95028 12.011 0.00108365 0.00156677 -0.00696675 
C 49.7205 14.3178 48.6134 12.011 0.00199245 0.00792125 -0.000403816 
C 23.1367 8.13358 43.7702 12.011 0.0037487 -0.00563016 0.000900535 
C 7.77276 11.3794 28.0369 12.011 0.000114127 0.00605416 -0.00348648 
C 13.4797 34.6861 34.7607 12.011 0.000280576 -0.00266807 0.000874417 
C 10.1188 46.4855 46.5822 12.011 0.00458383 0.00488838 0.000517854 
C 10.1199 40.8969 13.0347 12.011 -0.00291952 -0.00167655 -0.000839334 
C 24.8835 2.75049 49.8921 12.011 0.00545598 0.00102902 0.00567098 
C 21.4042 41.7729 47.0484 12.011 -0.00721762 0.00280921 0.00196194 
C 28.1924 9.08672 28.1934 12.011 -0.000833101 -0.000860309 0.00311727 
C 30.3115 8.89866 31.2744 12.011 0.00241588 -0.00673799 -0.00519683 
C 8.07339 19.4751 25.8759 12.011 0.00174761 -0.0046059 -0.00545872 
C 0.535147 43.7381 11.6933 12.011 -0.000926061 0.00657029 -0.00632824 
C 2.93717 7.19128 12.2939 12.011 -0.00183948 -0.00354848 0.0036669 
C 32.6964 24.1427 3.18266 12.011 -4.29497e-05 0.000739404 -0.000114939 
C 50.4518 11.4904 21.2811 12.011 0.0021014 0.00234423 -0.000484118 
C 7.6699 12.3741 43.3037 12.011 0.00103965 -0.00224794 0.00179609 
C 44.7956 33.6561 27.416 12.011 -0.00286963 -0.00850426 -0.00114336 
C 32.1987 22.0008 26.2455 12.011 0.00156461 0.00588158 -0.00038832 
C 13.4293 33.9777 21.7235 12.011 -0.00931749 0.00193379 0.00134088 
C 29.1308 8.44819 10.0735 12.011 0.00603552 0.00344085 0.0070972 
C 16.7893 0.623331 35.286 12.011 -0.00869692 0.0030197 0.00339366 
C 23.1099 40.4698 45.7084 12.011 0.00413114 0.000884071 -0.000455684 
C 15.8992 10.8788 41.3016 12.011 0.00586445 0.00203043 -0.0126728 
C 46.4723 32.2275 17.8966 12.011 -0.00113719 0.00216115 -0.00793025 
C 17.4261 26.6577 46.8314 12.011 -0.00352272 -0.00536182 0.00452106 
C 35.9679 28.4593 41.1115 12.011 0.00277783 -0.0043076 0.00748914 
C 47.2024 48.6358 30.4373 12.011 0.00337241 -0.00272748 -0.0109478 
C 44.9207 23.9148 5.87316 12.011 0.000567663 -0.00268834 0.00199876 
C 17.1198 29.3317 39.1994 12.011 0.00444068 0.00121869 -0.00210942 
C 38.5802 43.4288 35.1675 12.011 -0.0025639 -0.00326486 -0.00400932 
C 50.5375 13.926 44.0529 12.011 0.00115077 -0.00681214 -0.00354749 
C 27.7045 47.6197 14.1551 12.011 -0.00184918 0.00786492 0.00702798 
C 37.6925 23.6265 35.6581 12.011 -0.00229739 -0.00175418 0.006243 
C 8.3263 4.38706 10.1295 12.011 -0.000806863 0.000997115 0.0033958 
C 25.8352 31.9125 19.0953 12.011 0.00520467 0.00513122 0.00405263 
C 13.5749 10.3439 41.8404 12.011 0.00612247 0.00133491 0.00341298 
C 44.502 49.5072 15.873 12.011 -0.00146597 0.00430161 0.0066735 
C 0.163753 43.7828 23.8952 12.011 -0.00161508 0.00721585 -0.00270434 
C 40.5847 31.7547 31.9555 12.011 -0.00041087 0.0037284 -0.0018103 
C 28.36 47.0931 46.1034 12.011 8.38782e-06 0.000136817 -0.00253367 
C 30.0969 28.5861 50.4535 12.011 0.000113028 -0.00607747 -0.00237136 
C 11.0553 1.04193 28.713 12.011 -0.00297664 -0.00091846 0.00446715 
C 47.086 5.70638 36.2279 12.011 -0.00243246 0.00562824 0.00375182 
C 44.4865 21.2644 13.8733 12.011 -0.00230427 -0.00260989 0.00850873 
C 31.0753 43.7421 23.5393 12.011 0.00110694 0.00235483 0.00272339 
C 32.0768 30.2832 29.5407 12.011 0.000403614 0.00434652 -0.00116414 
C 23.3916 41.6078 12.785 12.011 0.000914868 0.0047447 -0.00785598 
C 19.4323 9.9345 31.9319 12.011 -0.00526194 0.00206537 0.0114784 
C 17.9369 20.0504 17.9061 12.011 0.00287753 0.00363299 -0.00186493 
C 4.24839 20.9426 28.6863 12.011 0.00519775 -6.05979e-06 0.00396915 
C 37.8108 34.5209 20.0158 12.011 -0.00151142 -0.00207512 0.0032017 
C 46.7632 44.2641 22.0795 12.011 -0.00210048 -0.00247358 0.0016864 
C 44.8701 49.9868 48.298 12.011 -0.00294891 -0.00242504 -0.00302229 
C 30.1124 49.6949 10.2904 12.011 -0.00452316 0.00365664 0.00781472 
C 8.99864 41.173 39.9811 12.011 -0.0116352 0.00857957 -0.00555719 
C 28.156 12.9567 23.6275 12.011 -0.000172086 0.00570702 -0.00209031 
C 18.4813 26.3232 17.2706 12.011 0.00452281 0.00160087 0.000136366 
C 50.9578 0.823115 26.5297 12.011 -0.00587607 0.00528548 -0.00811862 
C 2.95272 38.4202 39.9217 12.011 0.00469358 -0.00484383 -0.00195447 
C 45.0871 4.92825 40.9791 12.011 0.00242122 0.00189723 0.00491147 
C 8.62328 9.47472 29.2846 12.011 -0.00458995 0.00907908 -0.000941465 
C 42.4387 15.4673 17.1267 12.011 -0.00301138 0.00187181 -0.00303334 
C 48.56 42.7445 47.7173 12.011 0.00433658 0.00762873 -0.00229434 
C 24.6281 34.189 1.04649 12.011 0.000496564 0.00110221 -0.000676407 
C 22.1664 15.0325 39.7289 12.011 0.0013434 -0.0113842 -0.00211265 
C 36.7299 4.89611 10.5654 12.011 -0.00224222 -0.000429696 0.000170591 
C 33.1907 18.664 0.016712 12.011 0.000927691 0.00810946 0.00154922 
C 30.5738 36.4794 9.78834 12.011 0.00262823 -0.00316999 0.00591635 
C 47.1126 11.5685 20.6066 12.011 -0.0102241 0.00711634 0.00598974 
C 10.5494 27.0819 39.6566 12.011 0.00716476 0.00437006 0.00101971 
C 23.5489 38.9769 26.2228 12.011 0.00169774 0.0015492 0.000498616 
C 49.2368 42.681 44.3776 12.011 -0.00384809 -0.00419905 0.00195427 
C 19.5801 13.4545 49.0932 12.011 0.00805929 0.0039266 0.00381796 
C 44.5872 27.2615 7.43478 12.011 -0.00171356 0.00696589 0.00076268 
C 33.2335 34.051 6.211 12.011 -0.00413613 -0.00746819 -0.002874 
C 12.904 25.1467 29.4039 12.011 -0.000861855 0.00076744 -0.00051723 
C 18.2661 11.5934 8.06198 12.011 -0.00349612 0.00156254 0.00743199 
C 36.5932 24.4726 35.9544 12.011 0.000151492 0.00527977 -0.00213737 
C 33.9096 33.6645 11.1842 12.011 -0.00499784 -0.00159992 -0.0102099 
C 49.5283 18.4607 21.274 12.011 -0.00593945 -0.00347083 0.000647868 
C 47.2536 1.26114 41.0873 12.011 -0.00017117 -0.00121217 -0.00282589 
C 11.2706 50.6301 9.81258 12.011 -0.0111986 -0.00329644 -0.00142782 
C 43.1498 20.4582 26.4181 12.011 -0.00184816 0.00388186 0.00559038 
C 13.0312 23.9341 23.8429 12.011 -0.000217088 0.000240759 -0.00947082 
C 45.2096 11.0966 44.7091 12.011 -0.00755941 0.00575204 -0.00892182 
C 32.0587 38.6907 40.7857 12.011 -0.0017038 0.00584558 -0.000853355 
C 7.84503 19.4539 35.1335 12.011 -0.00233626 -0.00402222 -0.00762379 
C 3.63427 34.4919 6.7063 12.011 -0.000787814 0.00348918 -0.00148948 
C 37.6324 1.9142 27.0998 12.011 -0.0040351 -0.000768913 -0.000427959 
C 16.1481 8.28114 21.8238 12.011 -0.00363177 0.00136798 -0.00270114 
C 32.2323 31.4885 0.421655 12.011 -0.0024312 -0.00042928 -0.00526896 
C 38.9532 0.18641 28.8078 12.011 0.00212952 0.00304949 -0.00503005 
C 47.9243 7.19821 44.4453 12.011 -0.00481319 -0.00174531 0.00400916 
C 36.0909 37.7122 44.4893 12.011 -0.00369223 -8.14366e-05 0.00528995 
C 3.17609 0.978968 41.8915 12.011 0.00583732 0.00269672 -0.00525907 
C 46.64 14.327 20.4333 12.011 0.00480275 0.00476301 0.000531129 
C 5.08513 8.68153 11.0852 12.011 -0.00029977 -0.00482355 -0.0111039 
C 11.2823 40.5959 5.94606 12.011 -0.000979567 0.0041037 0.00625876 
C 42.3197 36.6279 6.86559 12.011 -0.00391384 -0.00323793 0.00188721 
C 12.1855 48.5768 32.2769 12.011 0.000878763 -0.0020174 0.000823586 
C 2.77728 43.0648 22.8215 12.011 0.00787975 -0.00147525 0.00282881 
C 32.6442 18.0957 23.4721 12.011 -0.00826349 0.00242989 0.00372099 
C 19.814 25.5269 25.114 12.011 -0.00111045 0.00161418 -0.0041056 
C 26.6943 33.0102 18.7658 12.011 -0.00197838 0.0039622 -0.00468398 
C 35.9217 34.6112 12.3457 12.011 0.00479657 -2.68417e-05 -0.00635939 
C 23.0545 43.6268 15.9935 12.011 0.0041515 0.00236541 -0.00427844 
C 40.527 4.46092 51.0117 12.011 0.000693 0.00505363 -0.00193193 
C 35.3686 50.6492 36.5192 12.011 -0.00603321 -0.00111095 0.00343225 
C 9.10978 8.81387 19.5007 12.011 0.00865833 -0.00192959 0.00341956 
C 24.8055 3.31998 21.302 12.011 -0.00084004 -0.00515984 0.00460795 
C 17.8405 1.23806 50.7753 12.011 0.00357401 -7.0495e-05 0.00533357 
C 1.68405 21.2298 8.19475 12.011 0.00762525 0.0085314 0.00343823 
C 13.0066 36.5335 1.17956 12.011 -0.00152676 -0.00166877 -0.00754769 
C 5.93466 24.5866 12.0758 12.011 0.00428928 -0.0113412 0.00169204 
C 7.15986 28.1117 8.57052 12.011 0.00252721 0.00553915 0.000217628 
C 35.8822 50.113 23.2886 12.011 0.00268528 -0.00257237 0.00381718 
C 49.1492 43.2373 12.0709 12.011 -0.00351423 0.00244965 0.00578578 
C 36.3674 34.9333 10.9935 12.011 -0.00433301 0.00208089 -0.00269958 
C 39.3032 6.45932 1.81566 12.011 -0.00172107 0.000193293 0.00501487 
C 34.7245 27.8841 11.9697 12.011 -0.00479676 0.00398888 -0.0043174 
C 18.4459 48.8731 11.8984 12.011 0.0041788 -0.00269988 -0.00520708 
C 22.6365 21.2837 37.8487 12.011 0.00484045 -0.00292011 -0.00399973 
C 11.9651 46.5485 22.2721 12.011 0.00740133 -0.00832496 -0.00245611 
C 45.4732 15.8476 3.69478 12.011 0.00636718 -0.00331322 -0.00889035 
C 14.863 24.503 3.25991 12.011 -0.00463782 0.00648136 -0.00490811 
C 40.4467 0.539291 1.0314 12.011 0.005475 -0.00629967 0.00484575 
C 8.16733 8.29766 44.5494 12.011 0.0013495 0.00197555 -0.00222549 
C 29.4049 40.0476 39.289 12.011 0.00252555 0.00577479 -0.000246331 
C 32.483 29.9376 18.3721 12.011 0.00334794 0.00421001 0.00904668 
C 49.422 16.5464 12.18 12.011 0.00422617 -0.00381155 0.00232282 
C 11.8328 37.7556 13.4168 12.011 0.00493812 0.00431773 -0.00247058 
C 48.899 22.7885 39.5785 12.011 -0.00258829 -0.000467757 -0.00434469 
C 22.8147 44.1467 38.6222 12.011 0.00462971 0.00750783 0.00348749 
C 37.0489 6.83394 13.0751 12.011 0.00246098 0.00325966 -0.00491555 
C 15.1602 26.5532 32.9367 12.011 -0.000136639 0.00362187 0.00161596 
C 32.054 1.66315 29.9323 12.011 -0.00519077 0.00137553 -0.000576939 
C 50.0866 30.7157 24.947 12.011 0.00719284 -0.00272387 -0.0021491 
C 23.9489 15.367 28.9846 12.011 -0.00277618 -0.00188993 0.00377479 
C 38.23 12.65 30.1069 12.011 -0.00307994 0.00459461 0.00160917 
C 48.7933 44.1147 44.4804 12.011 -0.00878682 0.00295024 -0.00505562 
C 42.111 32.8995 15.4722 12.011 -0.00316866 0.00752073 0.00118834 
C 34.0838 33.5873 36.7393 12.011 -0.00614176 0.00482072 0.0031201 
C 37.6352 5.66079 12.8916 12.011 -0.00289795 -0.00198199 -0.00783902 
C 45.4251 21.3579 48.0466 12.011 0.000147634 -0.00185593 0.00740126 
C 27.564 29.493 27.1045 12.011 -0.00203051 0.00272287 0.00284503 
C 6.90999 4.92211 50.2194 12.011 -0.000354711 0.00372356 -0.00139165 
C 37.7921 42.9003 9.39541 12.011 0.00132679 0.00227121 0.00319021 
C 1.18988 36.6959 42.2857 12.011 -0.00360758 -0.00302203 -0.000308103 
C 48.9316 14.5377 10.92 12.011 0.00104839 -0.00304089 0.00199436 
C 14.1677 46.5481 42.3812 12.011 0.00547605 -0.00837794 -0.0015195 
C 18.6705 49.8416 33.0976 12.011 -0.00633273 -0.00558506 0.000487484 
C 42.534 35.9245 9.21242 12.011 0.00105454 4.90165e-05 -0.000595468 
C 16.5333 25.093 48.5559 12.011 0.00949612 0.00268036 0.00864809 
C 1.58553 38.7636 50.6615 12.011 0.00123198 -0.0136583 0.00050152 
C 47.5549 26.8109 16.4108 12.011 -0.0024236 -0.0043575 -0.00446868 
C 17.1354 2.48741 43.225 12.011 -0.00201341 0.00315122 0.000574669 
C 44.7568 31.3986 41.4232 12.011 -0.00463336 0.00305298 -0.00455108 
C 27.1291 8.43849 24.6782 12.011 -0.00108863 -0.00172166 0.00106669 
C 23.2892 4.50836 9.06128 12.011 -0.00158539 0.00738039 0.00194464 
C 17.8636 29.714 21.6955 12.011 -0.0028413 0.00227781 -0.00522609 
C 36.9174 33.6658 40.6292 12.011 -0.00265603 0.00480296 -0.00606635 
C 37.1124 44.0861 8.91182 12.011 0.00777282 5.85643e-05 0.00164034 
C 24.4951 16.8129 32.9913 12.011 0.00597295 -0.000266111 -0.00371964 
C 8.85476 3.50099 17.3997 12.011 -0.00177455 -0.00106918 -0.000978291 
C 18.5276 23.4043 24.581 12.011 0.0021822 -0.00395338 0.00383938 
C 9.29613 2.57171 14.9881 12.011 -0.00194386 -0.00281433 0.00130652 
C 14.4949 16.311 27.5935 12.011 0.00411767 0.00552135 0.00345418 
C 34.5253 30.4455 28.8941 12.011 -0.000237258 -0.0017502 -0.007808 
C 17.5873 29.0922 35.2785 12.011 -0.00419405 0.000864907 0.0026971 
C 26.6314 32.082 47.8618 12.011 0.00327853 0.00886862 0.00477388 
C 48.5279 30.8984 15.2007 12.011 0.006117 0.00491511 -0.00187287 
C 45.4903 23.549 49.1735 12.011 -0.00368214 0.00176853 -0.000450918 
C 50.1887 23.033 22.2587 12.011 -4.13128e-05 -0.00158754 -0.000273754 
C 21.8961 9.07019 32.6602 12.011 0.00342264 -0.002498 -0.00182167 
C 29.4446 47.5988 15.9251 12.011 0.00278401 -0.0102912 0.00140697 
C 21.6731 28.6405 19.0719 12.011 -4.85004e-05 0.00405636 -0.00370873 
C 26.2588 5.46729 17.4223 12.011 0.00704076 0.0015701 -0.00478486 
C 3.9717 26.4014 42.526 12.011 -0.00569135 0.00697963 0.000101581 
C 10.8957 40.7513 50.5299 12.011 0.00448143 0.00397593 0.00637 
C 3.16107 44.7042 33.9463 12.011 0.00122927 4.06489e-05 0.00295438 
C 22.7441 13.9344 40.396 12.011 0.00250742 6.33997e-05 -0.00419553 
C 3.12738 13.1884 43.8484 12.011 -0.00170375 -0.000823914 0.00316636 
C 38.6123 21.7694 18.3106 12.011 -0.00200096 0.00968318 -0.00207333 
C 30.1119 38.3074 47.5153 12.011 0.00798697 -0.00315806 0.00236125 
C 23.6322 33.2668 7.30087 12.011 6.35589e-05 0.00163089 -0.0004137 
C 43.4987 5.00121 14.1515 12.011 -0.00185178 0.00058951 0.00238024 
C 49.919 48.2724 40.486 12.011 0.000953528 -0.00464795 0.00846768 
C 8.41024 7.17314 28.4517 12.011 -0.000505567 0.00323329 -0.00207883 
C 30.8313 49.4762 25.3692 12.011 0.00562213 0.00401248 -0.00489763 
C 34.8896 17.0179 31.4261 12.011 0.0071196 0.000195468 0.00766213 
C 3.74075 48.1278 29.8597 12.011 -0.00430114 0.00336727 0.00584327 
C 38.1717 0.00296871 16.3712 12.011 -0.00746109 -0.00181651 0.00136748 
C 37.834 36.8424 7.49858 12.011 0.00161028 -0.00384975 -0.00497497 
C 16.6551 28.7179 48.7093 12.011 0.00838354 -0.00485675 -0.00628142 
C 23.4067 10.8832 17.1874 12.011 -0.00423435 0.00514957 -0.00888746 
C 33.0456 48.1304 19.051 12.011 0.00207728 0.0054855 -0.00607973 
C 24.4847 49.657 32.0833 12.011 0.000902519 0.00578466 -0.003747 
C 24.8606 13.5 10.8 12.011 -0.00483763 -0.00408384 -0.00294831 
C 27.5623 47.7013 43.8674 12.011 -0.00287845 -0.00215494 0.00134661 
C 14.3418 33.1255 40.1715 12.011 -0.00334393 -0.00268971 0.00186903 
C 4.57923 27.5439 41.9466 12.011 -0.00350521 -0.00414866 0.00320395 
C 28.5565 40.0415 31.7891 12.011 0.00707178 0.0125443 -0.00181686 
C 13.465 29.6637 29.8055 12.011 -0.00627638 -0.00165431 -0.00333703 
C 19.5304 26.8093 39.6816 12.011 0.0040266 0.00477187 -0.00419235 
C 30.2435 8.42923 9.23896 12.011 -0.00625059 -0.000837451 0.00144511 
C 4.06699 12.273 44.2903 12.011 0.00913285 0.0017751 -0.00144428 
C 30.319 10.9404 44.6188 12.011 0.000237203 0.000599237 -0.00236448 
C 6.76874 34.0326 22.0014 12.011 0.00163963 -0.00956592 -0.00691257 
C 48.7076 33.3624 2.12421 12.011 -0.00479885 0.00221121 -0.00681832 
C 22.1947 45.1958 39.4105 12.011 0.00220204 -0.00276412 0.00288762 
C 30.4976 37.2842 14.8081 12.011 -0.00654018 0.00420791 -0.00181675 
C 48.8364 11.2938 9.09725 12.011 0.000619247 0.00313352 -0.00583928 
C 8.91942 12.6871 50.2898 12.011 0.00408951 -0.00130413 -0.00318475 
C 33.3412 27.4404 12.2019 12.011 0.00272918 -0.00753287 0.000992367 
C 28.7164 8.57662 48.2544 12.011 0.00784953 0.00925054 -9.79273e-05 
C 14.7872 2.31572 33.8841 12.011 -0.00544883 0.0050292 0.00534004 
C 27.3551 10.1833 5.52925 12.011 0.00183634 -0.00103733 0.00149731 
C 13.3173 28.78 28.6795 12.011 -0.00149977 -0.00245721 0.00155743 
C 7.45694 47.1078 41.7106 12.011 0.000805701 -0.00217591 0.00352407 
C 48.3471 9.93734 9.26823 12.011 0.00153795 0.00156435 0.00438919 
C 19.6315 1.00698 5.63623 12.011 0.00211427 -0.00360759 8.39259e-05 
C 1.51226 41.526 4.89195 12.011 -0.00306874 -0.0074061 4.06188e-05 
C 27.4689 33.7497 19.7563 12.011 -0.00217797 -0.00232659 -0.0077936 
C 30.7458 44.1304 9.87345 12.011 0.00312676 0.00348921 0.00166665 
C 25.1605 28.708 37.0513 12.011 0.00750136 -0.00494241 0.00116384 
C 40.3031 38.1114 44.3582 12.011 -0.00631027 0.00337875 0.00244309 
C 43.2626 32.0719 19.639 12.011 -0.00505634 0.00547052 0.00341735 
C 28.4195 46.5495 13.5891 12.011 -0.00500819 0.00918309 -0.00231621 
C 28.9698 45.5047 11.386 12.011 0.00308145 -0.00481819 0.00221583 
C 39.342 19.4334 17.6743 12.011 0.00249951 0.00118785 -0.00347373 
C 37.9496 35.7148 27.387 12.011 -0.00725777 0.00598837 -0.00969062 
C 10.2289 41.0217 28.8087 12.011 0.0016635 -0.00273432 0.0035087 
C 40.5407 44.8909 45.4188 12.011 0.00476969 0.00662073 0.000720707 
C 42.5092 36.8485 40.0524 12.011 0.000454233 0.00118562 -0.000914719 
C 37.6346 2.66861 9.96163 12.011 -0.00245382 -0.002305 0.000138569 
C 10.7212 37.2757 0.869872 12.011 0.000267416 0.00550334 0.00510945 
C 11.0914 11.1427 2.75731 12.011 0.00252317 -0.00427302 0.00605984 
C 1.04525 30.9426 5.92624 12.011 -0.00491254 -0.00492621 0.0021161 
C 26.0816 26.2677 10.5042 12.011 -0.0101832 -0.00166964 -0.00627939 
C 36.5006 37.701 30.1555 12.011 0.00137367 -0.00309232 0.00607649 
C 41.8782 22.132 49.0025 12.011 0.0071039 0.00301848 -0.00245081 
C 40.0597 8.67408 25.8396 12.011 0.00908693 -0.00305643 0.000119566 
C 4.38548 30.6579 12.6393 12.011 -0.00173138 -0.00552849 -0.000308909 
C 28.9342 6.72723 41.376 12.011 0.00295731 0.00744082 -0.00621889 
C 35.2431 26.9566 43.4868 12.011 -0.00182668 -0.00264922 -0.000874162 
C 10.0778 11.9521 3.31889 12.011 -0.0064042 0.00370964 -0.000903925 
C 46.7482 42.287 44.4663 12.011 -0.00232601 -0.00186379 0.00396665 
C 23.8631 10.3238 42.675 12.011 0.00398414 -0.0136267 0.00162934 
C 30.4994 15.7053 0.217298 12.011 -0.00387343 0.00364924 -0.00115254 
C 19.9085 47.2083 10.11 12.011 0.00122009 -0.00615911 -0.00191825 
C 44.0349 35.8155 5.35487 12.011 0.00189563 -0.000997937 0.00394708 
C 23.5742 17.3451 22.9757 12.011 -0.0014036 0.00142268 0.00252588 
C 8.75695 46.389 41.8026 12.011 -0.00652299 0.00043263 0.00519777 
C 31.5764 25.9788 11.5202 12.011 -0.00105947 -0.00110425 0.00270083 
C 13.9547 17.3465 49.3597 12.011 -0.000638098 0.000665116 0.000956367 
C 10.1555 38.128 33.1592 12.011 -0.0181422 -0.00359811 -0.00160287 
C 29.4665 35.7273 13.1854 12.011 -0.000337641 0.00914103 0.00115584 
C 38.3726 22.3812 40.9545 12.011 0.00836135 0.00749436 0.00123095 
C 15.2549 45.69 18.3934 12.011 0.00159216 -0.00302193 0.000561729 
C 41.1545 20.9342 48.5261 12.011 -0.00699963 0.00896542 0.00437577 
C 35.6204 48.8684 41.2936 12.011 0.00227112 -0.00225975 -0.00137513 
C 19.7546 0.194882 25.8403 12.011 -0.00268952 -0.00342404 -0.0044154 
C 12.1817 47.449 33.0776 12.011 0.0043605 0.00265884 -0.00274949 
C 3.237 48.8833 2.45733 12.011 0.00522462 0.000105062 -0.00250076 
C 4.14531 42.2379 20.8284 12.011 0.000843643 0.000113802 0.000464141 
C 50.658 21.9488 9.41494 12.011 0.000567083 -0.00245428 0.00220953 
C 39.5062 2.71264 1.34648 12.011 -0.00458438 0.00157758 -5.93486e-05 
C 18.101 26.4855 13.0445 12.011 -0.000890911 5.28168e-05 -0.00392336 
C 25.8708 13.1751 11.7007 12.011 0.000364263 0.00231022 -0.00349217 
C 31.219 1.44501 27.5852 12.011 0.000629056 -0.000426609 0.00288919 
C 38.5223 4.64719 3.29484 12.011 0.00293258 0.0019432 -0.00203501 
C 43.8888 44.0591 49.0756 12.011 0.00210939 0.00151123 0.00782291 
C 48.9511 48.7138 44.0548 12.011 0.00152987 0.00666092 -0.000157856 
C 46.1239 48.4711 10.1477 12.011 0.000589717 0.00184792 0.00408985 
C 42.4675 3.06236 34.4262 12.011 -0.00321871 0.00552112 -0.000391901 
C 24.6755 4.97368 11.1253 12.011 0.00527308 0.00118871 -0.00366448 
C 36.9433 30.8851 47.8493 12.011 0.00163343 0.0043849 0.00434299 
C 17.4192 42.702 27.6482 12.011 -0.00398476 -0.00667392 0.00738197 
C 18.4554 6.58533 50.7174 12.011 0.00353872 0.00747847 0.00138855 
C 0.990994 22.38 24.3708 12.011 0.00762424 0.00135818 -0.00483163 
C 44.4812 13.7984 28.1145 12.011 0.00136238 -0.00639159 0.0108018 
C 29.6862 0.186688 12.3418 12.011 -0.000808285 -0.000510414 -0.00261159 
C 32.5589 1.63859 14.4423 12.011 -0.00626494 0.007314 -0.00312076 
C 41.6387 45.0923 9.36427 12.011 0.0119473 -0.000447283 -0.00474634 
C 2.70357 39.9981 9.10137 12.011 -0.00381542 0.00271079 0.00816374 
C 22.112 47.0111 19.6558 12.011 -0.00887644 -0.00423609 0.00414635 
C 48.0549 21.8333 46.995 12.011 0.00217395 0.00395876 0.00550097 
C 38.6683 38.0516 28.9137 12.011 -0.000452638 0.00627477 -0.000677993 
C 36.9485 28.9042 40.1765 12.011 -0.000270641 0.00842056 0.00535311 
C 24.5118 25.4984 47.6499 12.011 0.00920979 0.00817482 -0.00413334 
C 27.066 41.4665 49.6434 12.011 -0.00115026 0.00768753 -0.00296101 
C 40.2796 3.52011 19.166 12.011 -0.000526214 0.0020611 0.00386453 
C 10.8689 12.6325 18.9333 12.011 -0.00343517 -0.00111286 0.00125738 
C 37.8892 26.175 6.66586 12.011 -0.00339154 0.00549895 0.00571653 
C 31.5726 43.5762 7.59876 12.011 -0.00122406 -0.00423041 0.000648569 
C 26.3102 11.2638 3.37101 12.011 0.00162273 -0.00535504 -0.0081883 
C 49.106 36.6571 30.3098 12.011 -0.00235779 0.00148348 0.00674234 
C 33.9111 28.677 44.1938 12.011 0.00316586 -0.00298032 -0.00304413 
C 38.6208 50.7262 27.4885 12.011 0.00516559 0.00578857 -0.00576157 
C 36.0363 33.4976 18.1659 12.011 -0.0022081 0.000383816 0.0012625 
C 6.19454 21.1079 20.9391 12.011 -0.00497315 0.00307878 0.000265822 
C 4.8053 26.3801 49.372 12.011 0.000343642 0.00677055 -0.00625106 
C 17.2664 22.5206 33.6264 12.011 -0.00356507 -0.00225283 0.00854775 
C 50.5164 5.19991 1.44652 12.011 -0.00499156 -0.0059643 -0.000799349 
C 45.9729 46.1174 35.5511 12.011 0.00174767 -0.00724658 -0.00059898 
C 40.1389 26.3221 50.4296 12.011 -0.00349674 -0.00338372 0.00201976 
C 21.2154 46.9195 41.3575 12.011 0.00597524 0.00932697 0.00184981 
C 37.231 42.9362 38.4452 12.011 -0.00599395 -0.000659353 0.00371266 
C 31.0527 26.5929 29.4195 12.011 0.00355122 0.00320042 -0.00308243 
C 25.3084 25.4083 1.57322 12.011 0.00442559 -0.000668898 -0.00253795 
C 2.80485 24.4368 19.5145 12.011 0.00616959 0.00756449 -6.03578e-05 
C 15.1298 17.1793 29.6812 12.011 0.000646739 -0.0043162 0.00206692 
C 30.7793 10.7768 1.7822 12.011 -0.00361292 0.00312855 -0.0021772 
C 37.0893 14.0408 11.7488 12.011 -0.00482023 0.00232961 0.000228232 
C 37.5816 15.9724 45.6664 12.011 0.0035397 -0.00256796 0.00256673 
C 47.5787 49.4216 1.92731 12.011 -0.00478142 0.00311722 -0.00271583 
C 13.8599 6.03217 34.911 12.011 -0.00158393 0.00443021 -0.00279107 
C 23.5009 5.70023 2.58141 12.011 0.00922854 -0.000522156 -0.00650048 
C 9.48366 23.6271 14.5466 12.011 -0.000854559 0.00311557 0.00124431 
C 5.59311 4.84053 34.5852 12.011 0.000631205 -0.00162097 -0.0161519 
C 44.0438 23.5159 49.4867 12.011 -0.00212378 0.00224877 -0.00130973 
C 32.3392 12.8385 10.8294 12.011 -0.00141845 -0.00216856 -0.00126396 
C 7.15096 29.2791 48.6087 12.011 -0.00400308 0.00156604 -0.0024781 
C 2.03025 38.2543 0.898847 12.011 -0.00247662 -0.000542738 0.00379314 
C 32.2305 41.3554 19.6539 12.011 0.00190102 -0.00332165 -0.00376361 
C 27.3677 13.787 4.80058 12.011 0.00391409 0.00827393 -0.00344861 
C 29.6583 30.1649 29.4089 12.011 0.0128881 0.00271585 0.00349293 
C 40.2115 8.85864 15.4924 12.011 -0.00646194 0.00254053 -0.00138978 
C 34.2733 31.3252 19.1889 12.011 -0.00552562 -0.0031945 0.0079292 
C 10.8581 28.5611 8.88798 12.011 -0.000439171 0.00811671 -0.00190525 
C 47.5631 44.449 45.0593 12.011 -0.00016813 0.00122407 0.000668586 
C 17.8613 45.6618 28.5235 12.011 0.00140838 -0.000682436 0.00137186 
C 9.97199 47.2936 21.1226 12.011 -0.00332177 -0.000325583 -0.00158134 
C 8.68559 21.5621 6.07003 12.011 -0.00751926 0.000292191 -0.00188018 
C 29.9684 18.6474 40.8115 12.011 0.0036686 -0.00333359 -0.000610852 
C 29.8081 6.13534 40.4247 12.011 0.00550307 -0.000574706 -0.00536264 
C 14.1915 8.50664 34.8206 12.011 0.00192568 0.00152147 -0.00347206 
C 44.5424 33.5991 15.0553 12.011 -0.0028445 0.00752031 -0.00184527 
C 29.9414 6.91114 27.5896 12.011 -0.00391524 0.00846743 -0.00180802 
C 50.2097 1.5447 16.0762 12.011 -0.00508174 -0.00653456 -0.00240072 
C 30.0638 9.37182 32.6214 12.011 0.00386534 0.00436282 0.000296552 
C 36.7315 29.4624 48.2189 12.011 0.00118323 0.000961422 0.00318214 
C 11.222 42.0868 42.801 12.011 0.00522839 -0.0022103 0.00553701 
C 6.80868 15.2347 6.44352 12.011 -0.00305376 -0.00447875 -0.00144428 
C 27.7848 37.9477 26.1763 12.011 -0.000776558 -0.00615637 0.0095941 
C 34.0569 36.4488 45.2431 12.011 0.00466959 0.00212507 -0.00354147 
C 18.2245 31.4786 39.7364 12.011 0.0104167 0.0024275 2.67177e-06 
C 19.9959 18.9175 42.5868 12.011 -0.00250075 0.00582462 -0.000260114 
C 1.95414 49.4589 28.6065 12.011 0.00140553 -0.00486018 0.00169168 
C 47.9311 29.1359 36.2056 12.011 0.00709554 -0.00450549 -0.00615803 
C 35.5527 24.2889 46.0601 12.011 -0.000643847 0.0029744 -0.00226881 
C 30.9713 30.6979 13.7959 12.011 0.000434934 -0.00448257 -0.00110625 
C 43.8004 42.8066 30.2956 12.011 0.00663032 -0.000945559 0.00355317 
C 26.9012 0.0156432 8.88302 12.011 0.00156684 0.00307432 -0.00385512 
C 28.0679 12.0984 40.6495 12.011 0.00634301 0.00473584 -2.88218e-05 
C 19.6266 9.52791 8.08238 12.011 0.0130805 0.00315055 -0.0030471 
C 13.3531 33.1854 24.3133 12.011 -0.00803664 -0.0039415 0.00348816 
C 13.5982 27.9676 9.33981 12.011 -0.00339822 -0.00180273 6.86506e-05 
C 33.3273 27.1797 21.4362 12.011 0.0029486 -0.00897499 0.00291863 
C 30.1907 40.412 29.9357 12.011 0.000259211 -0.000240425 0.00105264 
C 36.5726 19.3806 27.5127 12.011 0.0103559 0.00233312 0.00702763 
C 50.7091 38.595 28.9917 12.011 -0.00272481 0.00661289 0.00290244 
C 7.38287 35.1204 21.3909 12.011 -0.0109026 -0.0039147 0.0136772 
C 18.6671 13.7978 10.5632 12.011 0.00747864 0.00130874 0.00544579 
C 14.4493 3.38611 31.3242 12.011 -0.010264 0.00255262 0.00401175 
C 17.2625 4.96793 20.6635 12.011 0.00119068 -0.00068068 -0.000477684 
C 29.6473 36.1674 14.5701 12.011 0.00461216 0.000597498 0.00240084 
C 50.6368 41.858 37.5655 12.011 0.00205478 0.00248605 -0.00472729 
C 27.9293 27.9998 3.61951 12.011 -0.00207628 0.00880434 0.00559599 
C 24.4622 2.5715 7.68677 12.011 0.00885886 -0.00218077 -0.0084862 
C 44.2427 2.40157 37.6544 12.011 -0.0046427 0.00194533 0.000491723 
C 44.7429 26.5854 24.2994 12.011 -0.00333648 -0.0076331 0.000298828 
C 12.873 41.3121 26.1768 12.011 0.0133151 -0.00756843 -0.00475899 
C 7.54244 46.0382 35.4361 12.011 0.00914774 0.000947367 0.00111905 
C 29.5998 40.396 32.7104 12.011 -0.000469111 0.00192583 -0.000227565 
C 33.8176 41.9047 43.7554 12.011 0.008368 -0.00197408 0.00284759 
C 49.7876 28.464 27.988 12.011 0.000735089 -0.00164692 -0.00405198 
C 30.3598 44.0294 7.07055 12.011 0.00388449 -0.00698611 0.00252829 
C 34.3196 29.4989 47.5886 12.011 0.000369333 -0.00750037 0.00820277 
C 37.5709 41.6242 8.85035 12.011 0.0105296 4.13249e-05 -0.0088284 
C 12.1477 50.3728 19.7979 12.011 -0.0049889 -0.00828996 0.00507788 
C 26.7617 30.6624 42.6122 12.011 0.00233621 -0.00263567 0.00729227 
C 13.8668 31.6286 8.67887 12.011 -7.91009e-05 -0.00226707 -0.00322309 
C 37.0503 11.1622 38.603 12.011 -0.00657301 0.00154667 -0.00563616 
C 20.0584 21.416 12.4795 12.011 -0.00417187 -0.00369316 0.00199826 
C 30.2591 14.9594 42.9705 12.011 -0.00137844 0.00311178 -0.00614518 
C 30.9298 31.3577 7.68844 12.011 -0.00154356 -0.000511648 -0.00607865 
C 38.2202 24.0474 19.0414 12.011 0.00413877 0.00190564 -0.000677093 
C 42.4984 15.7394 44.9219 12.011 0.00904618 0.00453048 0.00417829 
C 2.15889 46.6845 40.355 12.011 -0.00660908 -0.00157916 0.0061827 
C 10.1992 39.0544 40.9294 12.011 -0.00298268 0.00835111 0.00329635 
C 29.9811 13.0321 10.2515 12.011 0.00511706 0.00447151 -0.00336443 
C 38.5978 1.32832 11.7545 12.011 -0.000533003 -0.00482819 -0.00874625 
C 50.8055 41.5337 11.0426 12.011 -0.00410083 0.00238757 -0.00193783 
C 12.8526 20.8019 11.2901 12.011 -0.00769153 0.000985673 0.00324905 
C 21.3946 30.7288 40.5821 12.011 -0.0071964 -0.00128201 -0.00422497 
C 39.4449 11.3456 9.87268 12.011 4.90783e-05 0.00168293 -0.000805574 
C 24.0183 2.74635 16.3917 12.011 0.0107533 0.00385748 0.00115358 
C 19.5244 42.7464 49.581 12.011 -0.00269752 -0.000458536 -0.00141488 
C 48.3846 40.9521 11.5279 12.011 0.00208384 -0.000605617 0.00402797 
C 18.263 2.55282 50.5836 12.011 -0.00430889 -0.00215816 -0.00682871 
C 20.2988 0.534102 14.5141 12.011 0.00577887 -0.00163665 -0.00512225 
C 21.8544 17.2995 38.983 12.011 -0.0068523 -0.00524463 -0.00154464 
C 10.8723 45.691 28.2515 12.011 -0.00672839 0.00704751 0.00278461 
C 32.5494 50.0243 34.995 12.011 0.00148856 0.00697705 -0.00238457 
C 21.6138 19.451 15.613 12.011 0.00630408 0.00128918 -0.00474254 
C 3.58803 49.691 26.4041 12.011 0.000939068 0.00310935 0.00287099 
C 50.448 27.8057 11.6923 12.011 0.00779217 -0.00253129 -0.0037092 
C 49.6546 40.6029 10.9959 12.011 1.17776e-05 -0.0033985 -0.00525792 
C 19.7268 42.6754 30.6347 12.011 -0.00103558 -0.00484047 -0.000741912 
C 28.7166 26.8129 46.7605 12.011 -0.00364439 0.00977865 -0.00847619 
C 31.4505 5.75554 29.6639 12.011 -0.00192928 -0.00622265 -0.0100521 
C 4.43984 13.0561 49.3554 12.011 -0.0014631 -0.00275197 0.0011956 
C 44.0065 44.4458 47.6621 12.011 -0.0050237 0.00140652 2.0663e-05 
C 27.4824 47.833 45.2538 12.011 -0.00819412 -0.00335832 -0.000325596 
C 12.2825 45.0232 41.3578 12.011 -0.00402906 -0.000681762 0.0174611 
C 36.4654 13.6202 31.503 12.011 0.00491177 -0.0066771 -0.00961517 
C 8.73232 26.4496 22.5149 12.011 0.00323432 -0.0037001 0.000616798 
C 33.4304 34.7199 36.3569 12.011 0.00298038 -0.00219606 0.00227758 
C 14.4708 5.82706 12.3055 12.011 0.00107343 -0.00834919 -0.00271735 
C 24.0674 14.1708 8.58745 12.011 -0.00232884 0.00483404 0.00213057 
C 23.2455 33.3188 34.364 12.011 -0.00860371 0.00647689 -0.00271861 
C 10.1978 47.9226 37.5013 12.011 -0.00647282 -0.000769221 0.000876288 
C 1.03217 28.7806 28.9075 12.011 0.00396465 -0.00121911 -0.00344375 
C 4.96217 4.8323 21.3734 12.011 -0.00370131 -0.00689557 0.000627995 
C 6.1141 26.3862 40.1572 12.011 -0.00192908 0.00277374 -0.00474379 
C 20.7863 29.455 40.1636 12.011 -0.000341342 0.00683167 0.000629026 
C 36.3788 25.226 17.8516 12.011 -0.00585539 9.61176e-05 0.00287594 
C 35.6761 28.0379 12.9439 12.011 0.00843287 0.000468014 -0.0055792 
C 49.2914 38.3251 44.4711 12.011 0.0073378 0.0031197 0.0023453 
C 6.9283 34.8395 36.1823 12.011 -0.00105382 0.000654415 2.3334e-05 
C 8.05965 5.23277 35.0189 12.011 -0.00259399 0.00776824 -0.000562937 
C 16.5523 12.6926 1.97886 12.011 0.00579391 0.00485442 -0.00625031 
C 18.6512 21.7384 49.9003 12.011 -0.00580784 -0.00143141 -0.00404459 
C 10.438 5.78109 10.8696 12.011 0.00546676 0.00544194 -0.00175861 
C 21.86 29.3239 17.8981 12.011 0.00374549 0.000234006 0.000952354 
C 17.4755 4.83455 5.44278 12.011 -0.00393993 0.00320731 0.000982623 
C 38.8599 25.6161 34.7509 12.011 -0.00575526 -0.00138544 -0.00605416 
C 21.9065 34.7749 30.139 12.011 0.00405817 -0.00413598 -0.00434951 
C 3.76206 8.67691 45.5828 12.011 0.00740578 0.0011477 -0.00427741 
C 37.9564 33.4067 46.6705 12.011 -0.00426515 0.000573235 0.00265657 
C 29.7257 0.38007 24.293 12.011 0.000229508 0.00956332 -0.00585731 
C 21.8957 5.75987 26.9567 12.011 -0.00150288 -0.00213567 0.00189798 
C 18.1975 1.36701 38.5916 12.011 0.000154018 -0.00083902 0.00157869 
C 22.8936 34.8353 25.2922 12.011 -0.000387818 -0.000209128 0.000270805 
C 39.7847 18.7462 42.2413 12.011 0.00218063 0.00152484 0.00192682 
C 50.0952 12.7383 24.3196 12.011 -0.00907221 -0.00179935 -0.00105726 
C 44.3667 17.4253 34.9361 12.011 0.00439444 -0.000271699 -0.000946195 
C 23.8659 27.1126 28.8691 12.011 0.00713001 0.00486283 0.00435629 
C 3.734 32.6546 44.3855 12.011 -0.00630797 -0.000479623 -0.000856407 
C 29.759 9.60108 5.23672 12.011 0.00306529 -0.0030804 -0.00695393 
C 31.1795 8.50729 44.2281 12.011 0.00526723 -0.00161261 -0.000198321 
C 33.069 37.1552 2.97621 12.011 -0.00660179 -0.00234231 -0.00144548 
C 21.4099 27.536 26.0344 12.011 -0.00166361 0.000423182 -2.17398e-05 
C 14.7889 47.7469 39.818 12.011 0.0137411 -0.00404929 0.00423902 
C 36.8966 11.2409 31.641 12.011 0.00466153 -0.00288703 -0.000930763 
C 39.942 50.1824 6.25797 12.011 -0.00105102 -0.00303125 0.00437615 
C 2.86633 3.50421 21.895 12.011 0.00668446 0.00304507 -0.00131148 
C 29.688 14.4075 24.8013 12.011 0.000735849 -0.00204167 0.00470627 
C 35.1731 20.3813 17.5112 12.011 -0.0036457 0.000430793 0.00574197 
C 43.0552 8.82624 34.9038 12.011 0.0106471 -0.00165449 0.0027808 
C 24.0324 42.1413 36.7869 12.011 -0.00602631 -0.00278646 0.00470748 
C 31.5387 16.5541 47.0743 12.011 -0.00346289 0.00536842 -0.0048895 
C 39.6744 10.837 48.0213 12.011 0.00440641 -0.00273393 -0.00129079 
C 1.72122 13.0443 44.0232 12.011 0.00406046 -0.00222497 0.00583349 
C 7.18437 13.6659 43.0494 12.011 0.0047404 0.00711666 -0.000829333 
C 22.7112 1.68684 44.582 12.011 0.00100739 -0.000531752 0.00795918 
C 32.0138 35.0711 33.507 12.011 0.00199028 0.00117297 0.00179515 
C 13.7109 2.19812 31.0821 12.011 0.00277543 0.00135198 0.00339284 
C 47.0385 36.1809 31.8966 12.011 0.00145149 0.00881582 -0.000826839 
C 8.43666 11.3973 7.61073 12.011 0.00279703 -0.00287832 -0.004419 
C 48.1198 48.7676 8.13474 12.011 -0.00399129 0.00306265 -0.00167563 
C 11.6919 50.2884 14.6389 12.011 0.000906013 -0.00428215 -0.00259824 
C 38.2756 10.7356 7.55799 12.011 0.00064335 0.00140361 -0.000410696 
C 45.1616 42.3985 6.52908 12.011 0.00156733 0.00391361 -0.000728915 
C 18.2446 48.0573 28.3006 12.011 0.00162164 -0.00364443 -0.00578309 
C 46.4847 43.5026 44.9656 12.011 0.00244746 0.00774258 0.00188798 
C 49.8735 6.28215 5.4203 12.011 0.00469935 -0.00413199 0.0045834 
C 11.9853 9.94121 32.3799 12.011 0.00102315 -0.00161159 -0.000643013 
C 9.20459 1.56248 15.9818 12.011 -0.00692413 -0.00401886 -0.00097645 
C 15.9466 15.0825 46.0039 12.011 -0.00436082 0.00644084 0.00665076 
C 30.4329 26.1768 18.3875 12.011 -0.00137455 -0.00230144 0.000980745 
C 22.9243 48.8255 5.66863 12.011 0.00614858 0.00599894 -0.00861293 
C 44.2928 35.1702 40.354 12.011 0.000425366 0.00776785 0.000602426 
C 21.4432 36.1379 29.8953 12.011 -0.00447376 0.00306298 0.0100767 
C 41.8908 48.2801 33.3332 12.011 -0.00671653 -0.00281312 -0.00247796 
C 14.9479 17.5258 9.51511 12.011 0.00240724 -0.00109372 0.00198163 
C 31.7833 23.3931 28.9967 12.011 -9.98784e-05 0.000479766 6.56923e-05 
C 49.839 42.5839 47.0504 12.011 -0.000683632 -0.00101183 -0.00198138 
C 24.3607 37.8448 18.5705 12.011 -0.012525 -0.00540474 -0.00508295 
C 1.47113 50.2298 27.5042 12.011 0.00486759 0.00420728 -0.00668116 
C 13.8467 30.2151 18.5426 12.011 0.000959375 0.00228357 -0.00696706 
C 3.72249 4.59695 22.0782 12.011 -0.00507122 -0.0044476 0.00669165 
C 26.508 43.8199 29.534 12.011 -0.00161753 -0.000876597 0.00550156 
C 16.886 43.2207 5.58965 12.011 -0.0078119 0.00346168 -0.00472024 
C 12.2656 23.2199 46.3974 12.011 -0.00723804 -0.000592313 -0.00463934 
C 47.5942 19.1627 17.7185 12.011 0.00453797 -0.0037073 0.00871071 
C 20.2528 4.61023 16.3901 12.011 -0.00109064 -0.00505895 -0.00387093 
C 44.5015 8.53118 35.0366 12.011 0.00200814 0.00281234 -0.00254864 
C 21.7421 44.0775 15.7766 12.011 -0.00380371 -0.0056527 0.00602154 
C 48.9411 32.6085 32.7993 12.011 -0.00544537 -0.00410426 0.00358509 
C 13.0723 49.2167 10.7314 12.011 -0.00545293 0.00131994 0.00590638 
C 27.1426 6.27664 23.4501 12.011 0.00486429 -0.000971811 -0.0126615 
C 39.9363 20.5868 40.8898 12.011 -0.0027197 0.00783594 -6.67254e-05 
C 29.7424 23.2123 38.0132 12.011 -0.0014957 0.00307941 0.00256859 
C 45.9258 29.2897 29.3106 12.011 0.00228393 -0.00124693 -0.0101412 
C 25.751 32.84 13.7064 12.011 0.00222578 0.00449311 -0.00273609 
C 17.0005 48.3305 40.6629 12.011 -0.00389404 -0.00224279 0.0086034 
C 39.8396 42.9589 43.4253 12.011 0.00533999 -0.00229539 0.00894526 
C 2.89436 34.1559 36.9752 12.011 0.0141949 -0.00083057 -0.00243939 
C 45.201 36.5523 49.1208 12.011 0.0003524 -0.00067676 0.00345569 
C 24.9699 41.9748 37.8074 12.011 0.00163341 -0.00243386 0.000255334 
C 10.9716 13.7033 46.7732 12.011 -0.00708309 -0.00171381 0.00320729 
C 9.71633 13.8022 23.613 12.011 -0.00492452 -0.00788752 0.00371288 
C 16.3571 12.5953 3.43679 12.011 0.00373132 0.002328 0.000631239 
C 2.30055 9.17498 13.6517 12.011 -0.00398369 0.00144003 0.00217764 
C 34.4212 0.656768 37.0133 12.011 0.00128359 0.0138873 0.0013489 
C 50.8328 13.6359 26.5089 12.011 -0.000174921 0.00257011 -0.000136487 
C 41.0656 4.4925 15.5411 12.011 0.000377211 0.00174619 0.000905959 
C 50.1464 32.2624 32.2791 12.011 -0.00124165 0.00574915 -0.0107933 
C 9.03362 39.2928 0.0178205 12.011 0.00559191 -0.00596555 0.00424302 
C 40.977 19.9432 22.0188 12.011 -0.00318557 0.000674141 0.0101995 
C 32.3663 17.145 40.7473 12.011 -0.00684927 -0.000967988 0.00777622 
C 20.5485 23.5305 35.8798 12.011 0.00467782 0.000145436 0.000310349 
C 15.2757 42.4377 45.8573 12.011 4.95003e-05 -0.00912189 0.0019329 
C 3.16074 28.9682 45.1001 12.011 -0.00296837 -0.0023075 -0.000542119 
C 5.87961 36.9063 11.0682 12.011 0.00233405 0.00250019 -0.00197569 
C 1.00477 29.2227 48.4128 12.011 0.00384904 0.00789946 -0.00306713 
C 11.7473 45.7285 6.02441 12.011 -0.000780989 0.00150454 0.00139798 
C 8.58998 4.33568 26.1695 12.011 -0.00547127 -0.00343636 0.00162057 
C 43.7287 4.95606 18.9697 12.011 -0.00352912 0.000549331 -0.00834054 
C 19.1587 42.5434 48.2276 12.011 0.00257884 0.00283638 -0.000111278 
C 50.2673 39.1188 40.17 12.011 0.00225682 -0.00181889 0.0167513 
C 48.3241 42.0661 48.9506 12.011 0.00985296 -0.000433568 -0.00136064 
C 21.8644 23.5452 3.21507 12.011 -0.000791649 -0.00608336 -0.00701657 
C 22.4828 23.1835 41.6309 12.011 -0.00640048 -0.00153522 0.00504694 
C 11.6489 35.7952 33.5298 12.011 -0.0011022 -0.00698677 -0.00451667 
C 41.9901 14.2464 4.26988 12.011 0.000155067 0.00406684 -0.0114363 
C 10.1962 46.7277 39.7125 12.011 0.00148857 0.00987815 -0.000990303 
C 41.8289 17.0535 28.3457 12.011 0.00043521 -0.00991016 -0.00394113 
C 18.6747 4.60406 0.70913 12.011 -0.00180247 -0.00647188 -0.00483395 
C 33.5281 43.6116 45.4797 12.011 -0.00259446 0.00204212 0.00244901 
C 30.6641 30.0896 1.70875 12.011 -0.00995711 0.00366753 0.00474326 
C 29.195 27.635 15.1413 12.011 -0.00317859 0.00248907 0.0110099 
C 47.6246 7.06161 26.132 12.011 -0.0012323 -0.00235098 -0.00276561 
C 18.3058 47.1093 30.5404 12.011 0.010277 0.00343486 0.00575444 
C 23.655 15.7895 26.5018 12.011 0.00266303 0.00518087 0.00622794 
C 18.802 21.7898 11.8679 12.011 -0.00210225 0.00120358 0.00289191 
C 7.96167 43.4624 44.0296 12.011 0.00041573 -0.00749092 0.00182922 
C 41.9921 19.8174 48.1782 12.011 0.00431424 -0.00129484 -0.00886869 
C 29.006 5.5571 44.8658 12.011 0.00442113 -0.00416713 0.00458172 
C 21.033 21.2569 41.3328 12.011 -0.000139953 0.00574243 -0.0039677 
C 12.0847 33.6223 29.0316 12.011 0.00190646 0.00489004 0.010512 
C 11.8607 41.7433 27.1195 12.011 0.00650042 0.00311519 0.00646339 
C 16.9252 3.8583 46.6033 12.011 0.00155675 -0.000264571 -0.00348444 
C 34.6835 5.1644 22.3044 12.011 -0.000744976 0.00555276 -0.00364913 
C 6.26095 10.8725 26.0996 12.011 0.0104177 0.000577209 -0.00203505 
C 49.4256 3.57205 47.3775 12.011 5.74631e-05 0.00325924 -0.00807854 
C 31.0736 39.845 25.824 12.011 -0.00342549 -0.00441517 -0.00075601 
C 25.0867 31.8127 16.6805 12.011 -0.00247128 0.0041015 0.00252325 
C 31.5503 45.3007 17.3823 12.011 -0.00656552 -0.00821139 0.00318238 
C 2.06545 0.229732 39.904 12.011 0.00956736 -0.00105227 -0.00532715 
C 4.59267 4.68139 10.1441 12.011 0.00443262 -0.00768138 0.00201756 
C 40.6216 5.28076 33.7318 12.011 -0.00275487 -0.00295403 -0.00291121 
C 50.4521 0.155703 15.8509 12.011 -0.00235884 -0.00515807 -0.00156471 
C 11.8094 4.98443 35.6706 12.011 -0.00957107 0.00177004 0.00438253 
C 29.6092 8.98583 46.065 12.011 0.0011401 -0.00122186 0.00305921 
C 13.0719 21.5085 6.66639 12.011 0.00629801 0.00698777 0.00107658 
C 32.6952 39.6283 3.21427 12.011 0.00241725 0.00624615 -3.39718e-05 
C 23.0784 6.98637 1.9504 12.011 0.00363659 0.00611107 -0.0014885 
C 8.95191 30.2063 8.67217 12.011 0.000922739 0.00726944 -0.00584927 
C 21.7169 15.3306 4.68815 12.011 -0.00256111 0.00363903 0.000595106 
C 36.9452 7.25635 24.3446 12.011 0.00593087 -0.00261023 0.00193037 
C 1.51822 25.031 19.1752 12.011 -0.0106643 0.00222405 -0.00580609 
C 27.087 27.0525 2.9606 12.011 0.000353717 0.00386075 0.00344305 
C 26.3381 10.5534 27.5976 12.011 0.0012539 0.00133507 -0.00193401 
C 39.4814 30.5747 18.1504 12.011 -0.00160185 -0.00276287 -0.00193713 
C 21.3611 5.25651 16.9019 12.011 -0.00014977 -0.00205677 -0.000369832 
C 21.9666 0.726576 41.0429 12.011 -0.0014824 -0.00281435 0.00537883 
C 27.4068 50.5362 11.4299 12.011 0.00293881 -0.0122657 -0.000113795 
C 46.3802 24.4468 16.0059 12.011 0.00315104 0.00445827 0.000855105 
C 34.4234 20.0323 28.5807 12.011 -0.000582483 0.00106904 -2.0618e-06 
C 17.52 26.8148 23.822 12.011 0.00519345 -0.00228916 0.00261859 
C 24.4457 8.33501 22.1224 12.011 -0.00423452 0.00555073 0.00938967 
C 12.5493 51.0013 39.4383 12.011 -0.000609544 0.00573459 0.00441882 
C 10.1981 23.3926 39.8187 12.011 0.00339526 0.00246477 -0.00238684 
C 31.6905 11.5285 35.5376 12.011 0.0055648 0.00680687 1.29448e-05 
C 25.9467 15.063 50.1353 12.011 -0.00094471 -0.00585128 -0.00127007 
C 42.4146 26.9256 7.8607 12.011 -0.00227675 -0.00782736 0.00351917 
C 9.04162 15.2715 43.3087 12.011 -0.00226898 -0.0055769 0.000648277 
C 22.6438 4.72459 16.9092 12.011 -0.000189092 -0.00397028 -0.0110506 
C 46.4442 42.8268 29.5687 12.011 -0.00483029 0.000211166 -0.00853952 
C 33.1684 33.7387 48.5367 12.011 0.00232241 -0.00305047 0.00248037 
C 49.7914 4.94164 5.06473 12.011 -0.000812624 0.000595611 -0.00711399 
C 15.1942 38.5038 10.4405 12.011 0.000677112 -0.0030913 0.00408144 
C 39.6258 28.7245 50.376 12.011 -0.00369366 0.00255101 0.000352246 
C 21.1929 6.60207 17.373 12.011 0.00451936 0.00149376 0.00172584 
C 44.8651 46.5556 30.2291 12.011 0.0049083 -0.00693305 0.00207888 
C 37.5126 35.9891 40.4717 12.011 0.00589121 -0.00336035 0.000680576 
C 5.73114 26.6494 21.9035 12.011 -0.00131886 -0.00416612 -0.00295853 
C 38.8805 21.4342 35.7851 12.011 0.00248608 -0.00157754 -0.00129135 
C 24.4867 49.3767 13.8355 12.011 -0.00904952 -0.00225276 -0.0102672 
C 17.7374 16.5557 21.1206 12.011 -0.00167481 0.00385731 0.0064137 
C 7.05819 33.6844 36.7023 12.011 -0.00161861 0.00750705 0.00320749 
C 19.817 9.26885 3.86487 12.011 0.00416156 -0.00723192 0.00695364 
C 12.0001 33.0851 7.68459 12.011 0.00239556 -0.000204214 -0.00311429 
C 37.055 14.2857 13.1404 12.011 -0.00096788 0.00414605 -0.00890163 
C 32.7049 11.676 34.5229 12.011 0.00354635 -0.0109232 0.0065914 
C 30.6899 3.76845 42.3134 12.011 0.00164525 0.00135491 -0.00403693 
C 11.285 45.126 33.3695 12.011 0.00836466 -0.00026548 0.00109105 
C 31.0591 48.9055 9.40916 12.011 -0.00137995 -0.00345703 0.00354624 
C 2.11082 20.6726 25.673 12.011 0.00564778 0.00380026 0.00075996 
C 9.91228 14.1212 30.6498 12.011 -0.00211903 -0.0106636 0.000638997 
C 49.5845 42.2801 27.4344 12.011 0.0111859 -0.00465042 0.00147089 
C 14.3789 33.3869 6.92683 12.011 0.00785983 0.00427135 0.00408192 
C 11.7568 10.8352 37.2959 12.011 -0.000151409 0.00326444 0.00201332 
C 21.1023 50.3526 6.73122 12.011 0.00913464 -0.00824979 -0.00649647 
C 32.601 8.08891 8.88722 12.011 -0.00554259 0.00318598 -0.00574371 
C 3.11158 18.8326 36.1889 12.011 0.000223233 -0.00485199 0.000284569 
C 0.261073 44.2869 44.1506 12.011 -0.00574031 -0.0023505 0.00413441 
C 24.3408 22.4864 13.0941 12.011 -0.0069779 -0.00679109 -0.0050822 
C 35.4725 31.4122 41.2911 12.011 -0.0038686 8.08451e-06 0.0142169 
C 13.4332 15.0925 38.2799 12.011 -0.00162745 0.00168238 0.00287934 
C 2.13971 22.9759 26.4337 12.011 -5.01527e-05 -0.0079319 -0.000497701 
C 34.2919 18.5347 20.0088 12.011 -0.00100743 -4.88643e-05 -0.00535575 
C 22.7087 19.3399 16.6236 12.011 0.00485232 -0.00443221 0.00324856 
C 44.1244 38.0369 1.73421 12.011 -0.00464535 0.00235698 -0.00500286 
C 37.7083 28.7203 48.9853 12.011 -0.00396945 0.000168701 0.000654473 
C 24.8642 41.3916 17.1731 12.011 0.00541737 0.00550834 -0.00348278 
C 32.9896 47.4268 2.18821 12.011 0.00724976 -0.00134879 0.00222108 
C 39.6947 36.8717 44.7846 12.011 -0.00424453 -0.00778389 0.000817801 
C 37.7101 27.6781 39.8186 12.011 -0.00604372 -0.000985239 0.00167545 
C 32.9331 17.865 32.6819 12.011 0.00366273 0.00212203 -0.00851838 
C 17.5942 23.7955 3.2093 12.011 -0.00613324 0.00475407 0.00440126 
C 37.0634 42.4253 45.0419 12.011 -0.00545274 -0.00518099 0.00158 
C 40.3168 5.6396 29.0916 12.011 -0.00456473 0.00621075 -0.00518246 
C 19.9044 16.2296 3.50407 12.011 0.00368692 0.000256301 0.0019188 
C 19.8869 11.3518 42.5398 12.011 0.00292005 0.00223086 -0.00706314 
C 10.9008 23.9395 16.7652 12.011 -0.00182882 -0.00119003 -0.000935767 
C 1.06533 32.0403 11.0819 12.011 0.00584271 -0.00260443 0.00616959 
C 38.3355 44.7978 42.3968 12.011 0.000352178 0.00103095 -0.000621158 
C 23.8718 0.830728 44.8525 12.011 -0.00694939 0.000230548 0.00896838 
C 39.1348 30.7598 49.0861 12.011 0.00782747 0.00291262 0.00625543 
C 38.1041 29.1283 4.49513 12.011 0.00232791 -0.00137234 0.0032077 
C 24.2255 31.5761 47.6496 12.011 0.0027296 0.00583128 0.00249053 
C 9.34263 23.2762 33.3906 12.011 0.0097682 0.00239226 -0.00490623 
C 5.91611 41.835 46.5822 12.011 -0.00106196 0.00277809 0.00266365 
C 47.754 16.507 20.2699 12.011 0.00942413 -0.00212875 0.00235967 
C 6.85533 42.5181 11.7958 12.011 0.0055446 0.00463284 9.84127e-05 
C 11.9526 21.5545 30.0983 12.011 -0.00256235 0.00156841 4.21397e-05 
C 2.80658 19.7197 50.6608 12.011 -0.00639319 0.00170398 0.00211404 
C 29.6495 20.8369 39.226 12.011 0.00405687 -0.000495446 -0.00656321 
C 10.9079 13.8885 33.4821 12.011 0.00688002 0.00124058 -0.00561862 
C 50.8201 14.7575 40.5815 12.011 0.00553873 -0.00445663 -0.00103006 
C 29.5888 49.6954 17.3931 12.011 0.00472854 0.00111999 0.0035314 
C 0.48347 38.3715 40.6156 12.011 0.0053466 0.00222366 0.00438438 
C 35.4484 23.8837 36.5704 12.011 -0.00796509 -1.77104e-05 0.000397497 
C 10.0207 19.2153 6.75971 12.011 0.00273608 -0.00155376 0.00349838 
C 30.6229 16.3335 19.0529 12.011 -0.00648411 0.0118813 0.000604229 
C 21.1336 23.6461 4.41585 12.011 0.00305671 -0.00231164 0.00262289 
C 50.2649 42.7263 45.6637 12.011 -0.00429767 -0.000431669 0.00354256 
C 7.8291 44.5121 43.0592 12.011 -0.00541393 0.00264432 0.00190456 
C 40.6831 5.82066 15.2123 12.011 0.00136994 0.00598448 0.00411711 
C 24.6661 28.1973 29.0104 12.011 0.00559503 -0.000773677 0.00331691 
C 15.8873 50.1407 16.6144 12.011 -0.000838252 0.00723852 -0.00920457 
C 12.7019 37.8736 41.3266 12.011 0.00874045 -0.000974896 0.00483834 
C 7.42761 18.6217 31.8927 12.011 -0.0097405 -0.000816827 -0.000159181 
C 43.3559 49.5245 1.54726 12.011 0.00864326 0.000922453 0.00267239 
C 15.5817 43.913 13.355 12.011 0.00166475 -0.00242685 -0.00289876 
C 46.9274 23.5224 33.6136 12.011 -0.00832691 -0.000385505 -0.0015531 
C 49.0938 25.3616 12.0753 12.011 4.87013e-07 0.00328387 0.000504213 
C 6.94884 46.9252 48.5574 12.011 0.00196004 -0.0019894 -0.00513892 
C 32.3254 50.6751 13.2473 12.011 -0.00633548 0.00389854 -0.00276548 
C 50.1481 4.54498 3.75905 12.011 -0.00397121 0.00316951 0.00170847 
C 32.6545 21.1941 29.8271 12.011 -0.00297817 -0.00765168 0.000190597 
C 33.0229 5.80445 20.6251 12.011 -0.00197626 -0.00171404 0.00454931 
C 19.5715 16.0495 8.48685 12.011 -0.00623985 -0.00195448 0.00234789 
C 40.7079 49.7267 16.0995 12.011 0.00199501 -0.00469409 0.00128104 
C 38.6861 18.6772 18.6933 12.011 -0.00361237 0.0024268 -0.00293179 
C 23.7869 5.61487 44.8341 12.011 0.000981685 -0.00166257 0.0102606 
C 24.5656 23.6743 37.4335 12.011 -0.00315222 0.000120729 -0.00448804 
C 9.57996 7.66707 9.11145 12.011 0.00456195 0.00879407 0.00464203 
C 15.836 3.69684 21.8892 12.011 -0.00578812 -0.000259076 -0.00212921 
C 22.1964 47.8166 2.12259 12.011 0.00816422 0.00907705 0.000817007 
C 20.0903 15.4444 46.0205 12.011 0.000726642 -0.00615787 0.000800813 
C 15.9365 17.7924 30.6382 12.011 0.00083708 0.00474171 -0.00318402 
C 48.299 2.46682 9.20667 12.011 0.00244578 0.00267848 -0.00504183 
C 47.0317 49.0118 48.2371 12.011 0.0094727 0.00189981 -0.0042177 
C 49.349 8.67432 36.6428 12.011 1.37211e-05 0.00584682 0.00102726 
C 22.9073 5.07722 21.0542 12.011 -0.0014312 -0.00907173 -0.00257494 
C 1.42204 18.6909 1.02449 12.011 -0.0100013 -0.0053649 0.000857398 
C 43.2015 12.6482 35.2175 12.011 0.00633181 0.000956355 0.00605742 
C 32.7848 18.7204 24.7865 12.011 0.000499374 -0.00929926 0.000325843 
C 17.7419 48.1186 10.9303 12.011 0.00173378 0.00180136 0.00277372 
C 14.2521 10.5566 32.647 12.011 -0.00207344 -0.00433831 0.00729895 
C 30.922 2.8356 27.5628 12.011 -0.00241445 0.000689925 0.00551398 
C 49.2773 15.4674 28.3029 12.011 -0.00194804 -0.00278356 0.00240116 
C 4.40411 39.5592 7.24648 12.011 -0.000997467 0.00223396 -0.00405619 
C 34.8883 3.85759 40.7384 12.011 0.000211442 0.00771087 -0.000286021 
C 50.4661 36.8159 10.8137 12.011 -0.00196123 0.00505466 -0.00146823 
C 44.6024 1.21247 30.2096 12.011 0.00587948 -0.00103887 0.0024899 
C 20.1349 1.97364 30.6068 12.011 -0.000112521 0.00395167 0.0097237 
C 22.7151 35.6555 42.1612 12.011 -0.00375118 0.0026964 0.00696568 
C 1.10681 0.523441 38.9168 12.011 0.000417097 -0.00516265 -0.00277896 
C 24.0887 3.16448 6.45597 12.011 4.38936e-05 0.000413978 -0.00178461 
C 18.5763 49.0199 25.9908 12.011 -0.000100824 -0.00133204 0.00667675 
C 45.0479 25.2801 19.9619 12.011 -0.00102536 -0.00895467 -0.0103525 
C 17.9198 21.2027 14.8721 12.011 0.00770897 -0.0050468 -0.000210664 
C 30.6989 12.2867 12.5281 12.011 -0.00241653 -0.00251148 0.0035911 
C 0.721735 31.0483 31.2566 12.011 -0.00630686 -0.000308738 0.00735295 
C 23.0062 43.4576 1.95017 12.011 0.0106478 -0.00289076 0.00183919 
C 45.1391 25.4336 32.6827 12.011 0.00213809 0.00712363 -0.00401298 
C 30.0887 24.5051 30.8207 12.011 -2.7424e-06 -0.00240132 0.00229243 
C 11.4517 50.4947 12.2039 12.011 0.0060419 -0.00260281 -0.00695005 
C 2.35514 1.38451 7.81326 12.011 -0.00679725 -0.00170501 0.00125553 
C 26.0832 26.3842 3.68313 12.011 0.00342034 0.00271764 0.00904193 
C 10.3889 40.3041 35.0208 12.011 0.00362676 -0.00240284 0.00687411 
C 41.0482 31.1038 20.1302 12.011 -0.00455291 0.000873866 0.00137461 
C 19.0885 28.3321 45.9683 12.011 -0.00110866 -4.68376e-05 0.0044418 
C 45.0756 48.3836 35.0389 12.011 -0.000826287 0.00486062 -0.0038318 
C 11.8866 2.13959 43.0276 12.011 0.00530349 -0.0074769 -0.00202763 
C 6.48598 27.902 48.6962 12.011 0.00392851 0.00406037 0.00353093 
C 7.97866 9.56897 9.0284 12.011 0.00274929 0.000180648 0.000367797 
C 32.8791 44.341 32.7776 12.011 -0.00685739 0.00394851 -0.000994438 
C 19.0193 17.9893 49.6822 12.011 -0.00270505 -0.00457866 -0.0094736 
C 29.4913 36.9725 22.1679 12.011 -0.00157386 -0.00209965 -0.00236426 
C 28.7203 29.404 7.80374 12.011 0.012354 0.00794005 0.00177954 
C 6.96062 27.5002 4.18865 12.011 0.00885307 0.00150915 0.000785615 
C 22.2924 39.0094 43.794 12.011 -0.00508907 0.00399638 -0.00182502 
C 45.546 13.4463 20.3096 12.011 0.000326637 -0.000370406 0.00428917 
C 32.2635 17.4289 10.3701 12.011 9.04752e-05 0.00260889 0.00187775 
C 44.4241 7.30179 19.5723 12.011 -0.00393394 0.00653491 0.00168388 
C 34.2397 27.5719 9.49314 12.011 0.00297893 0.00920763 0.00687715 
C 15.8796 41.1548 25.7204 12.011 0.00425809 0.00463754 0.00750483 
C 13.0686 44.8044 38.5565 12.011 -0.00718525 0.00281421 0.00137599 
C 49.0646 49.3293 39.9456 12.011 -0.00686012 0.00203447 0.00425051 
C 19.8773 35.9929 35.4164 12.011 0.000334066 -0.0041072 0.00428292 
C 9.94826 31.2356 8.47815 12.011 0.00856243 0.00222332 0.00591474 
C 7.82953 15.0598 37.3541 12.011 0.00735763 0.00791268 -0.00147835 
C 21.4024 2.56289 33.9511 12.011 0.0051303 -0.00681672 0.0049405 
C 37.849 11.4715 30.6487 12.011 0.0048761 0.00138714 -0.000586043 
C 50.0491 19.8027 35.4319 12.011 -0.00466012 0.0010756 0.00269095 
C 8.52553 1.13415 18.1523 12.011 -0.00379206 -0.00335703 -0.000228074 
C 2.19027 48.766 14.9638 12.011 2.78529e-05 0.00760412 -0.0020904 
C 7.86632 10.9485 8.88959 12.011 0.00573191 -0.00555782 0.00998019 
C 37.4878 37.8326 44.3782 12.011 0.00498959 0.00376246 0.00417208 
C 29.0065 35.8244 20.0674 12.011 0.00506518 0.00123622 0.00143113 
C 28.7997 0.803499 23.3386 12.011 0.00567681 -0.00150369 0.0028598 
C 9.31009 33.3984 1.40585 12.011 0.00423833 -0.000874754 -0.00280471 
C 42.0515 39.9202 4.27878 12.011 0.00159258 -0.00115788 0.00111705 
C 48.8435 20.1283 19.5765 12.011 0.00524879 0.00172564 0.00792576 
C 36.0252 33.9512 28.151 12.011 0.00221404 -0.0045645 0.000533662 
C 20.0971 11.3048 15.8539 12.011 0.00604265 0.00563537 -0.000927776 
C 21.7184 22.4127 1.05819 12.011 -0.00506617 -0.000174835 0.000843241 
C 49.2224 38.1854 45.8533 12.011 0.000779896 -0.00139377 0.00423807 
C 41.8954 34.6537 47.6548 12.011 0.00379563 -0.00613321 -0.00838878 
C 18.2977 3.60865 14.5663 12.011 0.000751803 -0.00397329 0.00127837 
C 15.4098 35.3085 40.6739 12.011 0.0044006 0.00452968 0.000509873 
C 26.1932 29.693 37.0625 12.011 -0.000126017 0.00171921 -0.00682764 
C 43.8668 18.5975 27.8069 12.011 0.00110252 0.00109155 0.000245181 
C 34.5089 45.8922 48.9034 12.011 -0.00872851 0.00115099 0.00520745 
C 20.4421 8.45275 8.75379 12.011 0.00539825 -0.00201794 0.00443724 
C 0.848008 17.3346 24.604 12.011 0.00395965 -0.00189775 0.00508128 
C 25.969 36.7287 28.1174 12.011 -0.00383843 -0.00451555 0.00504784 
C 22.6576 33.2318 41.4517 12.011 0.000760618 -0.00565003 0.00305434 
C 35.6821 7.36014 1.48477 12.011 -0.00608465 -0.00201141 0.00680271 
C 42.2643 7.14028 40.9517 12.011 -0.0037677 0.000768178 -0.00634066 
C 20.8698 42.0115 31.0523 12.011 0.000443044 -0.00129218 0.000306986 
C 38.7919 8.05867 25.5037 12.011 -0.00219953 0.000257428 0.00883056 
C 16.6804 50.765 17.6184 12.011 -0.0016727 0.007562 0.0047171 
C 28.7231 6.6322 25.3682 12.011 0.00473644 -0.00614382 0.00777162 
C 43.8452 34.7529 50.8411 12.011 0.00995361 0.0017504 -0.00188225 
C 38.1659 7.39212 39.262 12.011 0.00322216 -0.000400806 -0.000942805 
C 44.6753 24.2292 17.7862 12.011 0.000701384 -0.00137838 -0.00807886 
C 32.5893 39.0738 11.6341 12.011 0.00022672 0.00152499 0.00419745 
C 32.2654 18.4464 40.1822 12.011 -0.00709461 0.00313969 -0.000559417 
C 45.1006 38.7087 0.94108 12.011 -0.00641777 0.00160382 -0.00123667 
C 35.7493 42.5146 45.2725 12.011 0.00344209 0.00316566 0.0015454 
C 50.0319 50.8936 8.23927 12.011 -0.00675325 0.00563107 0.00454946 
C 24.5238 19.4869 33.5328 12.011 -0.00197428 0.00404758 0.00856129 
C 3.36851 47.7875 48.8382 12.011 -0.00174638 0.0044336 0.00279817 
C 41.4294 14.7899 46.8301 12.011 -0.00681772 0.00754344 0.00303321 
C 16.1705 46.2299 22.0522 12.011 0.00404066 -0.000523775 0.00185191 
C 47.0266 44.1858 18.1283 12.011 -0.000103428 0.000431102 -0.00240396 
C 9.48676 4.47589 16.6427 12.011 0.00138858 0.00282127 0.0026274 
C 11.5721 45.4008 27.0846 12.011 -0.00292832 -0.00191734 -0.004023 
C 13.3561 31.6014 12.9125 12.011 -0.00498178 -0.00384285 0.00609941 
C 2.4742 13.5524 17.8144 12.011 0.00160827 0.00550277 -0.00513738 
C 47.1582 47.6576 8.0462 12.011 -0.00488254 -0.00332141 -0.00064727 
C 36.4281 40.1705 7.15953 12.011 -0.00343591 -0.0019881 0.00734106 
C 9.60815 41.7359 33.0873 12.011 -4.26539e-05 -0.000258507 -0.00439236 
C 20.3154 44.0433 35.6156 12.011 0.000743951 0.00612437 -0.00309037 
C 15.1541 14.956 30.8944 12.011 -0.00683455 -0.000404986 -0.0016776 
C 9.02822 45.7428 3.41555 12.011 0.00940617 0.00330077 0.00462921 
C 7.68175 32.3112 12.5404 12.011 -0.00985067 -0.00926346 -0.00189122 
C 48.5829 26.5927 31.4373 12.011 0.000344811 0.00125717 0.000772173 
C 44.0897 28.9912 1.61607 12.011 0.00191065 0.00102188 0.0042873 
C 1.66334 12.5399 21.2209 12.011 -0.00303281 -0.000906586 0.00416848 
C 17.1189 9.12184 47.6732 12.011 -0.00479363 0.00475515 -0.00297611 
C 42.3076 20.3867 21.8384 12.011 -0.000331499 -0.00387136 -0.000574303 
C 9.40514 3.25918 34.548 12.011 0.00206697 -0.00835686 0.00201583 
C 30.3284 45.6436 46.2065 12.011 -0.00510807 -0.00541783 -0.000709598 
C 7.99914 1.60536 19.4106 12.011 0.0043116 -9.32216e-05 0.00711415 
C 10.4349 21.0123 40.4576 12.011 -0.000888445 -0.00537304 -0.00155786 
C 27.0202 13.2735 2.22334 12.011 -0.00928641 -0.00356138 0.00198136 
C 32.7859 15.9009 47.0347 12.011 0.000271166 0.00216287 -0.00112607 
C 16.7502 24.8272 45.3468 12.011 -0.00117693 -0.0022244 -0.00703915 
C 4.22793 45.5816 33.7355 12.011 0.00101076 -0.00413548 0.000337475 
C 35.596 31.4508 26.7607 12.011 0.00129173 0.0118333 0.00454027 
C 18.5749 40.6306 36.6703 12.011 -0.0028443 -0.0012315 -0.00298053 
C 23.748 44.1946 4.67558 12.011 0.000220127 -0.00554132 0.000584386 
C 34.5346 30.195 36.6067 12.011 -0.000300495 -0.00439662 -0.00914125 
C 34.8723 49.9034 13.8423 12.011 -0.00870321 0.00101907 -0.00560239 
C 0.897107 34.5121 14.7578 12.011 -0.00163647 -0.00216504 -0.00319999 
C 35.556 20.7934 44.8766 12.011 -0.00307291 0.00122681 0.00111439 
C 15.9006 32.0659 49.9821 12.011 0.00056362 0.00568103 -0.00914812 
C 7.28437 30.7233 41.3497 12.011 -0.00110991 0.00599644 -0.0093244 
C 27.4218 23.8595 37.597 12.011 -0.00114151 0.00581966 0.00346535 
C 30.2621 28.3222 47.9856 12.011 0.00241572 0.00122425 -0.00859083 
C 7.31394 5.15199 19.9992 12.011 0.000397704 0.00112898 0.00455288 
C 39.6848 6.99158 21.2679 12.011 -0.0076598 -0.00390313 -0.000209595 
C 36.2355 12.1262 39.2897 12.011 0.000347335 -0.00269949 -0.00453791 
C 48.7946 15.0409 36.0028 12.011 -0.00164715 -0.00251511 0.00480458 
C 20.2557 14.1066 48.0059 12.011 -0.0023068 0.00466808 -0.00301903 
C 30.266 3.6866 40.8684 12.011 0.00285483 0.00691157 0.00731581 
C 46.1374 41.7528 26.5635 12.011 -0.000747595 0.00159272 -0.00724766 
C 16.8937 32.6448 17.7459 12.011 0.00195798 -0.00341719 -0.00537863 
C 21.9422 4.82697 25.8308 12.011 -0.00867488 0.0049676 0.00344594 
C 14.1569 44.8623 25.4445 12.011 0.00417997 -0.00208831 -0.00107929 
C 3.32761 2.17054 42.7073 12.011 -0.00170144 0.00234401 0.0028741 
C 50.083 41.3814 29.6496 12.011 0.00458658 0.00265143 0.000708175 
C 30.9019 23.1386 22.3841 12.011 -0.00204536 0.00582617 0.00513903 
C 12.9663 23.8726 30.0751 12.011 -0.00150549 0.000379785 0.000182339 
C 29.417 28.2593 0.583803 12.011 -0.000180356 0.00555782 0.00343806 
C 19.2738 33.5993 40.2567 12.011 -0.00412746 -0.00233287 -0.00418582 
C 14.4496 21.4108 6.95788 12.011 -3.33906e-05 0.00353777 0.00527001 
C 31.2915 45.9534 39.4418 12.011 -0.00250839 0.0046426 0.000101919 
C 12.9447 37.1233 12.7504 12.011 -0.00361724 -0.00288608 0.00626212 
C 3.24742 12.3262 31.0731 12.011 0.000169992 -0.000779826 -0.0039281 
C 0.308733 7.95498 2.25421 12.011 -0.00469434 0.000838695 0.00169419 
C 6.14577 48.6662 26.2858 12.011 -0.00905797 0.00656283 -0.000540711 
C 13.8128 13.9566 46.9822 12.011 0.00637609 0.00110687 0.000584826 
C 42.0233 16.8691 9.67243 12.011 -0.00292388 0.00408091 0.00348001 
C 26.0285 23.9203 14.0847 12.011 -0.00618862 0.00889914 0.00167847 
C 13.7534 49.7068 33.8845 12.011 0.000114834 0.00393028 -0.000756321 
C 35.349 26.6612 35.9756 12.011 -0.00287631 0.00118445 0.00184946 
C 9.47654 22.3661 13.7604 12.011 0.00236904 -0.00159407 -0.00700122 
C 20.9472 16.0156 19.2983 12.011 -0.00233846 -0.00220636 0.00459655 
C 7.03496 29.963 3.79063 12.011 -0.000878405 -9.19282e-05 0.00208232 
C 45.9991 6.90237 36.07 12.011 -0.00233126 -0.000332521 -0.0057086 
C 34.9523 32.7477 41.5442 12.011 0.00824864 -0.00147001 0.00471068 
C 22.9016 31.9477 48.0166 12.011 -0.00371543 -0.00904471 0.0124738 
C 50.0037 7.38106 45.7076 12.011 0.00523246 0.00235147 0.00145603 
C 41.4801 50.771 0.530859 12.011 -0.0066549 -0.00134355 0.00548897 
C 18.065 0.652413 21.754 12.011 -0.00350314 0.00379586 0.000222973 
C 5.40056 20.3435 20.1346 12.011 0.0106936 0.00319536 -0.00509309 
C 32.2807 47.7478 28.9981 12.011 0.00320943 -0.00268633 0.00551681 
C 4.94117 14.642 43.0583 12.011 0.00332828 0.0085078 0.00741049 
C 26.6099 1.68908 21.6984 12.011 0.000578427 -0.0031001 0.0124019 
C 20.4251 12.9783 40.7626 12.011 0.00527063 0.00574013 -0.00477865 
C 18.5342 32.2682 7.27457 12.011 0.000265497 0.000445365 0.00331915 
C 16.5252 26.1897 10.9078 12.011 -0.000242492 -0.00778671 0.00133219 
C 50.0384 25.1603 38.6975 12.011 0.00221189 -0.00228522 -0.00267322 
C 25.3619 35.64 42.7537 12.011 0.00835033 0.00250097 -0.00251474 
C 49.8033 39.0275 30.0413 12.011 -0.00837937 -0.00381945 -0.0039536 
C 40.21 36.5474 8.27106 12.011 -6.31834e-05 -0.00271952 -0.00262787 
C 0.910131 9.70564 50.5329 12.011 -0.00707993 -0.000891504 -0.00251823 
C 25.2826 42.6571 17.704 12.011 -0.00116006 -0.000500352 0.000782239 
C 6.89442 39.7144 12.0695 12.011 -0.0027121 -0.00292995 -0.0074069 
C 45.3296 2.06879 38.6309 12.011 -0.00319205 -0.00356559 0.00486941 
C 19.5058 1.1254 39.1934 12.011 -0.00448012 0.000570241 0.00519504 
C 34.897 50.7946 39.3445 12.011 0.0058149 0.00583756 0.00130743 
C 9.91035 12.6357 30.9169 12.011 0.00640273 0.00858968 -0.0111448 
C 8.3973 12.2653 28.9215 12.011 -0.00754698 0.00827211 0.000969799 
C 7.17117 13.1013 10.2546 12.011 0.00181079 -0.00599466 0.00692425 
C 2.16249 39.8317 6.64445 12.011 -0.00191199 -0.00183417 -0.0034143 
C 34.9667 33.8608 14.8881 12.011 -0.00896584 -0.00403445 0.00368372 
C 37.4673 37.3388 29.1875 12.011 -0.00974008 0.00531708 0.00180002 
C 44.2607 35.1111 7.65134 12.011 0.00268761 0.00841223 -0.00199603 
C 49.9241 37.2842 50.7479 12.011 0.00536767 0.00452556 0.00231104 
C 46.5524 15.8502 2.6291 12.011 0.00195875 -0.00631065 -0.0114035 
C 32.1777 13.6023 48.634 12.011 0.000445203 0.00119585 -0.00314134 
C 14.7115 37.33 11.0088 12.011 0.00399995 0.00162783 0.000632748 
C 44.4428 6.11003 41.2249 12.011 -0.000695918 -0.00377505 4.13385e-05 
C 50.9359 31.6554 11.8245 12.011 -0.00968273 -0.00536275 -0.0054273 
C 2.08162 26.7811 20.8504 12.011 0.000626466 -0.00220748 5.98368e-05 
C 42.9466 31.3797 36.5469 12.011 -0.00240721 -0.00199721 0.00146431 
C 39.3855 6.88728 38.5345 12.011 0.00437841 -0.00913514 -0.00492949 
C 40.8256 45.9492 10.0925 12.011 -0.00437537 -0.00348733 -0.00450537 
C 11.9557 8.07677 17.0646 12.011 -0.00503063 0.00478277 -0.00301049 
C 14.0524 50.0608 18.1823 12.011 0.000418949 -0.00105988 0.00155232 
C 18.6398 3.52371 45.0491 12.011 0.000536272 0.000970513 0.00216758 
C 26.5085 0.889309 36.6814 12.011 -0.0116388 0.00763374 -4.81275e-05 
C 28.8778 23.6553 6.0375 12.011 0.00269872 0.00341694 -0.0071374 
C 9.9153 9.39332 7.41721 12.011 -0.00633932 -0.00113773 -0.00223311 
C 12.0869 31.4887 40.1526 12.011 0.00186707 0.00202924 0.00536442 
C 22.2385 11.9181 41.8587 12.011 -0.00171864 -0.000890054 0.00109989 
C 9.43716 6.18996 44.399 12.011 -0.00176925 -0.00419382 -0.0069897 
C 28.0931 26.365 45.5773 12.011 -0.00491642 -0.000637261 -0.00570133 
C 5.23969 29.8365 42.5371 12.011 -0.00268592 -0.00607023 0.00285483 
C 5.50094 20.3183 7.36252 12.011 -0.00306361 0.000524943 -0.00734113 
C 39.2282 37.1684 7.40821 12.011 -0.00336284 -0.00718634 0.00870677 
C 16.7106 14.5821 21.9672 12.011 -0.00224507 -0.00137439 -0.00448491 
C 2.72963 15.3682 8.51108 12.011 -0.00562031 -0.00117207 -0.00451707 
C 14.4427 25.8447 31.9937 12.011 0.00310977 0.00113107 0.00385532 
C 18.7786 22.6161 27.3606 12.011 -0.000200613 -0.00185918 -0.000598966 
C 24.6416 1.93533 35.5428 12.011 -0.00593032 0.00301398 -0.00179027 
C 33.2685 32.3372 29.9488 12.011 0.00112074 -0.000108257 -0.00291689 
C 5.20152 1.40358 31.0339 12.011 -0.00578333 -0.00624275 0.00429245 
C 42.6366 22.9217 17.4904 12.011 0.00198018 -0.00513783 -0.00242903 
C 39.0811 7.87843 43.3535 12.011 0.00421032 0.00725508 0.00697521 
C 15.0078 8.262 22.741 12.011 -0.00157244 -0.000630571 -0.00966534 
C 13.2324 40.1023 38.1611 12.011 0.000952591 0.00358659 0.00751313 
C 5.32406 26.0784 32.4815 12.011 0.0111282 -0.00582952 0.00607082 
C 24.7053 27.3093 22.6673 12.011 -0.00291988 0.00291353 0.000860145 
C 27.163 33.2675 21.0821 12.011 0.0046079 -0.0105475 0.00239002 
C 9.12692 36.8191 41.0218 12.011 -0.00651312 -0.000201148 -0.00115639 
C 31.1755 37.8518 50.0679 12.011 -0.00331234 0.000236808 0.00385461 
C 41.6375 25.7853 21.697 12.011 2.58258e-05 -0.00584463 -0.00434057 
C 11.0716 0.422745 21.7243 12.011 0.00619432 -0.00187946 -0.000359745 
C 32.7535 49.1473 11.3852 12.011 -0.00317625 -0.00278129 0.00717954 
C 17.5979 23.5085 0.820101 12.011 -0.00254504 -0.0013845 -0.000234349 
C 42.1062 3.93215 35.4605 12.011 -0.00327691 0.00523417 -0.0047948 
C 45.6973 13.0101 12.4802 12.011 0.00540901 0.00103 -0.000308792 
C 36.315 14.3707 4.49576 12.011 0.00703957 -0.000730609 0.011343 
C 3.35774 17.9771 11.1435 12.011 0.00275801 -0.00123264 0.00891362 
C 40.6014 49.3106 28.8823 12.011 -0.0110921 0.00191653 -0.00290144 
C 11.2975 22.1266 20.7211 12.011 -0.00401264 -0.00652588 0.00686812 
C 45.8923 20.8554 34.688 12.011 -0.00182436 -0.000913562 0.005148 
C 13.2936 30.261 0.873008 12.011 0.0035067 0.000479293 -0.00229159 
C 23.5889 18.9949 32.544 12.011 0.0048516 -0.00158372 -0.000174357 
C 18.1557 49.516 50.7431 12.011 0.00356663 0.00467892 -0.00562111 
C 28.5377 39.8818 48.5246 12.011 0.00716489 0.00648612 -0.00280303 
C 17.4399 23.9194 34.0821 12.011 0.000983552 -0.00102293 -0.00064447 
C 27.9969 28.4372 10.4705 12.011 -0.000719665 0.000569693 -0.000803577 
C 26.7652 13.8114 7.54458 12.011 -0.00111783 -0.00778842 0.00705521 
C 16.8636 43.132 39.0407 12.011 0.00349433 0.000845719 0.00815958 
C 44.0317 40.2942 2.23563 12.011 0.00288037 -0.00856735 0.000803513 
C 18.5725 48.5637 32.5132 12.011 0.00252863 0.000776768 0.00940742 
C 4.82418 26.6177 37.2383 12.011 -0.0056363 0.00108455 -0.00683102 
C 42.626 39.8864 34.6649 12.011 -0.000787371 0.0041923 0.000117587 
C 28.5059 25.6064 16.3351 12.011 -0.00113654 0.00460033 -0.000338665 
C 12.7939 8.50077 43.044 12.011 -9.5175e-05 0.00148033 0.0024763 
C 27.2233 13.0495 11.2018 12.011 -0.00358369 0.00656225 0.00139926 
C 32.9891 34.0656 3.72632 12.011 0.00115866 0.00155308 0.00105086 
C 4.39332 9.9178 45.2053 12.011 0.000151024 0.00503484 -8.96231e-05 
C 34.2437 13.183 33.3312 12.011 -0.00290669 0.000579081 0.00498035 
C 14.9226 9.94956 41.9076 12.011 -0.000513145 0.00114267 0.00479859 
C 36.6439 44.4468 7.58089 12.011 0.00305583 -0.00412041 0.000477552 
C 41.6513 43.0861 2.60471 12.011 -0.00408317 0.0055363 -0.00119305 
C 5.49756 38.8443 7.98459 12.011 0.00221928 -0.00247161 0.000179818 
C 29.4048 14.4454 1.80566 12.011 -0.00769946 0.00523278 0.000198805 
C 29.8186 47.2857 49.6713 12.011 -0.000426841 0.000519275 0.000224439 
C 50.7668 17.0921 36.0451 12.011 -0.000251314 -0.00561987 0.0012559 
C 4.03601 6.20647 35.745 12.011 -0.00809274 0.00445176 0.00536287 
C 47.6018 9.42567 26.5874 12.011 0.0154368 9.35953e-05 0.000596015 
C 49.2375 49.0231 42.7166 12.011 0.00186204 -0.000869852 0.00339351 
C 14.3652 7.02961 23.2536 12.011 0.00179632 0.00216586 1.55414e-05 
C 50.8081 30.9314 39.3217 12.011 0.00320772 0.00983408 0.000287386 
C 16.8481 33.4412 40.0434 12.011 0.0049679 -0.00264128 0.000126277 
C 29.9509 15.7039 20.2019 12.011 0.000825212 0.00162031 -0.00805513 
C 49.3581 27.7756 12.5416 12.011 0.00340975 0.00827098 -0.00903822 
C 4.58638 11.6023 4.06603 12.011 0.00306435 0.000558265 0.00142933 
C 21.0802 25.4721 27.2158 12.011 -0.00107251 -0.00358307 -0.00828318 
C 40.5628 45.2565 46.7435 12.011 -0.00240029 0.00132284 0.00254821 
C 41.44 46.9901 33.7577 12.011 0.00059495 0.00118935 0.00162225 
C 27.3005 0.150816 6.36085 12.011 0.0022314 -0.00245206 -0.00205608 
C 36.5082 27.967 10.3107 12.011 0.000192348 -0.00222241 -0.00295204 
C 40.9138 38.5369 6.08831 12.011 -0.00302647 -0.00337314 -0.00434913 
C 37.6188 47.0247 24.7039 12.011 0.00363741 -0.00129806 0.00244818 
C 50.415 43.5221 4.27904 12.011 0.00510815 -0.00181832 0.000342837 
C 14.3238 40.7935 0.706473 12.011 0.00430679 -0.00154054 0.00510674 
C 24.2821 31.4915 30.3153 12.011 -0.00196928 0.00503911 0.0025496 
C 35.3136 31.765 20.0157 12.011 -0.00408004 -0.000890888 3.80442e-05 
C 4.31444 6.64716 23.3421 12.011 -0.00124967 -0.000177577 -0.00282443 
C 9.77571 47.2692 18.6749 12.011 0.00457958 -0.00476128 0.0114901 
C 28.0809 19.9919 45.9526 12.011 0.00122305 -0.00315157 -0.0016167 
C 17.0946 12.0519 5.704 12.011 -0.00313754 -0.00128898 -0.000505677 
C 4.74891 20.4025 40.8252 12.011 -0.000533367 0.003983 0.00134829 
C 32.2141 30.4225 36.9773 12.011 0.00381853 0.00711033 -0.00236601 
C 2.74805 47.7426 30.8238 12.011 -0.00260943 -0.000578961 -0.00199344 
C 18.1192 46.9447 29.1372 12.011 -0.00617512 0.00180823 -0.00176711 
C 43.2221 15.0403 4.39832 12.011 0.00195288 -0.0057917 0.000726002 
C 26.1471 21.3383 20.0849 12.011 0.00301472 -0.000883335 0.00352784 
C 26.3598 40.5143 36.3643 12.011 -0.000261517 0.00239323 -0.00461374 
C 21.6235 12.6446 14.4421 12.011 0.00253149 0.0052204 0.00526909 
C 25.3198 2.01496 21.2242 12.011 -0.00650416 -0.00477766 0.000940565 
C 46.1661 17.646 28.348 12.011 -0.00606536 0.00620299 0.00285589 
C 11.1107 45.5258 14.9494 12.011 -0.0052729 0.00433485 0.00768429 
C 10.9392 39.237 5.99958 12.011 0.00227493 0.000443031 0.000119947 
C 25.9516 29.3625 22.914 12.011 0.0117681 -0.00289517 0.00443675 
C 2.12023 0.788125 22.9728 12.011 0.00351464 0.00518671 -0.00427049 
C 13.6135 22.9899 10.7116 12.011 0.00427555 0.00724933 -0.00345272 
C 32.0987 9.71965 3.50597 12.011 0.00182108 0.00809827 0.00185852 
C 38.4681 11.2461 48.5626 12.011 -0.00578425 0.00500627 -0.00442624 
C 37.0612 14.1326 6.75556 12.011 0.00078118 0.00474269 0.00163345 
C 26.6996 48.9789 20.8533 12.011 0.00563894 0.00543397 0.00563033 
C 29.8245 34.1287 37.1087 12.011 -0.000442789 0.00539348 0.00661525 
C 1.36351 48.761 4.40124 12.011 -0.00500373 -0.00250102 -0.0128921 
C 20.0996 17.0357 44.1359 12.011 0.000316421 0.00536159 -0.00516989 
C 8.92399 43.611 12.4698 12.011 0.00138904 0.00251556 0.000709734 
C 5.84702 30.6916 12.8207 12.011 0.00218602 -0.00366562 0.000480909 
C 32.7003 42.6193 9.59113 12.011 0.00214868 -0.00227863 0.00609233 
C 14.4627 31.7664 39.9144 12.011 -0.00579258 0.00712705 -0.00499214 
C 2.48552 26.3442 37.8917 12.011 -0.00370193 0.00386432 -0.0103604 
C 19.3368 2.75551 15.1743 12.011 -0.000898027 0.00184598 -0.00195268 
C 40.1028 17.6924 43.1599 12.011 -0.00648441 -0.000698664 -0.0042844 
C 14.9679 48.487 49.5722 12.011 -0.0111564 -0.00233315 -0.00578899 
C 2.04279 10.8247 15.3442 12.011 -0.00359886 0.00219227 -0.00640434 
C 18.3813 1.72632 41.3327 12.011 0.0025054 -0.00624259 0.00611098 
C 15.2001 25.6985 1.08747 12.011 -0.00316272 0.00210539 -0.00304741 
C 28.2519 6.01064 42.4785 12.011 0.00157917 -0.006059 -0.00508308 
C 41.4707 14.36 35.1563 12.011 0.000783216 -0.00448244 -0.00960948 
C 2.25367 37.357 2.99926 12.011 -0.0011107 0.00321085 -0.000962326 
C 10.4967 26.0627 4.26356 12.011 -0.00559288 0.00372722 -0.00622351 
C 18.2925 3.59217 5.59613 12.011 -0.000643206 0.00252875 0.00380389 
C 11.002 12.5633 48.9458 12.011 -0.00938998 0.000960124 0.00498511 
C 42.5757 7.88143 42.1416 12.011 -0.00544486 -0.00256287 0.00415763 
C 24.2838 14.0147 28.6894 12.011 0.00583919 0.00557243 -0.00309317 
C 28.7563 23.9145 31.3257 12.011 -0.00476098 -0.00258192 -0.00135057 
C 43.048 20.4513 20.7403 12.011 -0.00133523 -0.0043814 0.00299801 
C 19.0577 22.0871 28.6594 12.011 -0.00114157 -0.00196028 -0.0021507 
C 12.4774 46.7713 46.1675 12.011 0.00101494 0.00434491 -0.00045585 
C 48.4817 30.921 2.11065 12.011 0.00318227 0.00740595 0.0023455 
C 5.29002 41.1256 18.3881 12.011 4.83578e-05 -0.00189408 0.0100031 
C 48.7648 50.2783 42.2091 12.011 -0.00528105 0.000794213 0.00334313 
C 44.7157 32.4508 35.1205 12.011 0.00221993 -0.000397546 0.0118143 
C 16.8247 15.9578 22.0482 12.011 -0.00228661 -0.00428693 0.000911082 
C 16.3212 48.2592 10.8739 12.011 -0.00357684 -0.00996541 -0.00173647 
C 27.3033 21.8757 20.7858 12.011 0.00458807 -0.00270001 0.0032912 
C 25.2867 24.3397 11.7403 12.011 0.000167808 0.00139399 -0.00357917 
C 17.1524 7.77093 1.36359 12.011 0.00105489 -0.00109395 -0.00241712 
C 13.3807 4.41184 29.3403 12.011 -0.00364918 -0.00955296 -0.00313274 
C 42.9572 31.223 2.87775 12.011 0.00200765 -0.00853025 0.000891259 
C 14.1502 37.9365 37.1594 12.011 -0.00237186 -0.0040001 0.00478535 
C 46.2538 18.0447 46.4353 12.011 -0.000579874 -0.00287004 -0.00109779 
C 31.5197 26.0592 37.111 12.011 -0.00402033 -0.0011905 0.00172317 
C 22.3202 31.5884 10.3904 12.011 -0.00497653 0.00229417 0.00228505 
C 0.0806322 38.3014 2.79765 12.011 -0.00234862 0.0049768 0.00754777 
C 27.3099 20.9479 1.18787 12.011 0.00411948 0.00767511 0.0090146 
C 1.76502 23.2402 44.0725 12.011 -0.00120187 -0.00697757 0.00322282 
C 3.25782 24.6312 34.1592 12.011 0.000256358 0.00327613 -0.00115133 
C 3.1365 13.7311 37.0539 12.011 0.00453489 -0.0100157 -0.00328498 
C 21.1273 2.05374 24.3421 12.011 -0.000884856 -0.00397131 -0.00361548 
C 20.1829 13.7563 21.0288 12.011 0.00310271 -0.00905059 0.00848632 
C 10.4539 45.9522 45.3851 12.011 -0.00360169 -0.000130819 -0.00275531 
C 12.9231 41.6525 49.4615 12.011 -0.0131482 0.00463598 0.00165371 
C 48.9756 32.5916 13.2762 12.011 -0.0010415 -0.00475431 -0.00278031 
C 37.9812 2.46246 11.3023 12.011 0.00670386 -0.0030276 -0.00173545 
C 46.5132 40.0303 44.4742 12.011 -0.0031495 0.00142545 0.00210726 
C 47.0583 32.8202 15.7055 12.011 -0.00281415 0.00447176 0.00344 
C 32.3531 47.878 4.56173 12.011 0.00407081 -0.00504693 0.00512224 
C 38.8225 17.3037 43.8146 12.011 -0.00411564 -0.00926066 0.00121117 
C 15.5239 34.6459 14.9774 12.011 0.00641453 -0.00340258 0.00168263 
C 19.3319 48.1565 49.0524 12.011 -0.0015446 0.00198713 -0.00147961 
C 44.4009 39.1029 14.6796 12.011 -0.00862712 0.00625301 0.00317552 
C 3.68156 14.5928 29.7694 12.011 0.00446792 9.82701e-05 0.000140122 
C 27.8023 25.3634 25.3637 12.011 -0.00678176 0.00262506 -0.00136065 
C 11.175 31.8184 12.3897 12.011 -0.00151839 0.00396853 0.00184926 
C 17.3496 28.8387 22.6953 12.011 -0.0022207 0.000673747 0.007979 
C 50.0915 3.47717 50.669 12.011 -0.00401534 0.00232515 0.000513331 
C 37.5513 44.8523 19.2637 12.011 0.000305449 0.0103683 0.00525768 
C 46.5569 1.94364 11.319 12.011 -0.00731283 0.00360867 -0.00102241 
C 25.3802 40.1967 46.5659 12.011 -0.00449227 0.00315262 0.00286986 
C 34.1248 0.890781 21.7262 12.011 0.00333184 -0.00562766 0.00220905 
C 21.8293 22.148 31.0689 12.011 0.00591704 -0.0100544 -0.00477362 
C 2.48635 21.2077 40.455 12.011 -0.00251682 -0.000818682 -0.00276389 
C 2.85073 36.0775 4.91341 12.011 0.00198175 -0.00634159 -0.00313158 
C 50.4148 6.7678 49.0059 12.011 -0.00745979 -0.00622104 -0.00503269 
C 6.98729 47.0703 45.9451 12.011 0.00320278 -0.000393683 -0.00222519 
C 39.8574 26.676 25.4687 12.011 0.000797372 -0.0084093 -0.0052284 
C 16.4428 24.7205 33.4707 12.011 0.00290559 0.00464608 0.00812054 
C 29.3504 29.9556 9.02844 12.011 0.00697083 0.00306567 0.00731693 
C 40.8288 44.0102 1.95024 12.011 0.00685851 0.0100301 0.00643374 
C 32.2635 1.11651 19.961 12.011 -0.00822571 0.00714758 -0.00162977 
C 47.8857 1.09533 16.471 12.011 0.00218183 -0.000762422 0.00340474 
C 16.3232 6.54393 16.0498 12.011 0.00417534 -0.00373302 0.000504688 
C 10.0679 48.3695 41.4636 12.011 0.00312019 0.000781952 0.00372565 
C 27.4235 34.4535 42.8135 12.011 -0.00421857 -0.00195404 0.0057336 
C 18.5147 42.7421 50.544 12.011 -0.000827101 0.0024631 9.901e-05 
C 14.9758 39.1806 39.2293 12.011 -0.00183472 -0.00264997 0.00131824 
C 39.6201 44.4793 2.6119 12.011 0.00765731 -0.00647584 -0.00461125 
C 27.3821 35.6544 24.8682 12.011 -0.00157342 -0.00646066 -0.000906451 
C 40.7929 30.3333 11.613 12.011 -0.00136147 -0.00573917 0.00171976 
C 5.4974 43.378 44.3097 12.011 0.000524141 0.00585626 0.00690332 
C 19.1467 22.8184 39.8911 12.011 0.0046243 0.000415437 0.00648488 
C 14.1446 39.5345 10.5456 12.011 0.00911188 -0.00280399 0.000977504 
C 29.56 36.8694 4.40057 12.011 -0.0017034 0.00459386 -0.00080795 
C 38.8043 26.7534 7.58719 12.011 0.00519103 0.000451521 -0.000828079 
C 17.4046 42.7594 11.7224 12.011 -0.00316316 -0.000535761 0.0119635 
C 21.0689 1.15008 35.939 12.011 -0.00579855 -0.00179417 0.00085206 
C 23.853 50.468 14.4265 12.011 -0.0055253 -0.00382113 0.00969029 
C 11.3705 35.6193 6.59824 12.011 0.000772068 -0.00195516 -0.000713644 
C 20.8329 2.94284 29.8384 12.011 -0.0106537 -0.00838756 0.00293149 
C 42.84 2.68025 18.3545 12.011 0.00268113 0.00157366 0.000976045 
C 9.01822 46.6415 47.4196 12.011 0.00443232 -0.00519858 -0.00150884 
C 33.0602 35.9701 33.4456 12.011 -0.00589248 -0.00349529 0.00713127 
C 14.0891 24.7579 23.7934 12.011 0.00193777 0.00272801 -2.96571e-05 
C 40.8521 19.4464 15.6343 12.011 -0.00412453 -0.00745807 0.00167099 
C 35.5551 19.1708 20.3761 12.011 -0.00387219 -0.000764824 0.00477547 
C 34.2661 35.8168 35.7736 12.011 -0.00647435 0.00619829 -0.000861434 
C 13.1754 34.9564 22.6751 12.011 0.00191585 -0.000527153 0.0012397 
C 15.6143 24.7696 2.035 12.011 -0.00146803 -0.00708464 -0.00209039 
C 12.9569 9.68578 3.3804 12.011 0.000734546 0.00514826 -0.00293731 
C 5.67237 47.2344 50.5115 12.011 -0.00486592 -2.14184e-05 0.00975337 
C 21.3618 33.7652 4.40764 12.011 0.00128372 -0.00607338 0.00370224 
C 26.4675 33.4901 12.628 12.011 0.00497906 0.00133587 -5.85764e-05 
C 6.91304 25.0424 4.5392 12.011 0.012556 0.000641443 0.00417128 
C 20.5336 28.4496 23.8507 12.011 0.00854693 -0.00746567 -0.00413678 
C 19.4551 41.465 35.9041 12.011 -0.00886387 -0.000451814 -0.00361202 
C 49.2887 18.2713 4.77145 12.011 -0.0091878 0.00297926 0.00293815 
C 3.61731 26.0201 50.0022 12.011 0.00350678 -0.000881367 0.00439805 
C 16.1928 45.0257 16.0012 12.011 0.00692923 -0.00327196 0.00703422 
C 43.1984 19.2384 12.4865 12.011 -0.00816988 -0.0037445 -0.00101014 
C 7.8259 44.5317 12.4457 12.011 -0.000130085 0.002047 0.00468624 
C 35.9807 43.1865 27.238 12.011 -0.00126367 0.00183578 -0.00396485 
C 30.2731 7.66751 37.151 12.011 -0.00883707 -0.000423915 -0.00173754 
C 31.9816 42.8558 17.5849 12.011 -0.00608624 -0.00414887 0.00338305 
C 26.0462 50.6689 11.5921 12.011 -0.00162276 -0.00109837 -0.00735729 
C 25.6211 27.3886 36.9979 12.011 -0.000114498 0.00883288 -0.00531614 
C 48.0032 38.1613 15.1006 12.011 0.00193143 -0.00395538 0.00445764 
C 1.81403 21.9788 25.4566 12.011 -0.00491972 -0.00207719 0.00652908 
C 26.134 33.5713 50.15 12.011 -0.00316449 0.00566192 0.0095914 
C 28.343 34.8486 19.3206 12.011 -0.0110703 0.00221566 0.00338544 
C 21.9506 23.3037 9.28293 12.011 0.00312533 -0.00551341 0.00838836 
C 14.6369 24.0303 10.737 12.011 -0.00123409 0.00198077 0.00241872 
C 11.0905 19.1781 15.2441 12.011 -0.00179824 0.00880395 0.0050807 
C 9.75872 34.6614 0.985691 12.011 0.00422919 0.00461419 -0.00102542 
C 42.0204 26.8245 26.6889 12.011 0.00240428 0.00993992 0.00274533 
C 11.7788 9.03335 5.78803 12.011 0.00326205 0.00135999 0.00701949 
C 38.2342 4.70368 27.3106 12.011 0.000501131 -0.00702851 -0.00177781 
C 6.77758 22.7552 5.12807 12.011 -0.00542986 0.00542688 -0.000236144 
C 11.4035 30.4833 12.9095 12.011 -0.00120579 0.00853259 -0.00152865 
C 43.8426 26.9151 0.377167 12.011 0.00278158 0.00261277 0.00817408 
C 3.8484 41.033 5.41625 12.011 -0.00505117 -0.00514603 0.00118906 
C 33.2912 11.0756 16.9025 12.011 -0.00444982 0.00536935 -0.00130746 
C 27.5686 29.5841 37.0065 12.011 0.000578851 0.00219187 -0.0065825 
C 39.877 30.4288 19.4979 12.011 0.00209143 0.00461934 0.00521504 
C 40.7367 9.85282 46.1186 12.011 -0.000937333 -0.0018657 0.00662832 
C 1.23739 24.382 39.0322 12.011 -0.00319291 0.000752475 -0.00137642 
C 10.8744 34.4518 19.007 12.011 0.00885465 0.004613 0.00435361 
C 17.8598 25.3475 16.4581 12.011 -0.00154796 -0.00518978 0.00788176 
C 31.221 6.0705 43.4211 12.011 0.000142475 0.0143571 -0.00104638 
C 47.2476 15.4503 12.6254 12.011 0.000373763 0.0010885 0.00350449 
C 28.6529 49.5566 22.272 12.011 0.00840619 -0.00600144 0.0012146 
C 32.9869 39.0325 8.62318 12.011 0.00296055 -0.00246458 -0.00149516 
C 47.0258 25.4885 16.8172 12.011 0.00711424 -0.000649709 -0.00358673 
C 18.0036 5.79091 34.0107 12.011 0.0029197 -0.00632949 -0.00211301 
C 28.516 43.2049 3.82864 12.011 0.00213153 -0.000764439 -0.00521254 
C 6.55637 46.9497 33.3689 12.011 -0.00266012 -0.00492606 -0.000155228 
C 32.9446 46.7316 18.6178 12.011 -0.00773711 -0.0030336 -0.00538222 
C 14.259 2.2987 36.8667 12.011 -0.0024325 -0.00531543 -0.00530179 
C 46.3885 5.78559 11.2701 12.011 -0.000163714 -0.00103025 0.00722266 
C 33.8331 41.7863 28.3478 12.011 0.00133402 -0.00705451 -0.00225627 
C 13.4802 23.3538 45.7045 12.011 -0.00285471 -0.00852957 -8.39214e-05 
C 47.4302 39.9198 50.6932 12.011 0.00611923 -0.00293907 -0.00522085 
C 26.4456 25.9615 0.912969 12.011 0.00974556 0.0065284 0.00131132 
C 22.8193 28.9234 19.9339 12.011 0.00109358 -9.7493e-05 0.011244 
C 30.2404 20.8221 13.2131 12.011 -4.46553e-05 0.00113562 -0.00734411 
C 13.8403 34.4862 16.7386 12.011 -0.000826917 -0.00236791 0.000255825 
C 39.5641 2.55308 13.7434 12.011 0.00355771 -0.00112905 0.00667939 
C 40.0833 31.5966 16.0343 12.011 0.00625425 0.00610609 0.00388378 
C 18.7824 9.34731 16.5013 12.011 0.0040713 -0.00683124 -0.00583524 
C 35.9355 1.27596 33.1234 12.011 -0.00355014 0.00432387 -0.00136091 
C 26.9068 35.569 2.11677 12.011 -0.00165274 -0.0165098 0.0105373 
C 48.2466 30.3215 26.5178 12.011 -0.000827974 0.00576621 0.00205669 
C 10.7104 24.9311 9.52902 12.011 0.00560059 0.00375212 0.00996482 
C 32.3151 48.0163 33.8304 12.011 -0.00806442 0.0046324 0.00488225 
C 32.7211 46.442 29.0055 12.011 0.00298082 0.000800663 0.0012382 
C 42.7159 44.6423 12.3364 12.011 0.00122818 0.00211698 -0.00345526 
C 33.8827 2.39048 2.3524 12.011 -0.00530593 0.0037763 -0.000482205 
C 22.3023 32.8388 22.184 12.011 0.00575438 0.00696532 -0.00313361 
C 49.6551 26.281 48.962 12.011 0.000341494 -0.00175601 0.000727633 
C 41.5356 1.29818 25.975 12.011 -0.00351588 0.000106818 0.000355958 
C 19.4208 23.7408 26.8619 12.011 -0.00310529 -0.0039726 0.0053423 
C 14.9318 14.9068 12.3618 12.011 0.000944306 0.00463267 -0.00820849 
C 35.4974 27.7907 14.3605 12.011 -0.0020418 -0.00835328 -0.00383474 
C 4.15773 16.509 48.326 12.011 -0.00129765 0.00159479 0.00103989 
C 50.1005 14.7259 36.3102 12.011 0.013822 -0.00194976 -0.00137214 
C 39.3894 45.791 47.3254 12.011 -0.00719768 0.00172501 -0.00511392 
C 0.646549 12.668 7.23622 12.011 -0.00319775 -0.00156952 -0.000504284 
C 43.5574 24.6264 50.2796 12.011 -0.00369446 0.00576435 -0.00844717 
C 17.8105 24.9559 39.4565 12.011 0.00233414 -0.0151863 0.00880179 
C 0.300837 19.1307 43.9521 12.011 0.00549346 -0.00403244 -0.000958178 
C 34.7753 23.9621 16.3883 12.011 -0.00536535 -0.000957259 0.00582951 
C 32.4113 26.6336 7.5401 12.011 -0.00106023 -0.00321002 -0.00348007 
C 48.0473 17.854 5.23332 12.011 0.00806523 0.00252183 -0.00310737 
C 2.83372 31.3202 45.9827 12.011 0.00919863 0.00242769 -0.0042217 
C 16.5531 7.60213 2.64126 12.011 0.00150911 0.00392004 -0.00639613 
C 19.2176 32.1677 18.3487 12.011 0.00724904 0.00296255 0.00432861 
C 1.93511 42.2186 36.4452 12.011 0.00560638 0.00483553 0.0130406 
C 25.1222 40.7699 25.8308 12.011 -0.00199305 -0.000975182 0.00260435 
C 11.3743 48.5861 31.1278 12.011 -0.000843258 0.00656191 0.00455015 
C 41.708 3.719 30.3758 12.011 -0.00368447 0.00186975 0.00105771 
C 20.4928 49.7248 12.8026 12.011 0.00486494 -0.00278967 0.00336291 
C 48.5211 37.746 5.82944 12.011 0.00117323 -0.0076577 0.00547403 
C 35.4805 23.457 3.02387 12.011 0.000188089 -0.00222698 0.00547316 
C 9.2194 35.4209 41.1546 12.011 -0.00238076 0.00900799 0.00451131 
C 49.4925 13.223 27.069 12.011 -0.00250974 -0.000101478 -0.00290569 
C 27.6491 17.9231 36.7513 12.011 0.0017769 0.0110156 0.00034749 
C 4.1415 3.5423 9.41507 12.011 0.00311862 0.00489324 0.0084854 
C 18.5398 43.2102 37.2347 12.011 -0.00291329 -0.00874336 0.000857226 
C 48.6427 30.7321 34.4935 12.011 -0.00443606 -0.00284187 -0.00345764 
C 18.3343 30.1004 39.4117 12.011 -0.0058389 -0.00476696 -0.00613621 
C 17.0848 15.8117 34.2069 12.011 0.000796373 -0.0029011 0.00404423 
C 25.1653 3.22747 0.276843 12.011 0.00229374 8.72273e-05 -0.00093483 
C 30.3156 15.2668 23.8447 12.011 -0.00603362 0.00298296 -0.00205319 
C 18.1673 13.597 49.2136 12.011 -0.0016407 -0.00376487 -0.00392018 
C 20.9659 27.363 44.7593 12.011 0.00115089 -0.00298525 -0.00320792 
C 44.6765 43.4188 20.796 12.011 0.00589045 0.00750103 -0.000521827 
C 42.5805 15.2894 46.2842 12.011 -0.00615437 0.00135033 -0.00297054 
C 3.21352 28.1251 36.3507 12.011 0.0014141 0.0025523 0.00173612 
C 21.3102 8.43394 9.92944 12.011 -0.00229639 0.0044193 -0.00469148 
C 1.78767 43.7129 18.2731 12.011 -0.0079659 0.00681461 0.00367011 
C 30.9212 13.6702 6.20637 12.011 -0.0023135 -0.000105468 -0.00248802 
C 48.1456 27.8676 17.3042 12.011 0.00097484 -0.0046664 0.00753744 
C 49.6549 36.9548 1.12824 12.011 -0.000546393 -0.000223414 0.00199767 
C 0.453656 2.06754 36.2905 12.011 0.0099119 -0.00312786 -0.00432509 
C 40.6863 29.0786 4.9903 12.011 -0.00609016 0.000838115 -0.00196905 
C 23.1656 45.5975 8.37119 12.011 -0.00170056 -0.000390579 0.00129348 
C 20.3155 47.5711 42.2687 12.011 0.000987003 0.00139814 -0.0129587 
C 50.8905 9.23532 48.6049 12.011 0.00179298 0.00406468 -0.00221777 
C 46.4305 5.3438 43.0327 12.011 0.00515806 -0.000731383 0.0118526 
C 1.99426 18.5133 50.674 12.011 -0.00354992 0.00385353 0.0141049 
C 8.60791 17.7226 27.418 12.011 -0.00216072 0.00540456 0.000748836 
C 2.57343 47.5795 2.72058 12.011 0.00197491 0.00320496 0.00275752 
C 7.14047 7.59331 45.08 12.011 0.00252533 -0.00134311 0.000156047 
C 21.3698 47.7721 20.5797 12.011 0.00541382 0.00014561 -0.00278294 
C 0.482847 4.70295 14.5979 12.011 0.00111845 0.00450303 -0.00250257 
C 31.6544 40.2181 20.264 12.011 -0.000829751 0.00353264 -0.00536448 
C 33.2314 28.3023 28.5813 12.011 2.89244e-05 0.000117651 0.00253474 
C 35.7537 7.88303 22.3243 12.011 0.00740772 0.00580982 0.0004356 
C 8.00536 23.3995 32.929 12.011 0.00790584 -0.00186409 0.00388301 
C 0.372874 40.2596 49.3177 12.011 -0.000610582 0.0046771 0.00475257 
C 39.7785 17.2476 13.7786 12.011 -0.00140771 -0.00049257 0.00490269 
C 19.5687 19.3658 49.4865 12.011 0.00312159 -0.00250743 -0.00860447 
C 4.03634 11.4808 0.100005 12.011 -0.00203204 -0.00214274 0.00120922 
C 5.26569 14.5847 13.7938 12.011 0.00331764 -0.00410452 0.00253331 
C 11.0782 46.6835 18.6169 12.011 -0.00063846 -0.00359305 0.000736408 
C 26.9414 7.86699 10.7499 12.011 0.000663385 0.00569025 0.00785628 
C 16.4092 27.3764 48.9719 12.011 0.00198219 0.00556301 -0.00139671 
C 28.6396 9.62757 6.09016 12.011 0.00271453 0.0001912 -0.0104718 
C 30.7763 45.2064 16.1294 12.011 -0.00100553 -0.00792724 0.000886205 
C 40.303 9.41312 27.0711 12.011 0.0034366 0.00233044 0.00140079 
C 34.9293 36.1853 6.27429 12.011 1.17396e-05 0.00799426 0.00123609 
C 7.89811 24.5724 35.5657 12.011 -0.0138651 -0.0073432 0.00233437 
C 7.09705 32.0325 8.74248 12.011 0.00375424 0.0055064 -0.0035521 
C 32.6648 9.19442 18.8958 12.011 -0.000203708 -0.00561557 0.00852153 
C 32.147 22.4044 1.57903 12.011 0.00215703 0.00402198 0.00881119 
C 12.5179 0.301587 21.9632 12.011 -0.00179862 -0.00171849 0.00320122 
C 5.34828 33.6151 3.6941 12.011 0.0023852 0.00365166 0.00554415 
C 48.9335 1.80311 49.1044 12.011 0.00123342 -0.00524777 -0.00748204 
C 29.5002 33.1814 42.9372 12.011 -0.0010139 -0.00580077 -0.00354525 
C 11.295 21.1839 19.6208 12.011 0.000741368 -0.0099248 0.00733847 
C 43.4324 11.2541 27.6497 12.011 -0.0021325 -0.00733961 0.00139354 
C 48.3804 48.2235 14.7614 12.011 0.00183283 0.00813171 0.00307991 
C 46.0147 0.814921 38.3332 12.011 -0.0010771 0.00828784 0.00299911 
C 4.22849 40.1633 38.5653 12.011 0.00529797 0.000843164 -0.000471692 
C 20.0431 43.7314 4.92631 12.011 0.00462144 -0.0042147 0.00699369 
C 6.28491 20.6192 9.67255 12.011 0.00539022 0.0035251 0.00399923 
C 49.7695 1.61533 26.682 12.011 -0.0036299 -0.00404301 -0.0103799 
C 16.2375 40.0487 42.5118 12.011 -0.0011521 -0.00356521 0.00389711 
C 1.6029 24.3185 26.4042 12.011 -0.00573583 -0.0050993 -0.00369321 
C 33.2808 9.77972 2.70978 12.011 0.000449913 -0.00215884 0.000260956 
C 38.3078 46.1263 46.4416 12.011 -0.00228436 0.004276 0.00304502 
C 48.2243 43.1649 35.4273 12.011 0.00372331 0.00136551 -0.00251956 
C 15.9285 45.7202 19.6457 12.011 0.00955531 -0.00310509 -0.000805767 
C 44.6248 49.0562 30.1607 12.011 0.00362097 0.00530419 -0.00103417 
C 21.5315 3.6307 27.7074 12.011 -0.00120329 -0.00220709 0.0052903 
C 40.6064 38.1306 17.5558 12.011 0.00597561 0.00327444 -0.00630307 
C 31.3059 44.4724 41.4504 12.011 0.0127667 -0.000862053 0.00744731 
C 36.6565 6.14485 37.6109 12.011 0.00160913 0.00192649 0.000500701 
C 16.6433 18.9361 30.1598 12.011 0.00349617 0.000737862 0.00886898 
C 4.01098 50.1091 17.8979 12.011 -0.00147874 0.00377371 0.000770984 
C 5.40343 11.4569 11.7737 12.011 0.00205397 0.00908001 -0.00313824 
C 28.5348 17.178 50.8708 12.011 6.37775e-05 0.00677877 -0.0062183 
C 22.271 33.5753 19.8331 12.011 -0.00365814 -0.000437009 0.00324856 
C 23.3755 29.4815 41.3012 12.011 0.00227594 0.0062049 0.00123811 
C 17.6814 22.7714 49.5034 12.011 -0.00527754 0.00888412 -0.00135795 
C 14.0781 12.4493 24.5554 12.011 0.00334844 -0.00863807 -0.000803979 
C 18.4113 39.1831 36.54 12.011 -0.00343782 -0.00460085 0.000865896 
C 30.0284 8.792 7.90296 12.011 -0.00381269 5.06561e-06 -0.00405586 
C 46.2222 4.41314 11.6221 12.011 -0.00982331 0.00373147 -0.00180699 
C 0.188835 36.643 45.795 12.011 0.00446197 -0.001925 -0.00528925 
C 19.6315 27.3202 45.0502 12.011 -0.000868881 0.00145868 -0.00521909 
C 19.1179 38.2749 8.85301 12.011 0.00334569 -0.000505183 -0.0027026 
C 37.7637 22.2611 36.0418 12.011 0.00531724 0.00151565 7.25218e-05 
C 33.7058 36.0183 32.0921 12.011 -0.00876895 -0.00560209 -0.00827046 
C 47.5306 49.9265 38.1267 12.011 -0.000969807 -0.000677835 -0.00593607 
C 0.790337 32.6654 50.2255 12.011 -0.000106 0.00345881 0.00425468 
C 20.8907 13.5404 12.3272 12.011 0.00596764 0.00506756 -0.00273829 
C 30.2155 48.9673 38.8828 12.011 0.00142347 -0.00486852 -0.00184833 
C 31.8123 46.2363 38.0926 12.011 -0.000251139 -0.000743539 -0.000660109 
C 15.5549 28.9902 33.5747 12.011 -0.0075238 0.000806591 0.000600985 
C 20.9026 19.6143 49.6743 12.011 -0.00531106 -0.00431332 0.000340621 
C 2.8717 37.072 25.7615 12.011 0.00528486 -0.00113812 0.00153952 
C 19.9506 7.30256 17.274 12.011 0.00647139 -0.00296367 0.00214935 
C 48.2778 7.68972 36.5502 12.011 -0.00455983 0.00223291 -0.00830759 
C 42.573 42.4005 34.8693 12.011 0.00471953 0.00454389 -0.000133306 
C 50.0787 5.90061 47.8212 12.011 -0.00641169 0.00255007 -0.00455712 
C 10.7553 12.57 33.2878 12.011 0.000715297 -0.00319415 0.000307385 
C 27.7178 28.4164 7.96518 12.011 -0.00433147 0.00552874 0.00315225 
C 48.001 46.8404 45.5327 12.011 -0.00324977 -0.00211351 -0.00512987 
C 45.59 16.2371 19.1668 12.011 0.00426119 -0.00586108 0.00338402 
C 1.95013 6.42872 13.0075 12.011 0.0012753 -0.00557756 0.00623816 
C 22.069 30.1433 15.1556 12.011 -7.6802e-05 -0.00247241 -0.0102035 
C 46.3584 2.40529 40.841 12.011 0.000983878 0.00867401 -0.00389882 
C 49.1881 45.5601 31.2408 12.011 -0.00550927 -0.00652004 -0.00310724 
C 4.85575 46.5318 41.5954 12.011 -0.000755972 -0.0076144 -0.00218452 
C 37.92 2.05584 7.6013 12.011 -0.00318616 -0.00193947 -6.53826e-05 
C 36.1393 35.1984 28.8388 12.011 -0.00675893 -0.00563072 0.000467443 
C 31.682 34.3581 42.5274 12.011 -0.00133531 -0.0015451 -0.000910345 
C 25.3648 10.2129 24.0577 12.011 0.00189193 0.00486256 -0.0034947 
C 49.2339 39.4109 40.9747 12.011 0.00474774 0.000264376 0.00387661 
C 40.5345 37.2233 25.1848 12.011 0.00222012 -0.00458391 0.00888681 
C 8.16939 22.6888 5.44318 12.011 0.000802768 -0.00262668 -0.00341556 
C 14.6721 15.8585 29.9453 12.011 -0.000255831 0.00230028 -0.000436839 
C 35.2716 48.1601 21.9763 12.011 0.00268829 0.00397725 -0.00241809 
C 45.7195 41.1802 44.4035 12.011 -0.00846116 0.00339278 -0.00196274 
C 10.9266 48.3915 6.26853 12.011 -0.000702552 -0.00120929 -0.00627029 
C 19.229 18.0652 17.6129 12.011 0.00172953 0.00199723 0.00457667 
C 12.0064 15.9769 33.255 12.011 0.0113956 0.00574912 0.00699116 
C 28.4101 2.17196 23.334 12.011 0.000830249 -0.00453038 0.00682179 
C 43.6307 21.4917 34.4804 12.011 -0.00467203 0.0010036 -0.00108211 
C 37.4962 44.2322 6.41358 12.011 0.0059357 -0.00471312 -0.00578151 
C 17.2418 20.5059 28.3073 12.011 -0.00673 -0.00564734 0.00469178 
C 11.2686 38.6022 0.722748 12.011 0.00574788 -0.00539535 -0.00625317 
C 49.0842 35.7462 1.36868 12.011 -0.00322541 0.00906541 -0.000608618 
C 32.5799 43.7292 39.5472 12.011 -0.0040039 -0.00265433 -0.00650734 
C 4.13572 27.611 4.54621 12.011 -0.000764099 0.000632379 0.00266823 
C 18.9094 37.5436 41.6078 12.011 0.00347146 -0.00272549 0.00216489 
C 34.7434 13.1931 11.4735 12.011 -0.00931821 0.00563029 -0.000128849 
C 35.6471 19.9116 37.9541 12.011 -0.00734519 0.00239953 -0.00455517 
C 16.4218 50.0721 15.2607 12.011 -0.00550539 -0.00340577 0.00261034 
C 11.791 15.1669 18.5052 12.011 0.0107423 -0.00156769 0.00458117 
C 3.97533 14.1701 6.66139 12.011 0.00378794 -0.00322361 -0.00723609 
C 7.6447 24.378 47.8204 12.011 -0.00584883 1.90247e-05 -0.00484412 
C 36.5594 33.0636 46.5994 12.011 -0.00234235 0.00523012 0.00513287 
C 12.0785 0.948781 29.6659 12.011 -0.00108578 -0.00285649 0.00465056 
C 33.3359 18.098 20.9697 12.011 0.00128222 -9.16534e-05 -0.00427866 
C 50.1107 42.6566 26.1858 12.011 -0.00376534 0.000220814 0.000610514 
C 33.0398 22.5018 15.1812 12.011 -0.00742449 -0.00413057 -0.000483324 
C 16.0033 29.0806 23.2029 12.011 -0.00386559 -0.00172301 0.00229582 
C 1.34182 25.7064 38.4315 12.011 0.000879178 -0.00809071 0.000682612 
C 20.1302 22.5555 29.3989 12.011 -0.00458833 0.00145557 -0.00251882 
C 2.83843 24.9254 28.4203 12.011 0.00540229 0.000878749 -0.00184688 
C 37.7434 45.9953 50.6011 12.011 0.00280898 0.00396824 -0.000148043 
C 8.07811 34.5322 41.2302 12.011 0.00154718 -0.00138427 0.00276035 
C 40.95 5.38273 48.147 12.011 0.00404698 -0.00498017 0.00272693 
C 19.3607 9.77288 44.2974 12.011 0.00792002 -0.000846025 -0.000437058 
C 43.2159 41.3429 2.55414 12.011 0.0069996 0.00128382 -0.00200093 
C 19.3355 3.96017 20.751 12.011 0.0013308 0.000599613 0.00239507 
C 30.949 28.0365 29.4431 12.011 -0.00162254 -0.000166267 -0.00763281 
C 44.4599 16.4826 47.0296 12.011 -0.00196549 0.00433564 7.48169e-05 
C 22.9324 17.6636 20.1787 12.011 0.00309122 -0.00195585 -0.00915804 
C 27.4808 46.2581 20.8893 12.011 0.00864759 0.00533166 -0.0085137 
C 42.2781 41.1401 3.6332 12.011 -0.00393243 0.00646942 -0.00582324 
C 0.83652 21.0206 16.187 12.011 -0.000514655 -0.00477997 0.00405776 
C 31.9818 43.4703 42.2094 12.011 -0.000199051 -2.13468e-05 0.000145061 
C 38.1526 16.8095 2.53847 12.011 0.00253475 0.00412743 -0.00417687 
C 9.56451 13.7233 46.7472 12.011 0.00209802 -0.00548765 -0.000125613 
C 6.03847 13.6388 25.5727 12.011 -0.0101525 -0.00121512 -0.00128557 
C 18.5876 28.0935 35.4843 12.011 -1.62678e-05 0.00726846 -0.00372344 
C 23.9354 17.713 28.3292 12.011 0.00393615 -0.00375779 -0.00710468 
C 12.8778 37.8811 36.4558 12.011 -0.0107581 -0.00793108 -0.00985105 
C 31.4437 20.8058 47.3239 12.011 -0.000221458 -0.00809882 -0.00759255 
C 30.2899 33.731 32.3026 12.011 0.00184561 0.00158678 -4.39763e-05 
C 11.8451 28.3267 14.5397 12.011 -0.00127168 -0.00110256 0.00197738 
C 43.0132 40.9152 17.7767 12.011 -0.00153647 -0.00423701 0.000909918 
C 3.12912 30.8341 23.4276 12.011 -0.00135712 0.00383203 -0.000905172 
C 45.767 28.2121 37.379 12.011 -0.00566599 -0.00658432 0.000711087 
C 41.5328 1.3452 13.8105 12.011 0.00533617 -0.00101099 -0.00347469 
C 34.8627 20.0923 45.8633 12.011 -0.00365766 0.00083324 -0.00126101 
C 50.4516 7.21102 4.48107 12.011 -0.000732752 -0.00520601 0.00128039 
C 46.6259 41.1717 50.6149 12.011 -0.00509357 0.00108133 -0.000305179 
C 20.9823 37.5805 10.8995 12.011 0.00759506 -9.81686e-05 0.00699817 
C 9.60969 47.322 29.6711 12.011 0.00729864 0.00467282 -0.000471034 
C 22.1003 30.3849 46.345 12.011 0.010717 0.00526842 0.000561733 
C 45.5574 39.7992 39.225 12.011 0.000345916 -3.28977e-05 -3.63141e-05 
C 14.3454 33.1704 18.8249 12.011 -0.00594872 -0.00154832 0.00674627 
C 41.8717 36.2306 10.4453 12.011 -0.00196287 -0.00389676 -0.00320022 
C 15.0128 35.8472 36.2348 12.011 -0.00219526 0.00240356 0.00856373 
C 27.4598 33.877 22.4002 12.011 -0.00407306 0.0014081 0.00816514 
C 48.0947 29.2375 16.9883 12.011 -0.0016599 -0.00300543 -0.00426185 
C 50.0639 18.8452 44.6044 12.011 0.000485393 -0.00112688 0.00728667 
C 5.37151 44.5126 11.9357 12.011 -0.00147759 0.000406271 -0.00474087 
C 37.5149 9.20724 47.8192 12.011 0.00468562 0.00364426 -0.000185629 
C 0.216253 21.8983 39.9096 12.011 0.000185032 -0.0083113 0.000742505 
C 40.4125 15.2199 35.6999 12.011 9.90128e-05 0.00709242 0.0029517 
C 48.1397 39.7748 32.2504 12.011 0.00135178 -0.001406 0.00611457 
C 41.2853 26.3571 23.037 12.011 -0.00508189 0.000825734 -0.00453678 
C 8.32873 24.9593 4.64405 12.011 -0.00578687 -0.00303115 -0.0067634 
C 30.2536 46.7398 40.0949 12.011 0.0057073 -0.00177862 0.00768584 
C 10.8855 39.5308 27.152 12.011 -0.00665608 0.0015023 -0.00160701 
C 34.1828 7.59741 33.3228 12.011 0.00314295 -0.00679576 -0.00423982 
C 9.28063 49.1983 34.5199 12.011 -0.000370954 0.0011483 -0.00238522 
C 10.628 37.4486 28.3599 12.011 0.00331475 0.000585251 -0.00560319 
C 35.2932 5.95199 34.6868 12.011 0.00456822 0.00166301 0.00740862 
C 12.1032 18.9888 12.7535 12.011 -0.00712793 0.00208793 0.00220523 
C 2.41405 36.4814 41.5906 12.011 -0.00272082 -0.010096 -0.00196695 
C 0.401937 4.31515 39.8459 12.011 0.00110136 2.72848e-05 0.00107665 
C 9.16141 6.56834 2.26217 12.011 -0.00111171 4.23322e-05 0.00310811 
C 18.4082 24.3407 20.5048 12.011 -0.0015538 -0.0045123 -0.00701921 
C 13.7785 47.5745 4.59272 12.011 0.00172355 -0.00540681 0.00178415 
C 4.33468 50.4121 20.2682 12.011 0.00114671 -0.000439351 0.00441259 
C 46.3571 24.6047 49.6941 12.011 -0.000337036 0.00886448 -0.00486538 
C 45.7457 42.5431 24.2645 12.011 -0.0014729 -0.00266656 0.00380606 
C 31.7087 43.4262 9.0445 12.011 0.0054674 -0.00209745 -0.000875623 
C 22.1797 36.3211 14.2011 12.011 0.00400436 -0.00762428 -0.00103773 
C 0.227384 0.670865 8.44511 12.011 0.00363704 -0.00582898 -0.00140504 
C 23.905 44.3349 16.9916 12.011 -4.62879e-05 0.0034559 -0.00187786 
C 44.3146 41.1081 8.4011 12.011 0.00493991 0.00459402 0.00187483 
C 19.2405 43.7035 31.4195 12.011 -0.00314927 -0.0011701 -0.00218936 
C 25.1676 45.976 30.2045 12.011 0.00502754 0.00493739 -0.00125003 
C 22.6888 33.78 21.1969 12.011 -0.00569362 -0.00199595 -0.00412782 
C 12.5387 34.6894 33.715 12.011 0.00449718 -0.00195596 0.0017749 
C 45.7994 25.5924 50.6193 12.011 -0.00445522 0.00551203 0.00223496 
C 10.155 49.569 35.5671 12.011 -0.000869154 -0.00126229 -0.00210336 
C 14.8249 45.0162 15.5159 12.011 -0.00365687 -0.000467671 -0.00257503 
C 23.9284 30.7108 29.0466 12.011 0.00405214 -0.00176591 -0.000368599 
C 36.0926 45.9058 5.26166 12.011 -0.00107652 3.59257e-05 -0.00464729 
C 47.8507 17.4297 13.9309 12.011 -0.00219232 0.00471663 0.000907184 
C 38.5086 9.04208 30.7913 12.011 -0.00719312 -0.00296505 0.00431635 
C 17.9822 22.7167 22.2781 12.011 -0.00444668 0.00337664 0.00527151 
C 10.1576 20.9439 28.5286 12.011 -0.0015507 0.00846944 0.000856854 
C 41.4807 19.0542 14.3697 12.011 -0.00314467 -0.00169412 0.00766087 
C 24.616 8.88615 9.57931 12.011 -0.00323456 -0.000367294 0.00415608 
C 32.3822 32.2258 12.4639 12.011 0.00207677 -5.44115e-05 -0.00414671 
C 26.5508 16.3478 38.5108 12.011 -0.0017278 0.00202976 -0.00447921 
C 35.255 1.00437 34.3034 12.011 0.00917818 -0.00339821 0.00754432 
C 39.9429 18.4681 47.9945 12.011 -0.000458864 -0.000886117 -0.00482287 
C 48.2718 37.3063 11.7275 12.011 0.00557447 -0.00145596 0.00910024 
C 36.6332 7.53877 33.4893 12.011 0.000893292 -0.00326594 -0.00668776 
C 47.057 48.6606 15.1139 12.011 -0.00492704 -0.00282556 -0.00302992 
C 26.0418 32.8217 16.328 12.011 0.0047669 -0.000492567 -0.00764716 
C 29.0524 15.8246 51.0178 12.011 0.000382389 0.00040598 0.00184742 
C 45.2667 32.7783 7.90892 12.011 0.00125296 0.00119713 -0.00142642 
C 4.00633 32.9442 13.3116 12.011 0.00267383 -0.00225725 0.00162834 
C 33.0182 42.2224 20.5611 12.011 0.00791743 -0.00341795 -0.000820617 
C 28.8723 50.1657 8.09099 12.011 -0.00571436 0.00621706 0.00546058 
C 24.421 14.9295 31.336 12.011 0.00427824 0.0023857 0.00194955 
C 3.11671 50.1459 16.8767 12.011 0.00247113 -0.000629425 0.000425293 
C 0.73895 18.1112 36.0735 12.011 -0.0086384 -0.00169144 -0.00800782 
C 44.0923 41.7956 22.3886 12.011 0.00264175 -0.00345949 -0.00433218 
C 39.7039 14.1597 28.8915 12.011 0.000874438 -0.00156354 -0.0085722 
C 47.6523 10.3551 36.0822 12.011 -0.00216146 0.00457014 -0.00449464 
C 19.7328 20.7435 41.0403 12.011 -0.00570983 0.00157894 0.00313101 
C 18.6894 40.0529 43.1158 12.011 0.000670469 -0.000966617 0.000307505 
C 6.79618 10.3267 44.4117 12.011 0.00394818 0.000494518 0.00104323 
C 3.26941 49.2703 15.7145 12.011 -0.00265599 0.0036192 0.00791203 
C 49.2441 26.7372 5.89133 12.011 -0.00259821 0.00115209 0.00785216 
C 33.8172 2.54223 3.62753 12.011 0.00547628 0.00920101 0.00439884 
C 24.7057 34.4137 2.54721 12.011 0.000128412 0.00392474 -0.00375804 
C 19.837 0.0116465 24.4247 12.011 0.00756173 -0.00302372 0.00201896 
C 8.75874 17.3161 41.9556 12.011 -0.00559689 0.00332197 0.000548746 
C 27.8292 6.31506 12.6273 12.011 -0.00557906 -0.00719826 0.00585606 
C 5.33049 45.3224 34.5537 12.011 -0.00125602 0.000982494 0.000925002 
C 26.4704 19.605 26.4106 12.011 0.00103067 -0.00248335 -0.00499747 
C 44.6622 48.5224 25.2922 12.011 -0.00353995 -0.00295509 0.0050953 
C 19.2774 36.0639 11.9266 12.011 0.000979285 0.00959676 0.00486491 
C 47.6898 0.274154 40.2153 12.011 -0.00230324 0.00244649 -0.00168282 
C 43.5231 42.2556 44.3071 12.011 -0.00654517 -0.00123688 0.00070054 
C 1.00794 21.5886 35.107 12.011 -0.00288197 0.00930431 0.0054255 
C 10.2065 14.0903 22.3163 12.011 0.000759364 -0.00466583 0.00897662 
C 26.2273 25.7039 43.6348 12.011 -0.000175721 -0.00016375 0.00276147 
C 20.8518 27.2541 36.1089 12.011 0.00167838 0.0103815 0.000842207 
C 33.064 42.6578 40.2733 12.011 0.00157574 0.00129531 -0.00209012 
C 36.5121 22.7768 17.8023 12.011 -0.00278515 -0.000768874 0.00238157 
C 32.9194 42.49 41.6304 12.011 -0.00255315 0.000364095 -0.00147325 
C 46.2109 22.9433 13.9887 12.011 -0.00633353 -0.00405354 0.0028847 
C 38.3988 39.7323 49.4164 12.011 -0.00166615 0.00158487 -0.00149783 
C 50.4624 23.9358 23.3529 12.011 -0.00367854 -0.00304805 0.00151597 
C 26.5991 24.5389 44.5345 12.011 -0.000586212 -0.00905767 -0.00188011 
C 30.4889 15.8824 21.4701 12.011 -0.00583838 -0.000363432 0.0059031 
C 13.0637 31.4582 28.222 12.011 0.00110772 0.00584769 -0.00368273 
C 46.273 9.35025 19.8137 12.011 0.00188776 -0.0102313 -0.0063728 
C 37.7323 34.5384 36.1946 12.011 0.00495425 0.00553098 0.000636401 
C 39.3802 10.3734 29.0393 12.011 -0.00460939 0.00154381 -0.00536574 
C 48.9423 1.99115 16.4583 12.011 0.00123726 -0.00027891 -0.00187117 
C 35.4251 49.5724 38.7987 12.011 0.00146198 0.000111151 -0.00218055 
C 10.9607 30.9682 35.118 12.011 0.00166271 0.000198676 0.0034464 
C 22.3561 0.219536 20.6998 12.011 0.0088593 0.00457998 -0.00852715 
C 32.2614 10.4349 43.1475 12.011 0.0066226 0.00284108 0.00754731 
C 44.181 16.2279 28.2116 12.011 0.00136025 0.00109312 0.0026458 
C 42.7536 15.9811 28.2991 12.011 0.00227368 0.00333729 0.00514737 
C 23.1473 28.155 20.9449 12.011 0.0053024 -0.0014906 -0.0064653 
C 7.03867 19.4817 41.0438 12.011 -0.00182754 0.00169106 0.00379714 
C 26.6073 5.01271 44.895 12.011 -0.00104343 -0.00677557 0.00218215 
C 12.8027 30.3077 13.2674 12.011 0.00147321 -0.00652601 0.00403639 
C 17.8506 31.3395 48.739 12.011 -0.0143896 -0.00370574 3.14403e-05 
C 33.6646 32.9971 42.0937 12.011 0.00388393 0.00408947 -0.00708972 
C 40.5619 9.10421 44.9252 12.011 0.00941372 0.00403861 0.000939223 
C 44.246 32.3944 18.6958 12.011 0.00106451 0.00272523 0.000521381 
C 40.3828 2.26757 18.3968 12.011 -0.0038185 -0.00106367 -0.00555941 
C 4.19761 24.9515 39.0919 12.011 -0.00950089 0.000964621 -0.000826292 
C 16.1036 32.0647 35.1622 12.011 0.00794362 0.00917108 -0.00452855 
C 39.518 6.11737 33.6219 12.011 0.00496571 -0.00337768 -0.00226768 
C 15.9657 14.2259 48.4104 12.011 -0.00243506 0.000644627 -0.00311005 
C 47.285 30.6602 25.5215 12.011 0.00679545 -0.0018348 0.00598523 
C 40.0846 37.0408 21.5805 12.011 0.00797639 0.00591176 0.00266092 
C 46.2299 17.7282 6.91191 12.011 0.000491054 -0.000753477 -0.00191151 
C 26.7838 35.2544 0.793201 12.011 -0.000120095 0.012746 -5.37705e-05 
C 40.3034 12.4371 3.55216 12.011 0.00666181 0.00169362 -0.0033061 
C 39.1548 23.0004 18.859 12.011 -0.00139188 0.00574543 0.00608644 
C 28.1135 15.5345 44.1978 12.011 -0.00890386 -0.00149782 -0.00308063 
C 20.994 0.277146 21.0556 12.011 0.00102387 -0.00659326 0.00379068 
C 31.9228 17.5393 9.04863 12.011 0.00338814 -0.00816007 0.00912301 
C 39.9614 37.2933 16.6064 12.011 -0.00338841 -0.00259346 0.00286383 
C 17.4516 27.2374 10.932 12.011 0.00694226 -0.00251866 0.00575622 
C 34.5858 8.40987 4.41062 12.011 0.00265652 0.00290018 -0.00630643 
C 14.1291 48.7187 50.6893 12.011 0.000919862 0.000596667 0.00120654 
C 43.6908 20.1076 34.7265 12.011 -0.00101072 -0.00245605 0.00388856 
C 13.0852 4.32048 43.7902 12.011 -0.00282698 -0.00162338 -0.00512528 
C 44.4102 9.5537 13.2026 12.011 0.00360441 -0.00461208 0.00109869 
C 6.75629 4.4489 0.458433 12.011 0.0028285 0.00100104 -0.000977337 
C 1.77686 14.0787 36.8484 12.011 0.00600393 0.00237396 -0.00868388 
C 9.67198 23.2161 46.8363 12.011 0.00348409 -0.00894313 -0.00253559 
C 3.55081 1.33406 7.01804 12.011 -0.00124243 0.000268699 0.00878551 
C 12.112 50.8282 30.6217 12.011 0.0045837 -0.00438395 0.000345827 
C 10.7456 7.90207 17.8526 12.011 0.0019446 0.00108763 0.00706665 
C 29.0976 9.64626 47.2324 12.011 -0.00448463 0.00172544 -0.000889931 
C 32.3809 50.0659 32.5643 12.011 -0.000129991 0.00490851 0.00398742 
C 42.0389 3.093 27.9151 12.011 0.00253782 0.00420123 0.0101949 
C 42.4853 30.8032 1.48238 12.011 -0.0031653 -0.00042159 -0.0102682 
C 28.9898 36.0195 6.51556 12.011 0.00214749 -0.00641875 0.00773425 
C 27.1372 36.7082 25.8253 12.011 0.00295713 0.00329768 0.00368554 
C 46.0571 37.2994 48.2765 12.011 -0.00543551 -0.00328656 0.000191659 
C 50.5975 34.7737 29.5919 12.011 -0.0061984 -0.000147873 0.00679589 
C 31.9352 25.7474 5.3597 12.011 0.00306481 0.00410997 0.000546572 
C 35.7282 44.4991 23.1041 12.011 0.000402287 -0.000192114 -0.000361302 
C 34.807 50.2026 48.1597 12.011 -0.0024921 -0.00528459 0.00186484 
C 50.3878 17.6198 12.582 12.011 0.00754585 0.00478633 0.00136317 
C 48.2575 29.5604 15.6032 12.011 0.0105305 0.0112479 -0.00224545 
C 10.6782 13.5767 19.9552 12.011 -0.000353464 -0.000723936 0.00033896 
C 10.7636 27.3329 21.3605 12.011 0.00260526 -0.00205367 0.00515637 
C 26.049 24.6489 12.9341 12.011 -0.0023285 0.00169747 -0.00268841 
C 40.7122 28.3216 9.10703 12.011 0.0041942 -0.00190556 -0.00809242 
C 35.8985 44.0239 24.5071 12.011 -0.00355956 -0.00599129 -0.000619768 
C 17.9042 12.2405 14.3886 12.011 -0.000523643 0.000187733 -0.00704887 
C 41.0995 47.4918 8.42489 12.011 0.00594172 0.00113814 -0.00164423 
C 38.0597 14.3338 7.72327 12.011 0.00532104 -0.00048579 0.00819303 
C 17.5148 24.082 16.8829 12.011 0.00055108 0.00577481 0.00191093 
C 6.94893 3.44032 44.1462 12.011 0.00721332 -0.00221175 0.00276683 
C 37.8716 25.2908 40.5352 12.011 0.0129194 0.00730972 -0.00228426 
C 35.73 6.06377 47.0848 12.011 -0.00339889 0.00666358 -0.000697047 
C 11.0986 16.1896 23.3476 12.011 0.00530331 -0.000651321 0.0051649 
C 0.306588 2.4963 37.6853 12.011 -0.00545438 -0.000709507 0.00259633 
C 30.4498 4.95105 43.1447 12.011 -0.00781212 0.00181321 0.00657589 
C 31.7609 19.9201 14.9652 12.011 0.00226673 0.000276575 -0.000369968 
C 8.15989 32.9845 8.43098 12.011 0.000777897 0.00425017 -0.00143701 
C 35.6242 6.19339 48.5351 12.011 -0.00257317 -0.000765391 0.00570088 
C 2.21623 10.6623 4.26962 12.011 0.00138065 0.00659508 -0.0118168 
C 15.2952 22.4412 6.3611 12.011 0.000295374 0.000938791 -0.00319487 
C 6.13955 18.4058 8.54836 12.011 -0.00204303 0.0050737 0.00622434 
C 21.8321 20.5228 42.1908 12.011 -9.70163e-06 -0.00585607 -0.00211721 
C 26.8362 27.5683 5.7158 12.011 0.000704134 -0.00251936 0.000130668 
C 8.34065 0.674185 6.85545 12.011 -0.00157645 -0.00222131 -0.00456085 
C 3.09539 39.752 7.77477 12.011 -0.00107582 -0.00741974 -0.000380383 
C 31.4979 17.9543 47.0151 12.011 0.00135094 -0.00378385 0.000626507 
C 19.5277 30.5098 47.236 12.011 0.00296696 0.00643539 -0.00319386 
C 47.1808 42.8445 26.7552 12.011 0.002464 0.00789356 -0.00114565 
C 37.9608 8.30789 24.3196 12.011 -0.00246982 0.00261167 -0.00704272 
C 49.1315 40.5916 31.7671 12.011 0.001115 0.00175443 0.00381517 
C 14.5321 11.4261 35.0652 12.011 -0.00573685 -0.00067662 0.00363362 
C 12.5107 28.1128 19.7372 12.011 0.00628636 -0.00523861 0.00460221 
C 33.0714 7.74523 11.7399 12.011 -0.00146554 0.00168495 -0.0109656 
C 14.4625 40.8695 10.8204 12.011 -0.00609444 -0.000752107 0.00238463 
C 36.7012 21.7246 36.8154 12.011 0.0052148 0.00601431 -0.00269946 
C 1.46731 31.7597 24.9168 12.011 0.000608679 -0.00315299 -0.00170421 
C 15.5188 23.855 4.34375 12.011 -0.00310038 -0.00616503 -0.00170163 
C 3.17794 16.8343 42.7716 12.011 0.00630687 0.00264041 0.00491047 
C 29.3243 11.9665 45.0345 12.011 0.00547333 0.00600335 -0.00744897 
C 46.1055 29.1593 7.44965 12.011 0.00179003 0.00355733 0.00249415 
C 7.37026 26.8779 48.3925 12.011 0.00056109 -0.00192529 -0.00884187 
C 47.1473 47.0998 6.81677 12.011 -0.00586008 0.00326704 -0.00630932 
C 27.2883 28.0217 25.361 12.011 -0.00631705 0.00227552 0.00242232 
C 3.85382 17.2191 28.7497 12.011 0.00026209 -0.0023098 0.000590276 
C 1.11531 18.0093 43.4148 12.011 0.00335342 -0.000587485 0.000439675 
C 44.0926 11.4174 45.5349 12.011 -0.00287828 0.00180685 0.00118846 
C 45.3562 12.721 27.83 12.011 -0.00168935 -0.00613498 -0.00561953 
C 46.7855 49.4586 37.029 12.011 -0.00414585 -0.00213904 0.00403021 
C 16.5541 31.082 49.2525 12.011 -0.00860415 -0.00848967 -0.00216978 
C 11.5906 37.062 41.1344 12.011 0.000490699 0.00309984 0.0106072 
C 38.2266 2.456 28.2319 12.011 -0.00500345 -9.41937e-05 -0.0027119 
C 38.8407 11.6066 5.20844 12.011 0.00357943 -0.001312 0.000372785 
C 39.864 18.7733 16.4563 12.011 -0.00503318 -0.0025643 0.00443963 
C 48.1636 12.449 21.1961 12.011 0.00199378 -0.00270293 -0.00225735 
C 10.8982 2.14554 27.8684 12.011 0.00848653 -0.00283927 0.00215223 
C 44.7689 31.0466 25.0485 12.011 0.00363395 -0.00531101 -0.00178224 
C 29.6628 12.6999 11.6189 12.011 -0.00145391 -0.00580393 0.000257916 
C 31.6638 29.9158 44.3353 12.011 -0.00481944 -0.00291112 -0.00349547 
C 24.9959 25.821 5.84087 12.011 -0.00441699 -0.00546386 0.00539923 
C 10.7885 10.5569 32.0738 12.011 0.0100743 -0.00630842 0.00201836 
C 18.1905 29.5053 9.95761 12.011 -0.000367265 -0.00304103 -0.000372052 
C 7.38846 43.9933 3.75884 12.011 0.00222676 0.000986035 0.00417429 
C 39.4831 42.1386 11.074 12.011 -0.00571866 0.00335993 -0.00320088 
C 43.1844 11.1703 20.7391 12.011 -0.00503549 -0.00145317 -0.00253715 
C 4.68564 14.6395 23.3004 12.011 0.00764547 0.00203515 0.00411796 
C 39.1957 19.604 48.042 12.011 0.00548132 0.00872673 -0.00575503 
C 47.8777 17.8188 19.7067 12.011 0.00171103 -0.00313558 -0.00122795 
C 11.6725 43.0367 27.6088 12.011 -0.00530223 0.00391771 0.00228158 
C 31.1969 7.83305 31.0231 12.011 -0.00183675 -1.2578e-05 0.00131146 
C 49.5817 19.4463 6.90497 12.011 -0.00420874 0.00532697 -0.000405675 
C 2.2437 29.8213 23.1185 12.011 -0.00108744 0.0049398 -0.0110089 
C 31.2979 16.8266 25.5295 12.011 -0.000754237 0.00194173 0.00471044 
C 3.86633 23.8997 10.8853 12.011 0.00426653 0.00538648 0.00232913 
C 12.3328 42.0597 48.2032 12.011 0.0044715 0.00682072 0.000419191 
C 19.4679 0.854202 30.0219 12.011 -0.000136368 0.000910743 0.00510566 
C 29.5695 27.9302 46.7534 12.011 -0.00183685 -0.00165941 0.00736513 
C 33.9215 16.6089 46.5777 12.011 -0.00664965 -0.00722607 0.00321582 
C 29.9621 46.2608 15.4938 12.011 -0.00522339 0.00517654 0.000454021 
C 30.29 20.0228 47.0002 12.011 0.00974621 -0.00662765 -0.00114667 
C 36.2925 34.6005 36.3406 12.011 -0.0105323 -0.000979967 0.000218159 
C 19.3777 49.8205 23.7615 12.011 0.00468273 -0.00277627 0.0064866 
C 18.4521 9.25304 45.2728 12.011 0.00427787 0.000367455 0.00236961 
C 46.507 32.2471 2.46323 12.011 5.14602e-05 0.0037413 0.000752634 
C 12.8638 48.2043 50.3924 12.011 0.00197887 0.001671 -0.000970012 
C 29.4335 30.7179 43.3922 12.011 -0.00107249 0.00156612 0.00734231 
C 15.412 0.350211 21.5624 12.011 0.00132233 -0.000690019 -0.00830108 
C 19.0331 25.6265 35.2892 12.011 0.00203137 0.00879931 -0.00614882 
C 45.2457 30.2946 7.8578 12.011 -0.00884024 -0.00314321 -0.0022705 
C 29.4008 8.56177 35.0942 12.011 -0.00350746 0.000102806 0.00421429 
C 41.2379 26.6719 25.5652 12.011 0.00354849 0.0014614 0.000480111 
C 34.2683 47.2208 2.67151 12.011 -0.00393642 -0.00363579 -0.00197512 
C 19.7133 23.2909 2.09197 12.011 0.00099409 0.00163567 -0.000942358 
C 32.9343 31.8984 42.6721 12.011 -0.00377331 7.4992e-06 0.00198123 
C 19.665 2.33915 43.3547 12.011 0.000845516 0.00143059 0.00137865 
C 18.0495 33.2356 50.3052 12.011 0.00497074 0.00177892 0.000473431 
C 26.8844 2.62885 35.0325 12.011 0.00717619 -0.00103175 0.00561832 
C 38.4591 29.7646 17.4765 12.011 0.00401782 -0.00410713 0.00905774 
C 1.02507 22.1324 9.11545 12.011 0.000780243 -0.000666356 -0.00353683 
C 20.7303 14.8938 39.2197 12.011 5.72206e-05 0.00297417 0.00281854 
C 3.31347 14.2812 21.2825 12.011 -0.00675521 0.00207058 0.00206761 
C 26.1674 25.1183 49.578 12.011 -0.00944946 0.00492952 -0.000685796 
C 39.1408 27.3626 50.1861 12.011 0.00163405 -0.00372736 0.0034481 
C 29.2266 45.9176 44.1263 12.011 -0.00898618 -0.00537498 0.000611949 
C 5.8326 22.8841 48.6653 12.011 -0.00357589 0.00151943 0.00484121 
C 17.3783 25.256 12.8755 12.011 0.0091251 -0.00856943 -0.00202226 
C 21.0486 39.7131 43.8499 12.011 0.0130983 0.000169895 0.00478563 
C 29.0083 38.5468 25.576 12.011 0.00291672 0.00472905 0.00988335 
C 31.823 21.1694 31.0266 12.011 -0.00367525 0.0029078 -0.0048101 
C 47.8227 14.0577 35.8821 12.011 0.0021256 5.31956e-05 0.00151244 
C 33.3883 43.6306 33.9308 12.011 0.00339315 -0.00277108 0.0056932 
C 16.8641 40.2491 10.3215 12.011 -0.00559118 0.000326559 0.00618267 
C 39.1282 5.06048 2.07153 12.011 -0.0012155 0.00352057 -0.00396578 
C 38.9349 11.1113 36.7221 12.011 -0.00316194 -4.68003e-06 -0.00253327 
C 8.35782 18.5328 11.0685 12.011 0.00462899 -0.00282394 0.00226849 
C 46.2803 4.02899 27.3896 12.011 -0.00574797 0.00570172 -0.00328257 
C 36.9583 28.5698 12.6255 12.011 -0.00920847 -0.00319565 -0.00363884 
C 35.7961 49.5711 37.3413 12.011 -0.00479211 -0.00424586 -0.00176301 
C 17.6632 49.4768 12.8856 12.011 0.00185805 -0.00145801 -0.00689743 
C 13.476 29.3109 27.3503 12.011 -0.00881887 -0.0125105 -0.00612537 
C 10.9925 22.6222 5.82488 12.011 0.00307023 0.00031473 -0.0030802 
C 1.21643 11.6896 36.9249 12.011 -0.0018394 -0.00313323 0.00560364 
C 17.7174 12.7067 39.8847 12.011 0.00253354 0.00430572 0.000104108 
C 4.78604 21.9455 29.5401 12.011 -0.00502358 -0.00195955 0.00550994 
C 20.6277 0.763066 38.3263 12.011 -0.00132202 0.000658209 -0.00858275 
C 1.13945 11.3683 23.2805 12.011 0.005058 0.00161158 -0.000763705 
C 21.1313 19.2778 38.0806 12.011 0.00310961 -0.00297836 0.00354459 
C 40.8877 11.9199 35.5207 12.011 0.00183944 -8.6064e-05 -0.00120166 
C 37.346 14.1842 5.41382 12.011 0.0131881 -0.00465051 -0.00185563 
C 34.7445 21.4946 16.7108 12.011 -0.0073004 -0.00440873 0.00450616 
C 27.2897 7.50591 34.0975 12.011 0.00154891 0.00514993 -0.00384023 
C 26.9776 25.7536 24.363 12.011 0.000654666 0.0104435 -0.00118097 
C 39.587 6.82138 31.1968 12.011 0.00483727 0.000868337 -0.000403496 
C 34.9867 1.37857 22.7983 12.011 0.00481618 0.000488517 0.00172969 
C 21.1256 3.02346 32.6448 12.011 -0.005715 -0.00116498 -0.0101535 
C 9.03474 50.4947 42.2648 12.011 -0.00344 0.00322867 0.009881 
C 14.9342 19.2305 41.613 12.011 -0.00759588 -0.0074691 -0.00354399 
C 17.073 1.64369 40.7161 12.011 -0.0036886 -0.00614816 0.00123022 
C 0.582131 28.8054 35.7509 12.011 -0.00297864 0.000674323 0.00372956 
C 11.3145 46.3221 25.9896 12.011 -0.00034669 0.000727137 -0.00898853 
C 48.508 20.1391 18.1787 12.011 0.00310677 9.89268e-05 -0.00252846 
C 3.09708 46.3608 2.34198 12.011 0.00788345 0.00406381 0.00010981 
C 5.63538 40.4192 17.1829 12.011 0.000210587 -0.00416298 -0.0056717 
C 13.3226 39.2667 24.4821 12.011 -0.00125763 0.000815931 -0.00126072 
C 29.5862 19.5248 13.1959 12.011 0.00120817 -0.00252296 -0.00196926 
C 18.5555 19.2075 17.0118 12.011 0.00295118 0.00110284 9.34988e-05 
C 11.275 43.2064 12.7772 12.011 -0.000840555 0.000385632 0.00032637 
C 4.90679 18.2502 18.1485 12.011 0.0105858 0.00270632 -0.0018195 
C 7.76233 17.2646 46.2626 12.011 -0.00539727 -0.00545884 -0.00641652 
C 29.4295 23.4105 10.0047 12.011 0.00130498 -0.00113094 -0.00093096 
C 24.7963 38.7372 22.7229 12.011 -0.00615531 0.00637023 -0.00138404 
C 12.0853 25.7367 20.2258 12.011 0.00239685 0.00831542 -0.00426056 
C 14.393 39.5443 2.97467 12.011 0.00498048 0.00591324 -0.000660536 
C 22.2739 10.7392 34.2606 12.011 0.00283461 4.07007e-05 0.000936962 
C 7.53118 38.76 16.335 12.011 -0.00404564 -0.00599893 -0.00174865 
C 13.0966 16.1268 43.8694 12.011 -0.00348044 -0.000675397 0.00121391 
C 18.5381 48.7477 35.2133 12.011 -0.0043003 0.00625824 -0.000778424 
C 41.5982 36.3481 8.13253 12.011 0.00694896 0.00210442 -0.00373521 
C 38.2364 49.8244 15.5915 12.011 -0.00464812 -0.00183058 -0.00172462 
C 26.6932 42.4956 42.4907 12.011 0.00141267 0.00675582 -0.00193318 
C 4.9408 28.8234 4.53328 12.011 -0.00373828 0.00335552 0.000738205 
C 33.7335 13.1057 10.4492 12.011 -0.00381313 0.00502192 -0.00200837 
C 0.459896 23.664 24.2457 12.011 -0.0125465 0.00398047 0.00593151 
C 13.3428 32.5736 32.8888 12.011 -0.00120542 -0.00441224 -0.00127035 
C 32.3951 40.6073 23.8647 12.011 -0.00722733 0.00458878 0.00660731 
C 45.9937 49.5179 49.0989 12.011 -0.0054748 0.00195441 0.00288824 
C 9.71224 43.7808 4.70949 12.011 -0.00871089 -0.00206833 0.00119407 
C 24.8381 43.957 41.7266 12.011 0.00447156 0.00674003 0.00168682 
C 47.46 47.5639 3.55342 12.011 -0.000166003 0.00355342 -0.00339793 
C 2.17613 33.6386 46.2714 12.011 -0.00266463 0.000765908 0.000399108 
C 1.05674 26.1915 19.9058 12.011 0.00423593 -0.00376607 -0.000194894 
C 3.98898 12.4761 13.9416 12.011 -4.84359e-06 7.03246e-05 0.0081525 
C 6.69944 20.6867 22.1524 12.011 -0.0015208 0.00759539 0.000402826 
C 49.2555 23.4204 21.265 12.011 -0.00779579 0.00540321 -0.000880221 
C 48.6675 14.7929 21.5994 12.011 -0.00305274 -0.00123123 0.000352286 
C 24.3883 10.809 4.83168 12.011 0.00737673 0.00479754 -0.00980586 
C 40.6175 34.1631 47.2326 12.011 -0.00307487 0.00656981 -0.00141127 
C 5.00983 24.5359 20.8035 12.011 -0.00742769 -0.00160756 -0.00348808 
C 12.4051 22.586 5.96619 12.011 0.00525454 -0.00828887 0.000219291 
C 50.4824 20.3193 7.68169 12.011 -0.00312855 0.00563556 0.000140289 
C 21.9799 6.33106 4.55902 12.011 -0.00669686 0.00107586 9.00388e-05 
C 7.22782 48.4862 18.9056 12.011 -0.00910277 -0.00940342 0.00494531 
C 38.7229 32.6322 47.6273 12.011 0.00683634 0.00491779 0.0108255 
C 43.9153 22.0245 5.01693 12.011 -0.00212221 0.00258948 0.00368668 
C 8.30598 27.7315 13.4618 12.011 -0.00273424 0.00472595 0.0091092 
C 29.8228 45.5472 22.4996 12.011 -0.00355525 -0.00157829 0.00509875 
C 17.5677 8.64541 16.4945 12.011 0.00159578 -1.31603e-06 0.00685518 
C 7.20626 9.073 36.6733 12.011 0.0056152 0.00352699 -0.00238223 
C 32.7504 45.745 30.2827 12.011 -0.000154214 -0.0034338 0.00179594 
C 33.3722 3.96958 33.1981 12.011 -0.00168326 -0.00145022 0.000161701 
C 13.3884 37.8841 1.49288 12.011 -0.00191114 0.00242653 -0.00164254 
C 1.3248 38.2235 27.2928 12.011 -0.00958004 0.00150697 8.90517e-05 
C 41.042 7.81453 48.9996 12.011 0.00182315 0.00758172 0.000158936 
C 15.2088 15.6693 44.9454 12.011 -9.33908e-05 -0.00136828 0.00675638 
C 36.2379 48.0827 12.8444 12.011 -0.0016486 -0.00900967 0.0043516 
C 35.942 16.8007 1.56593 12.011 -0.00222496 -0.00303996 0.00131992 
C 31.6353 36.7663 42.1107 12.011 0.00428109 -0.000163583 0.0021819 
C 36.8819 46.8358 42.0211 12.011 0.00192945 0.0177911 0.000340339 
C 16.872 4.65216 12.9125 12.011 0.00033669 -0.00492562 0.00502576 
C 41.5644 44.9948 48.9532 12.011 -0.000746974 -0.00430619 0.00109852 
C 26.9382 26.969 43.5801 12.011 0.00528957 -0.00542648 0.00180628 
C 42.7896 44.1593 45.5506 12.011 0.00114908 0.000836734 -0.00197767 
C 31.0436 9.62011 33.5913 12.011 -0.0068355 0.000699251 -0.00479764 
C 27.1766 48.4597 42.6627 12.011 -0.00296373 -0.0012585 -0.00151481 
C 43.0957 18.507 41.8141 12.011 0.00193393 0.00683398 0.0052174 
C 51.019 36.466 48.5986 12.011 -0.00270598 -0.00417554 0.00399434 
C 12.5804 5.04827 24.2623 12.011 0.0012273 0.00804656 0.00394759 
C 27.1934 43.378 3.33967 12.011 0.000795759 -0.00735381 0.0115979 
C 48.122 49.2789 46.1828 12.011 -0.00169981 0.00219929 0.00343601 
C 20.9671 23.5839 6.88752 12.011 0.00272372 0.0100284 -0.00823697 
C 34.5782 10.7928 33.1274 12.011 0.00518754 0.00674823 0.00123079 
C 0.154476 29.0759 11.5674 12.011 0.0062593 0.00317424 -0.00221875 
C 28.7038 40.0683 36.8747 12.011 -0.00373423 -0.00519935 0.00452121 
C 19.4031 46.4065 35.5057 12.011 -0.00149631 0.00305869 0.00499931 
C 21.6572 29.9473 36.4557 12.011 0.00154073 0.00291074 -0.00395706 
C 21.7342 34.0398 2.07514 12.011 -0.00234248 -0.00852553 -0.00370018 
C 25.878 0.148218 15.8937 12.011 0.00010155 -0.0108443 -0.00137487 
C 20.7969 0.152432 7.88851 12.011 -0.000614863 0.00559123 -0.00207067 
C 16.4052 9.37486 16.1736 12.011 0.00143109 -0.00288885 0.00553106 
C 45.1546 44.6076 12.9561 12.011 0.00689934 0.00373977 -0.00961359 
C 42.2883 49.6361 30.6129 12.011 0.00542862 -0.0064239 -0.00574427 
C 31.8793 29.782 49.138 12.011 0.00254496 -0.00256916 -0.00107448 
C 33.0664 42.9557 44.3081 12.011 0.00200883 -0.00185877 -0.00192416 
C 34.4901 13.1437 48.5175 12.011 -0.00760308 0.00167212 0.00713316 
C 31.2935 39.8226 24.4564 12.011 -0.00207619 -0.0021028 -0.0054355 
C 7.57873 30.655 8.77195 12.011 -0.000501725 -0.00889517 0.0088027 
C 33.6689 44.5909 27.9632 12.011 0.00376878 -0.00427868 -0.00022864 
C 31.0524 25.5755 9.3009 12.011 -0.00272016 -0.000641284 -0.0120532 
C 3.94858 7.7643 24.1071 12.011 -0.00243166 0.00141532 -0.00540106 
C 49.3378 50.3505 15.5993 12.011 0.00379488 -0.00559881 -0.00171659 
C 44.1734 18.8929 47.4727 12.011 -0.00448709 0.00327889 -0.0034864 
C 28.8574 24.1636 37.5246 12.011 -0.00151158 -0.00045306 -0.00190358 
C 22.1113 33.9597 28.9825 12.011 -0.00478605 -0.00202009 -0.00324398 
C 12.6912 19.8715 31.7493 12.011 -0.00606995 -0.00476864 0.00845518 
C 6.43038 20.6961 6.41211 12.011 0.00709849 -0.00141758 -0.00332232 
C 19.4009 50.4007 3.30656 12.011 -0.000840464 -0.00560689 -0.00186901 
C 50.8216 22.9798 3.7954 12.011 0.00612916 -8.9274e-05 -0.00084808 
C 5.52761 49.1187 25.0838 12.011 -0.00494674 0.00269802 2.85967e-06 
C 34.933 14.0995 4.89306 12.011 -0.00077149 -0.00705484 0.00173327 
C 31.5656 31.9276 43.0013 12.011 0.00194064 0.00169825 0.00514619 
C 29.8722 25.827 29.985 12.011 -0.00334858 -0.000465011 0.00416859 
C 39.5353 29.6668 11.7888 12.011 -0.00127873 -0.002016 0.00210233 
C 49.9821 30.1511 34.4849 12.011 -0.00707118 0.00759081 0.011109 
C 27.0254 20.8343 45.3396 12.011 -0.00438874 0.00463344 -2.26364e-05 
C 18.1525 43.1536 28.7903 12.011 0.00269496 -0.00327381 0.005222 
C 39.3549 1.33046 12.9576 12.011 -0.00452181 0.00458868 0.00386328 
C 1.56819 7.39152 45.7476 12.011 -0.000286918 0.00775428 -0.000869134 
C 12.3092 17.2028 32.6969 12.011 -0.00183745 3.32138e-05 -0.00578686 
C 20.2938 38.1756 30.1782 12.011 0.00011042 0.000990744 -0.00341377 
C 9.60629 24.1069 9.51248 12.011 -0.00610563 0.00462063 -0.000322541 
C 31.4108 30.4233 16.1811 12.011 0.00231727 0.00559493 -0.00269356 
C 23.1507 8.454 32.9387 12.011 -0.000780691 -0.00850903 -0.000959727 
C 37.8161 28.7629 18.2454 12.011 -0.00401584 -0.00045082 0.00599032 
C 37.7044 14.9332 46.652 12.011 0.00802728 -0.00224298 -0.00177599 
C 29.5892 44.6437 9.26103 12.011 0.000229577 0.00142983 0.00774768 
C 4.41436 16.8922 8.9885 12.011 -0.00503902 0.00599364 0.0067734 
C 33.2084 41.4825 8.8259 12.011 -0.000139109 -0.00675056 -0.00562428 
C 9.3072 4.6261 35.0591 12.011 -0.00242585 -0.00230787 -0.0080684 
C 4.59456 18.4344 10.6587 12.011 0.00246113 -0.00515293 0.000754142 
C 20.7526 36.3456 34.3755 12.011 0.00326468 0.00190938 0.000275052 
C 37.3973 5.70192 19.0939 12.011 0.00122789 -0.00123533 0.00244033 
C 46.8445 25.1625 18.2302 12.011 -0.00801172 -0.0070094 -0.00014725 
C 19.9425 1.21766 8.08226 12.011 -0.00222413 -0.00732869 0.00488814 
C 22.9787 18.8319 18.0024 12.011 0.00162584 0.000950707 -0.00912675 
C 38.7915 45.4543 0.475614 12.011 -0.00782318 -0.00815475 0.00441514 
C 22.0858 30.7554 12.7242 12.011 -0.0152584 -0.00474686 -0.00423065 
C 12.115 17.9982 6.783 12.011 -0.00286686 0.00396443 0.00242571 
C 26.6177 24.9501 37.2556 12.011 9.49602e-05 -0.00466749 0.00150676 
C 26.292 10.5271 49.8613 12.011 0.00205674 0.00223394 0.0064638 
C 37.4327 30.1958 39.9786 12.011 0.0040986 0.00324917 0.00115815 
C 6.99494 10.9623 21.6082 12.011 -0.00152823 0.00313422 -0.000397475 
C 36.9951 27.5431 9.00304 12.011 -0.00467656 0.00291413 0.00464172 
C 21.9186 19.0541 26.4333 12.011 7.39275e-05 0.00165129 -0.00109481 
C 47.9671 23.0605 12.0907 12.011 -0.00576682 -0.00292275 0.00387505 
C 14.7758 10.0795 50.5336 12.011 0.00296461 -0.00231019 -0.00240405 
C 12.2495 22.8529 24.0197 12.011 -0.00155496 0.000215382 -0.00360265 
C 3.57368 33.2193 23.9255 12.011 -0.00115357 -0.00322346 -0.00693041 
C 22.5943 32.7103 49.1865 12.011 -0.00351348 -0.00218053 -0.00143505 
C 31.8795 24.1401 49.2643 12.011 -0.00584745 -0.00180722 -0.00212222 
C 19.4693 26.545 20.852 12.011 0.00433353 -0.00315473 -0.00852357 
C 19.5387 13.3207 12.8321 12.011 0.00469741 -0.00439235 -0.00410563 
C 40.0618 19.1927 35.7592 12.011 0.00664739 -0.00612432 0.00676366 
C 37.159 12.6733 19.5932 12.011 -0.00517955 -0.00414709 -0.000466236 
C 0.0920406 0.772941 35.7309 12.011 0.00561267 -0.00262002 0.000532337 
C 18.7341 31.4354 19.4409 12.011 -0.0050499 -0.00336351 -0.00491442 
C 42.5935 9.1217 14.6608 12.011 0.00510376 0.00850487 -0.00112042 
C 34.2865 28.8405 36.442 12.011 0.00236876 -0.00214375 0.00346545 
C 11.3606 15.3133 36.7229 12.011 0.00106131 0.00845247 0.00232877 
C 25.1557 39.3452 20.3419 12.011 -8.89379e-05 -0.000580366 0.00284956 
C 37.6498 41.3818 35.4482 12.011 -0.00350045 0.00329728 0.00396613 
C 45.215 34.0656 7.3092 12.011 -0.00284711 -0.00616638 -0.00135868 
C 12.6945 6.36173 24.8908 12.011 -0.000927611 0.00389432 -0.00288839 
C 48.5439 49.8052 44.9579 12.011 -0.00498835 -0.00132603 -0.00392234 
C 17.8489 9.82123 20.8978 12.011 0.00135976 -0.00266468 0.00708729 
C 15.7973 10.5907 21.9879 12.011 0.00122707 -0.00210071 -0.00848107 
C 25.6333 39.0708 29.059 12.011 -0.00203655 -0.000370592 -0.00255213 
C 47.1059 49.5246 10.1391 12.011 -0.00294039 -0.000434841 -0.00113753 
C 7.26409 32.7211 21.7705 12.011 0.00965515 -0.00793644 0.00225296 
C 11.0666 49.1672 40.9165 12.011 -0.008117 -0.00614601 0.00222774 
C 1.00957 43.0508 24.7052 12.011 0.000898299 0.00827111 -0.00551186 
C 20.4534 41.2961 10.41 12.011 0.00373294 -0.0046938 -0.00281501 
C 48.1925 0.602026 49.0886 12.011 -0.00287683 0.00432897 -0.00310908 
C 37.9621 27.4056 20.2742 12.011 0.00336026 0.00318495 0.000217978 
C 49.4707 6.94622 6.6369 12.011 -0.00189731 0.00459152 0.00562609 
C 37.0438 4.28408 8.21489 12.011 -0.00616026 -0.0015701 0.00115033 
C 46.8946 10.5232 27.0368 12.011 -0.0017723 -0.000391343 0.00658897 
C 46.9797 36.9416 12.2446 12.011 -0.000575087 0.00567483 -0.00460367 
C 5.7152 32.4783 9.00059 12.011 -0.00155521 0.00146666 0.0060611 
C 32.0295 26.5415 8.89282 12.011 -0.00273143 0.00353073 0.00111113 
C 35.6154 11.4909 49.8119 12.011 0.000741836 0.00349087 -0.00854721 
C 2.48085 0.656871 19.1761 12.011 -0.000931551 0.00240408 -0.000296314 
C 20.2362 0.698791 36.9334 12.011 -0.00826735 0.00523387 0.00151476 
C 43.8557 35.964 47.2109 12.011 0.00400178 -0.00145709 0.00540605 
C 28.389 22.4314 10.2 12.011 0.00444732 -0.00504147 0.00683003 
C 48.816 50.9572 9.05611 12.011 0.00947249 -0.00432654 -0.00553783 
C 29.9698 36.6464 5.70627 12.011 0.00419198 -0.0016552 0.00169606 
C 4.73674 16.8568 29.8426 12.011 0.00100426 0.00810283 -0.00157289 
C 42.7731 28.7952 31.4367 12.011 -0.00206011 0.00277419 -0.000351942 
C 46.8924 13.2208 11.6558 12.011 0.000103178 0.00391255 0.000505913 
C 29.5157 3.35621 18.7619 12.011 -0.00808347 -0.0035969 -0.00366793 
C 25.9177 21.2138 1.4269 12.011 0.00422007 0.00179102 0.00154762 
C 17.1111 17.8304 32.6508 12.011 -0.00714994 0.000975024 -0.0113602 
C 4.48567 50.5111 3.80628 12.011 0.000355981 0.00483475 -0.012524 
C 43.7909 45.1639 6.28028 12.011 0.00177783 0.0114856 -0.00565959 
C 49.3276 44.4618 4.30032 12.011 0.00390515 0.00071349 0.00185721 
C 39.7193 42.8615 29.245 12.011 -0.0019332 -0.00203926 0.00248412 
C 35.5122 46.7914 10.9483 12.011 0.000814381 -0.000429716 0.00284469 
C 49.2138 35.0787 11.9993 12.011 -0.00980447 0.00789747 0.00547909 
C 4.59594 47.414 48.2258 12.011 -0.00643487 -0.00324041 -4.97948e-05 
C 48.4946 12.3604 9.9771 12.011 -0.00190247 -0.000865638 0.000222078 
C 34.367 3.22445 38.0393 12.011 -0.000511441 -0.00272888 0.000747244 
C 33.2945 37.911 40.857 12.011 -0.000867525 -0.000654341 -0.01043 
C 39.1426 51.0132 7.13339 12.011 0.00242671 0.00800778 0.00483944 
C 3.44826 0.482072 5.82339 12.011 0.00262655 -0.00250033 -0.00315477 
C 35.3047 11.7037 40.3021 12.011 0.00420464 0.00330413 -0.00353426 
C 46.1133 49.347 1.63129 12.011 -0.00429649 -0.00310266 0.00625783 
C 37.0728 3.91814 9.60287 12.011 -9.64824e-05 -0.00529905 0.00195418 
C 33.9534 33.2698 47.5016 12.011 -0.00324825 -0.000969458 0.00319203 
C 24.8608 30.2329 20.6485 12.011 0.000301051 0.00436044 6.17843e-05 
C 20.9368 28.9338 16.7985 12.011 0.00633232 -0.00406876 -0.00838992 
C 6.51277 30.6865 48.3169 12.011 -0.00612768 0.000634452 0.00487826 
C 29.9334 21.9402 32.1354 12.011 0.00337082 0.00387195 -0.00352952 
C 50.7516 6.20694 0.480072 12.011 -0.00188504 -0.00617843 -0.000388411 
C 31.4293 4.12927 19.8724 12.011 0.00346055 -0.00264409 -0.00289158 
C 16.1826 13.706 50.7773 12.011 -0.000154381 0.00397078 0.00701626 
C 4.85494 40.4437 15.9923 12.011 -0.00607538 -0.00431804 -0.00206245 
C 21.2626 32.5781 19.645 12.011 0.00278395 -0.00472128 -0.00469257 
C 21.5617 17.2745 44.2287 12.011 0.00480919 -0.00563746 -0.00130619 
C 41.3866 18.5275 47.9267 12.011 0.00903958 0.00114593 -0.00356335 
C 28.9687 2.87926 36.9822 12.011 -0.00170191 -0.00916286 -0.00199768 
C 48.9011 7.22808 25.4745 12.011 0.00529629 0.00107341 0.000332653 
C 29.0404 4.53812 13.8629 12.011 0.00374365 -0.00457134 -0.00874938 
C 35.6879 12.4734 48.777 12.011 0.00306527 0.00119847 -0.00349931 
C 28.3624 50.2271 16.8235 12.011 -0.00136307 0.00214334 -0.00398565 
C 37.8114 41.5761 44.3259 12.011 0.000736344 0.0073175 0.00122306 
C 32.1406 27.7548 19.2996 12.011 0.00172101 -0.00189629 -2.06289e-05 
C 35.5848 15.8847 39.3583 12.011 -0.000583228 0.00477792 -0.00460684 
C 35.2055 15.9968 46.4089 12.011 -0.00705012 0.00145685 -0.00116779 
C 21.3541 33.1563 40.9237 12.011 -0.0111469 0.00403924 -0.00177599 
C 36.1046 11.677 19.5855 12.011 -0.00348779 -0.0017412 0.000719429 
C 48.1306 48.506 2.86584 12.011 -0.00892798 0.00583408 0.00397539 
C 26.7601 42.9427 2.012 12.011 -0.00504264 -0.00364423 -0.00807371 
C 50.0786 42.1368 4.58701 12.011 0.000149966 0.00220004 -0.00298547 
C 22.6538 38.1476 27.0234 12.011 0.00848109 -0.0024747 -0.00301745 
C 23.5343 19.1378 38.5898 12.011 -0.00491839 -0.007168 -0.00274236 
C 27.6662 19.8089 0.452895 12.011 -0.000661056 -0.0096773 0.00343939 
C 13.0505 33.8824 7.00491 12.011 0.00107063 -0.00664706 -0.00287174 
C 18.9441 16.4643 7.16293 12.011 0.00095966 0.00222167 -0.00385571 
C 16.2089 34.8434 1.09337 12.011 -0.00487225 0.00738058 5.22986e-05 
C 44.797 45.6434 34.8668 12.011 0.00449493 0.00592205 -0.00563567 
C 35.1473 5.23221 49.4089 12.011 0.000576308 -0.00219072 0.0042429 
C 31.0564 31.2269 37.127 12.011 -0.00253719 -0.00823697 -0.00476304 
C 50.3952 50.6662 28.5846 12.011 0.0031706 -0.0015487 0.00166095 
C 14.0699 38.1738 2.69977 12.011 -0.000287359 -0.00629644 0.000189856 
C 44.9716 45.7811 13.6915 12.011 -0.000505596 0.00360468 -0.00485425 
C 25.2586 20.7733 33.4356 12.011 -0.000935429 -0.00440782 -0.000241337 
C 1.71153 9.73104 45.3621 12.011 0.00245843 0.00490321 -0.00043281 
C 21.3131 47.2862 46.0916 12.011 -0.000946543 0.0048733 0.00122614 
C 13.2867 30.6587 27.0972 12.011 0.00807709 0.00303874 -0.0042733 
C 40.8431 14.5027 28.377 12.011 0.000930608 0.0052948 0.00349788 
C 32.0872 12.4623 12.1765 12.011 0.000248475 -0.00298394 -0.000169025 
C 22.2285 18.6851 38.7265 12.011 0.000940074 -0.00159417 -0.0020424 
C 32.7405 3.17688 32.2087 12.011 -0.0044289 -0.00140676 -0.000229965 
C 7.49196 1.0486 22.3027 12.011 -0.0037799 0.000473184 0.00710663 
C 7.86812 50.544 29.9967 12.011 -0.00718934 -0.00122848 0.00066759 
C 13.8258 46.0186 18.3499 12.011 0.00922927 -0.00585442 0.00365975 
C 41.2096 46.3851 13.3835 12.011 0.00187362 0.00511467 -0.00105344 
C 21.6733 14.056 47.9223 12.011 -0.00165694 -0.00317577 -0.00463008 
C 44.6185 13.9624 46.3999 12.011 -0.00773498 -0.0059522 -0.00596424 
C 10.456 39.5791 0.243482 12.011 0.002105 0.00404274 -0.00292332 
C 38.2272 43.8415 27.5031 12.011 -0.00532637 -0.00676037 0.00437924 
C 2.60436 11.4418 23.6169 12.011 -0.00499501 -0.000506272 0.0011256 
C 27.9588 35.0324 8.41173 12.011 -0.000142955 0.00751635 -0.0127467 
C 4.2522 42.1492 18.3725 12.011 -0.00996115 -0.000657208 0.00379776 
C 14.5739 50.645 20.539 12.011 0.000476986 -0.0034954 0.00450117 
C 12.4648 22.4787 40.0081 12.011 0.000836828 -0.00283715 -0.00284125 
C 18.6801 26.026 18.5993 12.011 -0.00204958 0.00272298 -0.00263681 
C 15.8582 23.7485 11.38 12.011 -0.00835715 -0.00612259 -0.00123086 
C 35.985 4.64811 24.3312 12.011 -0.00443394 -0.0018417 0.000279975 
C 0.607487 35.8839 14.6145 12.011 0.00130381 -0.00318798 -0.00607539 
C 19.4481 34.5126 2.9892 12.011 -0.00479026 0.00349171 -0.00621379 
C 4.13896 49.1302 27.5485 12.011 -0.00269134 -0.00620138 0.000298121 
C 27.9238 6.28154 47.9457 12.011 0.000529952 0.00986459 0.00180897 
C 37.8735 11.6821 37.6433 12.011 0.000107765 -0.00186636 -0.00111271 
C 40.4321 9.466 35.8437 12.011 -0.00329144 -1.11178e-05 0.00919459 
C 40.5235 21.0014 3.78929 12.011 -0.00135081 -0.00519923 0.00224391 
C 29.6488 8.94565 40.4613 12.011 0.000208532 0.00157876 -0.0028922 
C 11.5655 2.51258 35.8542 12.011 0.00448657 -0.00543052 0.000135628 
C 38.5294 3.25965 3.60437 12.011 0.00295172 -0.00400671 -0.00501949 
C 32.4524 35.4477 50.6751 12.011 -0.00111832 -0.00919371 -0.00420442 
C 38.3414 20.1404 24.86 12.011 -0.00431635 -0.00413633 0.00370866 
C 9.23592 47.5633 19.9422 12.011 -0.00346121 0.00193137 0.00132857 
C 39.6583 49.1683 33.2842 12.011 -0.00318396 -0.00190087 0.00661776 
C 33.9645 30.8131 48.2188 12.011 -0.00273208 -0.00585749 0.0022594 
C 11.488 46.8343 47.2423 12.011 -0.00033231 -0.000151824 0.00129564 
C 16.0561 18.9389 24.1848 12.011 0.000543465 -0.000944838 -0.00320472 
C 47.5589 43.9495 23.1598 12.011 -0.00641105 -0.00644014 0.00623621 
C 9.07057 5.59725 10.3861 12.011 0.00143378 0.00379272 -0.00656071 
C 17.6279 34.6883 1.34739 12.011 -0.00781341 -0.00166252 0.001131 
C 47.6111 24.3491 19.1321 12.011 0.00375707 -0.00749363 0.00257554 
C 1.98516 5.66419 23.4417 12.011 0.00502721 -0.00193326 -0.0103533 
C 44.0001 33.6181 34.882 12.011 -0.0025277 -0.00516329 0.00508158 
C 15.2127 12.4137 35.7729 12.011 0.00149849 0.00326214 -0.00539465 
C 22.9444 24.5922 5.95524 12.011 0.00198221 -0.00371797 -0.00590023 
C 33.2104 32.4634 37.0824 12.011 0.00045058 0.000324632 -0.00745869 
C 38.6374 7.15758 14.8281 12.011 -0.00626109 0.0014654 -0.00413298 
C 23.1398 42.8756 50.3493 12.011 0.00583957 -0.0050618 -7.46387e-05 
C 39.7519 20.8817 48.2669 12.011 -0.000482263 -0.00157855 -0.00114038 
C 0.538758 26.3857 4.91266 12.011 0.00299431 -0.00155781 0.00062437 
C 5.29556 10.7558 37.0343 12.011 -0.0025854 -0.00442957 0.00428692 
C 38.9336 20.1047 23.5303 12.011 -0.00733028 0.00137027 0.00164388 
C 31.2792 33.9634 37.0515 12.011 0.00185303 -0.00463488 -0.00330397 
C 12.9993 45.9416 17.2031 12.011 -0.000834334 0.00556339 0.0057687 
C 34.4703 3.1993 0.104538 12.011 -0.0044812 -0.000168414 -0.00395819 
C 42.7632 50.0703 25.3641 12.011 0.00455717 0.00679939 0.00476815 
C 31.1293 44.0538 13.9738 12.011 0.00108735 -0.00815598 0.000419971 
C 45.8746 31.3983 40.6297 12.011 3.0793e-05 -0.00574069 -0.000144856 
C 28.6919 10.9031 15.372 12.011 2.16213e-05 0.00962747 -0.00228661 
C 28.1078 34.6232 15.7165 12.011 0.00833044 -0.00557439 -0.00561021 
C 25.5998 50.1086 43.804 12.011 0.00258102 -0.00508579 -0.00125811 
C 17.0509 13.7654 37.3909 12.011 0.00316609 0.01062 0.00222042 
C 29.6909 46.2183 41.3614 12.011 -0.00261992 -0.00155006 -0.000900055 
C 12.1689 43.1691 5.59307 12.011 -0.00450064 -0.00809925 0.00622405 
C 35.0657 24.4876 3.8873 12.011 0.00394448 0.00467794 -0.00362266 
C 25.244 9.47101 8.68062 12.011 0.00518689 0.00400411 0.00063671 
C 42.1407 47.0455 6.254 12.011 0.00485783 0.00567988 0.00679834 
C 10.9304 15.9922 5.31381 12.011 0.00135369 0.00412201 0.00429935 
C 27.3514 33.6355 49.5438 12.011 0.00287608 0.00319135 -0.00230674 
C 26.071 16.5453 50.2425 12.011 -0.00537889 -0.00218308 -0.00133598 
C 37.7781 27.8683 34.9515 12.011 0.00101572 0.0070518 0.000286403 
C 11.6543 7.32205 35.8718 12.011 0.00756382 0.00143176 -2.32113e-05 
C 45.403 0.435147 37.1103 12.011 -0.00521128 0.000652934 0.00547618 
C 13.3968 15.7471 14.1454 12.011 -0.00563966 0.000675543 -0.00148342 
C 4.40395 10.1767 24.7536 12.011 -0.00399962 0.00264209 0.00176591 
C 37.2632 43.6828 35.6615 12.011 0.00117277 0.00604264 -0.00335844 
C 22.5602 43.2101 0.640352 12.011 -0.000774782 0.00638887 0.00940742 
C 47.0079 43.1556 5.17089 12.011 -0.00424623 0.000963999 0.00412204 
C 20.2009 17.5201 16.6646 12.011 0.000715763 0.0080075 -0.00672058 
C 46.4844 13.3259 44.9569 12.011 0.00406637 -0.00322291 0.00300191 
C 41.7666 39.7351 19.5512 12.011 -0.00121111 0.00299229 -0.00622543 
C 49.5663 8.45587 25.3065 12.011 0.00563509 -0.000417718 -0.00138449 
C 1.9707 33.9353 14.321 12.011 0.0020376 -0.00234324 0.00346868 
C 10.4652 11.9505 32.0304 12.011 0.00295741 0.00374282 -0.00158856 
C 0.501332 44.6962 20.5078 12.011 0.00239369 0.00165522 0.000732102 
C 6.16479 41.0646 47.7105 12.011 0.0112435 0.00874019 0.00341621 
C 18.8075 8.12954 46.0539 12.011 -0.00414231 -0.00374003 0.00127997 
C 43.1976 43.7693 34.7752 12.011 -0.00164079 0.0011115 -0.0122753 
C 15.7939 29.8656 39.3454 12.011 0.000239412 0.00277711 -0.00663426 
C 0.5886 9.33611 36.9485 12.011 -0.0029186 0.00233044 0.00289636 
C 24.0192 3.26358 8.94347 12.011 -0.000833824 -0.00122543 0.000213938 
C 18.3485 50.2735 13.8918 12.011 -0.00464921 -0.000101092 -0.00156661 
C 13.1841 29.302 9.06519 12.011 0.00533103 0.00304943 0.00060769 
C 20.3344 27.7682 18.8289 12.011 0.00104979 -0.000540634 0.000200373 
C 5.05026 40.4127 48.3833 12.011 0.00351778 8.83266e-05 0.00224564 
C 8.44232 5.14948 19.1615 12.011 0.00346005 -0.00137936 0.00534594 
C 21.7825 41.0105 10.7872 12.011 0.00570986 0.00875461 0.00150187 
C 8.6919 43.6319 38.1967 12.011 0.00060091 -0.00300922 0.00348208 
C 41.1639 39.6024 29.4005 12.011 -0.00225856 -0.00338663 -0.00107228 
C 43.1742 31.2318 23.2934 12.011 0.00251779 -0.0036046 -0.00072236 
C 15.7584 13.5235 1.1589 12.011 0.001372 0.00182662 0.0030198 
C 11.1001 8.70541 7.03444 12.011 -0.00381655 0.0064114 0.000942091 
C 37.6869 46.3606 11.8341 12.011 -0.00291223 -0.00751032 -0.00350814 
C 12.402 5.35578 27.2035 12.011 0.00122752 -0.00708739 -0.00697143 
C 22.7959 3.41564 16.5212 12.011 0.00346169 -0.0043192 -0.0071683 
C 21.856 29.8758 25.286 12.011 0.00240279 0.00185332 -0.0021389 
C 6.06466 20.2718 30.7044 12.011 -0.00593657 0.00432251 0.00635809 
C 12.1273 29.4735 20.0127 12.011 0.00994553 -0.00561859 0.00428753 
C 26.4195 10.1958 26.2269 12.011 0.00203446 0.0023487 -0.00299643 
C 9.33785 47.4854 22.3815 12.011 -0.00183057 -0.00852471 0.000433773 
C 44.9959 40.1749 1.12744 12.011 0.00422479 -0.0049142 -0.00517589 
C 34.3333 47.5794 10.8384 12.011 0.00125189 -0.00183215 -0.0016022 
C 29.2278 16.4729 46.6719 12.011 0.00499579 0.00215449 0.00278936 
C 9.12866 8.84539 8.47656 12.011 0.00475443 0.00252602 0.00190215 
C 25.9463 3.18332 12.1494 12.011 0.00331579 0.00373044 0.00364437 
C 27.929 17.7814 42.3859 12.011 -0.00292604 0.00704176 -0.00583428 
C 9.81655 9.78926 31.411 12.011 -0.00128658 0.00396341 0.00150703 
C 32.112 9.11339 43.4431 12.011 -0.00168709 0.00910992 -0.00191795 
C 6.56793 31.622 22.3376 12.011 0.00545815 -0.00465243 0.00321491 
C 25.4068 9.48922 50.3379 12.011 0.000133456 0.00569989 0.00358429 
C 10.5278 20.5962 11.9021 12.011 -0.000789474 0.00110135 -0.0028636 
C 24.7647 41.7525 48.9009 12.011 -0.0059685 0.00451795 -0.0032797 
C 20.2183 44.7779 7.04184 12.011 0.00556807 -0.00349155 -0.00305765 
C 1.80806 23.0879 9.85078 12.011 -0.00185293 -0.00379461 -0.00420546 
C 29.3731 23.8784 8.55758 12.011 -0.00730554 -0.00387142 0.00442 
C 23.9761 0.203781 42.4569 12.011 -0.00104865 0.00041587 -0.00234549 
C 25.4288 47.2501 49.6693 12.011 -0.00359993 -0.00230997 -0.00343484 
C 11.4044 6.47009 10.0772 12.011 -0.00411515 -0.0076052 0.00204169 
C 4.25978 43.6437 11.6533 12.011 -0.000612618 -0.00591341 0.00391279 
C 8.53176 34.9311 20.4695 12.011 0.00232812 -0.00519641 -0.00165601 
C 44.8972 14.6849 49.3237 12.011 -0.0053681 -0.00102498 -0.00526182 
C 1.68906 40.546 38.0414 12.011 -0.00316158 -0.00241944 -0.0128125 
C 12.8484 42.4522 38.6323 12.011 -0.00298644 -0.00267056 -0.00723476 
C 29.7081 27.8752 49.2354 12.011 0.00592853 -0.000213626 -0.00464071 
C 33.8219 43.1441 37.4234 12.011 -0.00335652 0.00501023 0.00138115 
C 12.8099 6.4415 10.5083 12.011 -0.00474022 0.00265365 0.00664031 
C 34.7311 0.973289 44.9537 12.011 7.68384e-05 0.00138328 0.00220924 
C 7.32601 1.52867 7.20216 12.011 -0.00600246 0.00118997 -0.000670239 
C 50.7493 27.3295 37.5452 12.011 0.0106168 0.00144916 -0.00270317 
C 8.66784 2.22644 9.14348 12.011 0.00453938 0.00300531 -0.0017972 
C 24.9666 3.59019 11.2235 12.011 -0.00175236 -0.00796702 -0.00137817 
C 19.6653 27.3965 23.2271 12.011 -0.00432365 0.00557309 -0.00409043 
C 1.49036 12.7066 19.8176 12.011 -0.000620412 -0.000351064 -0.0105815 
C 49.2412 43.3243 25.2952 12.011 0.00235017 -0.00115153 -0.00205723 
C 23.5573 11.5683 41.9304 12.011 -0.0015667 0.00120859 0.00531129 
C 38.3002 48.9743 25.851 12.011 -0.00163558 -0.00251597 -0.00826369 
C 22.9051 15.0943 22.8827 12.011 -0.00521242 0.00353483 0.00654058 
C 12.8995 33.0571 18.9812 12.011 -0.00143166 0.00207381 0.00700797 
C 44.2907 42.35 7.7469 12.011 0.00117813 0.00113741 0.00710603 
C 12.1429 36.2711 15.3614 12.011 -0.00602813 0.00771214 -0.000427581 
C 35.7487 41.2141 30.7597 12.011 -0.00063219 -0.00705681 0.00563513 
C 29.6489 36.9607 19.3292 12.011 -0.00286982 0.00145977 0.002197 
C 44.3793 36.0728 0.363037 12.011 -0.00160053 -0.00286423 0.00565546 
C 15.3082 12.6865 43.5741 12.011 0.000829195 0.00211765 -0.00438501 
C 3.91887 15.1555 48.6346 12.011 0.00654862 0.00192425 -0.000369678 
C 2.41241 38.2613 26.3231 12.011 0.00665666 -0.00254093 0.00119608 
C 13.853 35.4339 1.17587 12.011 0.00488181 0.00638438 -0.00557098 
C 3.95832 20.5957 18.0139 12.011 0.00133697 0.00693724 0.00317581 
C 39.9984 26.1436 34.0827 12.011 0.0153321 0.00347311 -0.0080139 
C 5.80251 40.7083 19.6415 12.011 -0.00511212 0.006516 0.000374275 
C 50.4066 37.5287 47.899 12.011 -0.00226772 0.00885699 0.000396442 
C 14.4006 14.7133 5.93869 12.011 0.00148028 0.0031991 -0.00457759 
C 16.9596 0.492965 49.9316 12.011 -0.00506146 -0.00133861 -0.010016 
C 0.795596 43.0881 34.3761 12.011 0.00117443 0.00213528 0.000685759 
C 42.903 26.623 32.611 12.011 0.000154532 -0.00599889 -0.00213181 
C 43.4557 27.8273 8.15343 12.011 -0.00180326 0.00558875 0.00486847 
C 15.0443 11.7178 45.8046 12.011 0.00197689 0.000786221 0.00597997 
C 3.27342 4.57031 43.9299 12.011 0.00230393 -0.00438202 0.00152095 
C 39.4842 36.3847 25.6273 12.011 0.00572982 -5.47778e-05 -0.00178372 
C 42.1566 27.8688 32.4033 12.011 -0.0024159 -0.00301004 -0.00391263 
C 31.3086 44.7286 45.5882 12.011 0.0027846 -0.00224824 -0.000593431 
C 11.7084 7.71146 43.525 12.011 -0.00176494 0.0131976 0.0065177 
C 32.0686 41.9306 3.59525 12.011 -0.00520449 -0.00425436 -0.00287113 
C 30.9736 19.8428 33.0294 12.011 0.00454156 -0.00185675 0.00224836 
C 4.25039 42.173 4.59049 12.011 -0.000278844 0.00134169 -0.0040744 
C 33.4859 34.9133 31.2494 12.011 0.00163064 -0.0025008 0.000449151 
C 36.412 2.34909 24.9878 12.011 -0.00238131 0.00498577 -0.000437083 
C 41.8922 21.9202 40.3311 12.011 -0.00442848 -0.00148438 0.0122084 
C 24.1192 25.0254 8.11833 12.011 0.000975198 -0.00395273 -0.000165258 
C 31.6469 42.9185 16.142 12.011 -0.00616613 0.00352074 0.0012495 
C 6.79305 39.525 17.2997 12.011 0.00100316 -0.00193435 -0.00766528 
C 14.6924 11.462 33.6514 12.011 -0.00414364 0.000153051 -0.000435217 
C 44.1379 21.0233 40.4296 12.011 -0.0115329 -0.00824578 -0.000233803 
C 9.85752 0.362102 15.9187 12.011 -0.00835381 0.00131497 0.000328594 
C 49.9232 34.0741 30.6103 12.011 0.00755804 -0.000413161 0.00880551 
C 18.5817 49.3892 28.8807 12.011 -0.00090822 0.00135045 0.00165133 
C 42.5494 18.2323 11.7082 12.011 0.00279315 0.00709915 0.00688347 
C 39.6658 36.0754 9.5078 12.011 -0.00100662 -0.00194596 -0.0057356 
C 27.573 22.2053 32.7872 12.011 0.000861643 -0.00327145 0.000328357 
C 41.6444 44.9691 47.5794 12.011 0.0143721 -0.000493017 0.00269612 
C 27.7154 31.858 36.3287 12.011 -0.000372518 0.0102562 0.00532469 
C 3.79843 40.3145 10.0674 12.011 -0.00362942 0.00260141 -0.00230739 
C 19.5314 1.8763 9.31029 12.011 -0.00218823 0.000379808 -0.00499746 
C 16.1997 11.9224 21.6745 12.011 0.00139783 -0.000853681 -0.00700371 
C 29.6769 47.9681 39.7325 12.011 0.000974176 -0.00118255 -0.00613064 
C 39.4456 39.2215 44.0512 12.011 -0.000816825 0.00574334 -0.000493491 
C 10.5177 0.45644 12.3174 12.011 0.00612903 0.00161903 0.00132065 
C 39.8905 40.2653 29.4724 12.011 0.00618332 -0.00276244 -0.00659433 
C 46.9573 4.61696 35.6459 12.011 0.00492933 0.0024687 0.00148193 
C 24.6035 16.6195 44.8375 12.011 -0.00629614 -0.00302989 -0.00487284 
C 23.9077 22.5698 2.34795 12.011 0.00234217 0.00118949 -0.0044305 
C 14.5841 1.3192 39.4201 12.011 -0.000591796 -0.00110262 0.005046 
C 36.5036 7.19672 46.6346 12.011 0.00113586 0.00410618 -0.00645204 
C 31.1278 39.2447 18.0856 12.011 0.00158431 0.00138661 0.00676811 
C 8.35979 49.8514 32.2662 12.011 -0.00393417 0.000345219 -0.00345841 
C 41.7699 14.4573 19.6065 12.011 0.0104455 -0.00205887 -0.00223747 
C 8.37213 29.7583 3.30296 12.011 0.00432054 0.000984639 0.00240868 
C 1.38089 45.4997 42.2609 12.011 -0.00206946 -0.00388044 0.00702709 
C 22.5823 24.966 36.5673 12.011 -0.011962 0.00571545 -0.00803531 
C 15.1028 12.4791 37.2187 12.011 0.00863151 0.00624341 0.00496363 
C 5.6772 20.5574 47.7415 12.011 -0.000421686 -0.00440976 0.00137543 
C 11.3508 36.8403 27.2551 12.011 0.00184785 0.000586694 -0.00359747 
C 43.9095 26.9594 38.5239 12.011 -0.00115134 -0.00464858 -0.000934259 
C 17.997 6.69553 1.0908 12.011 0.00699725 -0.00369752 0.00466401 
C 23.8802 25.8792 29.6203 12.011 -0.00371249 0.0031194 0.00145445 
C 13.5962 10.0486 2.13081 12.011 -0.00091485 0.00843992 -0.00544726 
C 30.8167 0.65643 26.4757 12.011 0.00479652 -9.69327e-05 0.004947 
C 33.1348 37.534 44.8431 12.011 -0.00479775 -0.00412642 -0.000689555 
C 42.6341 41.9105 40.0382 12.011 0.00219542 -0.0113973 -0.00257775 
C 19.8687 3.13928 44.5104 12.011 0.00468682 0.00206508 -0.00186395 
C 1.23312 29.6195 33.6097 12.011 0.0023328 0.000877956 0.00502856 
C 21.4229 36.3483 12.9967 12.011 -0.00935263 -0.0030812 -0.00444402 
C 7.56206 46.7733 47.1943 12.011 -0.00094583 -0.00633919 -0.00465091 
C 18.1283 39.0059 27.7035 12.011 -0.000143443 -0.00690051 0.00464542 
C 34.6595 1.41976 41.2568 12.011 0.00413189 -0.00506891 -0.00364171 
C 45.2162 46.8284 4.29246 12.011 -0.00180266 0.00312234 0.00528909 
C 29.5024 45.9241 14.1497 12.011 0.00224064 -0.000748131 -0.00442125 
C 26.0109 33.9694 27.9328 12.011 0.00720123 0.00213045 -0.0121037 
C 28.4347 34.9835 12.4837 12.011 -0.00330661 -0.00523882 -0.000134956 
C 13.3899 12.6618 39.0621 12.011 -0.00781797 0.00318565 -0.00114309 
C 3.82639 40.7196 24.1622 12.011 7.93115e-05 -0.00706334 -0.00149754 
C 22.289 32.209 24.5821 12.011 -0.000934501 0.00374407 0.00951827 
C 41.1787 49.9283 31.4907 12.011 -0.000213555 -0.00165138 0.0119696 
C 27.3466 44.286 30.645 12.011 0.0136392 -0.000847289 -0.000597859 
C 46.84 26.9982 6.60315 12.011 -0.00109881 -0.00189115 0.0014771 
C 11.8593 10.4678 17.4399 12.011 -0.00183291 -0.00095369 0.00101939 
C 30.5993 48.1792 1.2698 12.011 0.0032367 -0.0047256 -0.00172065 
C 10.827 42.3348 46.2585 12.011 -0.0125923 -0.00079388 0.00474702 
C 10.7809 24.7035 39.6564 12.011 -0.0033719 -0.00133934 0.00122692 
C 45.0329 43.6857 19.4399 12.011 -0.00100976 -0.00380151 0.00280335 
C 26.4247 20.6174 34.1747 12.011 -0.00346629 -0.00024462 0.00959095 
C 21.7114 47.5418 49.4348 12.011 0.000468743 0.00155926 -0.00357435 
C 42.009 15.3065 6.34446 12.011 -0.00320683 -0.00122383 -0.00256794 
C 21.8997 49.7277 13.0341 12.011 -0.00617226 0.00743413 -0.00327319 
C 21.2899 11.124 42.6685 12.011 -0.00251431 -0.00242842 0.00212163 
C 2.19944 33.1928 37.5874 12.011 -0.00513703 -0.00612257 -0.00825731 
C 15.0398 7.37196 16.1523 12.011 0.00394535 -0.00342761 -0.00110802 
C 33.2621 44.4229 19.1502 12.011 0.00439026 0.00325549 0.00350181 
C 44.6632 37.6513 12.6745 12.011 0.000952271 -0.00139321 0.000527371 
C 25.8094 11.7946 49.5295 12.011 -0.00690077 0.00657186 -0.000879099 
C 40.5125 36.0973 10.6635 12.011 -0.00270083 0.0029412 -0.00581886 
C 14.5907 15.9121 26.2007 12.011 -0.000444761 0.000730951 0.00237189 
C 17.5191 13.2551 50.4565 12.011 -0.00263926 -0.000977153 0.00202475 
C 20.9028 21.7963 0.0639931 12.011 -0.00577537 -0.00331094 0.00482511 
C 29.1785 5.11232 36.4573 12.011 -0.00224365 -0.00760077 -0.00585733 
C 3.27523 23.1712 18.9952 12.011 -0.00261417 -0.00793752 0.00343966 
C 27.822 8.79294 49.3857 12.011 0.00555685 0.00415053 0.00471433 
C 38.9365 22.1223 48.3776 12.011 -0.00924028 0.0101099 -0.00380788 
C 26.0285 42.3393 27.4988 12.011 -0.00362794 0.00109454 -0.000247296 
C 5.95417 16.7761 23.4795 12.011 0.00120708 -0.000833045 -0.000965693 
C 24.3165 41.3704 35.5329 12.011 -0.0013677 -0.000493601 0.00350218 
C 49.7588 10.1899 19.1211 12.011 -0.00579039 -0.00464499 0.000344339 
C 47.3382 44.9824 20.9889 12.011 -0.0016346 -0.00148312 0.00149009 
C 25.0426 14.5506 33.6363 12.011 -0.0010241 0.00161372 0.000766864 
C 34.6589 13.8044 6.28225 12.011 0.00223441 0.00823774 0.00457049 
C 39.7759 35.7454 35.5245 12.011 -0.00118216 0.00242243 0.000267 
C 6.45022 24.0805 39.6472 12.011 0.00810252 6.31664e-05 -0.000411867 
C 17.8645 21.9722 26.4276 12.011 0.0111334 0.00278463 -0.0067437 
C 24.132 41.265 15.9942 12.011 3.8919e-05 0.0001608 0.00575927 
C 44.9983 9.66051 20.2795 12.011 -0.00476708 -0.00489059 0.00228181 
C 46.0755 15.7612 35.3905 12.011 -0.000676178 0.0113706 -0.00424943 
C 15.0188 27.9626 32.8005 12.011 -0.00438873 0.00425042 -0.00223253 
C 24.9892 24.3687 31.0948 12.011 -0.00222951 -0.00895267 0.00612586 
C 15.0538 16.7686 25.2054 12.011 -0.00361309 -0.00107276 -0.00531682 
C 47.6974 29.7552 19.2871 12.011 0.00310672 0.00252909 -0.00264562 
C 30.8686 40.8351 32.2709 12.011 0.000418551 -0.00148391 0.00546553 
C 49.9767 28.4093 50.2598 12.011 0.00524163 0.00103014 0.00159784 
C 49.3332 19.8306 45.3353 12.011 0.00221331 0.00468134 -0.00295985 
C 14.0428 6.98134 30.1677 12.011 0.00250632 8.59354e-05 0.000641042 
C 19.1873 12.633 14.0167 12.011 0.00117255 -0.00198775 0.00438698 
C 15.3754 8.39763 2.67299 12.011 0.00468349 -0.000321803 -0.00416873 
C 34.1356 8.48781 20.6316 12.011 4.9812e-05 -0.00334967 -0.00238789 
C 34.0164 28.2618 45.528 12.011 -0.00478402 0.0115793 -0.00336295 
C 33.4389 44.0646 35.2906 12.011 0.00183016 0.0014072 -0.00408272 
C 21.8059 11.9038 21.5729 12.011 -0.00449822 -0.0029791 -3.34502e-05 
C 35.7485 48.5858 39.8194 12.011 -0.00432685 -0.00192092 0.000769017 
C 32.8498 36.1265 2.05522 12.011 0.00735546 -0.000291234 -0.000413283 
C 6.83859 13.2388 26.7287 12.011 -0.00711175 0.0044733 -0.00252953 
C 3.71901 20.9235 5.90718 12.011 0.00821211 -0.00557229 0.00357786 
C 10.9315 40.8543 27.6103 12.011 -0.00441736 0.00126684 0.00617974 
C 6.6998 17.6725 24.2536 12.011 -0.00165047 -0.00132735 0.00446364 
C 47.5266 3.26031 27.049 12.011 -0.00389203 0.00230942 -0.00116154 
C 15.824 41.2055 10.8061 12.011 -0.00729166 -0.00252808 0.00421409 
C 40.6752 19.5293 41.4157 12.011 -0.000928396 -0.00587268 0.000377305 
C 8.5159 17.3825 36.6992 12.011 0.00383109 0.0015148 0.00186733 
C 44.3892 25.7072 50.7741 12.011 0.000585277 -0.00699167 -0.00997777 
C 0.201728 14.1037 48.7385 12.011 -0.00404402 -0.00246873 0.000165567 
C 9.51696 32.5585 8.21262 12.011 0.00496406 -0.00249413 0.00300752 
C 22.5636 23.2807 30.6117 12.011 -0.00695779 -0.00112304 0.00614874 
C 41.8594 44.1173 29.69 12.011 -0.00527298 -0.00262186 0.00733569 
C 31.7966 18.2236 25.7315 12.011 -0.00598899 -0.000865673 0.00312206 
C 15.2535 6.30885 8.02502 12.011 0.00762686 -0.0063022 0.00393216 
C 26.2568 39.0827 31.3703 12.011 -0.000437043 -0.00866866 -5.28697e-05 
C 1.08865 36.034 43.58 12.011 -0.00150486 0.000921333 0.000604267 
C 34.9784 12.1072 32.8172 12.011 0.00899943 0.00257555 -0.00523726 
C 7.31547 12.7568 37.389 12.011 -0.00545719 -0.00329771 0.00386763 
C 24.6244 14.8088 49.4109 12.011 0.00416034 -0.000808686 0.0102684 
C 45.8008 43.4605 39.6118 12.011 -0.00335716 0.000277662 -0.00473667 
C 29.1076 20.6609 46.7001 12.011 0.00281438 -0.00049768 -0.0075103 
C 31.1659 29.1812 45.4745 12.011 -0.0058195 -0.0107997 -0.00362781 
C 18.3966 16.0093 36.3688 12.011 -0.00509311 -0.000942155 -0.00712435 
C 6.76559 8.63749 21.0888 12.011 0.00361459 -0.00105173 -0.00349161 
C 42.6465 45.2894 29.6254 12.011 -0.00199718 0.00199528 0.00221846 
C 40.0436 50.5468 30.9017 12.011 0.00255398 -0.0068581 0.00110836 
C 15.6244 33.4557 35.483 12.011 0.000645854 -0.00354663 -0.00797084 
C 10.1509 37.7284 15.2812 12.011 0.00131106 -0.00883473 0.0012391 
C 14.1621 30.4193 32.1793 12.011 0.00285529 0.0083828 -0.00284766 
C 46.1464 46.5205 14.1971 12.011 -0.00489206 -0.00212728 -0.0049103 
C 1.07073 41.2119 26.4758 12.011 0.00317406 -0.00524381 0.00238323 
C 17.4896 12.8465 8.4525 12.011 -0.00371552 6.12844e-06 0.000107 
C 28.3082 36.3706 3.93268 12.011 0.00543039 -0.00425123 0.000514443 
C 44.4942 34.624 2.81358 12.011 -0.00697089 -0.0068555 0.00126389 
C 16.7683 21.5891 8.93467 12.011 0.00683484 0.00196718 -0.00153126 
C 26.6362 4.16786 12.8841 12.011 0.00430294 0.00594681 -0.00106459 
C 19.1141 25.492 39.6415 12.011 0.00350057 0.00297821 0.00550695 
C 29.6614 29.9242 11.4871 12.011 -0.00832593 -0.00155611 0.00624974 
C 3.75642 47.176 13.8798 12.011 0.00459464 -0.0051306 -0.00173829 
C 1.22222 0.610729 7.44732 12.011 0.006841 -0.00754199 -0.00591084 
C 38.2216 2.81517 4.94716 12.011 -0.00541616 0.000897527 -0.0016009 
C 23.3821 46.6913 45.1951 12.011 0.000566522 0.000659842 0.00194207 
C 13.0315 38.9131 11.1006 12.011 0.0039107 0.00415234 0.00254242 
C 47.3546 10.2813 19.9869 12.011 0.00954052 0.00479119 -0.0015245 
C 47.0055 8.02952 36.1135 12.011 0.0126988 -0.00061023 0.00545755 
C 44.857 39.8765 33.9271 12.011 0.00186768 -0.00556577 -0.00385823 
C 21.4585 5.22863 20.9434 12.011 -0.00620862 -0.0061605 0.00195272 
C 42.4009 22.0065 34.528 12.011 0.00283987 -0.00248808 -0.00254262 
C 46.2251 45.611 46.8136 12.011 0.00432018 0.00196823 0.00202123 
C 22.1398 7.38291 44.4363 12.011 0.00214818 0.00298409 -0.00348759 
C 44.3206 41.0816 44.2429 12.011 0.000534592 0.00120556 -0.00514161 
C 49.1798 2.25891 47.7098 12.011 -0.0136792 0.0078388 0.00180768 
C 11.6823 35.6063 40.9957 12.011 -0.000577588 0.000126059 -0.0012662 
C 45.8954 37.324 46.9167 12.011 0.00346968 0.000269715 -0.00261595 
C 37.5972 3.79512 5.82434 12.011 -0.00216096 0.0119099 0.0018584 
C 43.5722 8.91269 27.6255 12.011 -0.00712156 -0.00104317 -0.00127355 
C 0.870662 27.0317 47.4508 12.011 0.00406272 0.00360671 0.00361572 
C 36.5146 15.1578 3.27777 12.011 0.00176418 0.0101863 -0.00972575 
C 48.1808 0.201972 47.7136 12.011 -0.00637286 0.00647668 -0.000508982 
C 32.5473 39.6117 12.9889 12.011 0.00299443 0.0050818 0.00530345 
C 18.4016 3.57562 10.6032 12.011 -0.00218647 -0.00399439 -0.000560864 
C 22.6962 16.3719 48.8597 12.011 -6.26312e-05 -0.000786329 -0.00426961 
C 24.226 37.1342 20.8819 12.011 0.00619321 0.0015301 -0.00622987 
C 33.9728 20.6121 27.4255 12.011 0.00143298 -0.00295252 0.000745431 
C 10.9871 32.1522 19.9542 12.011 -0.000165792 -0.00857741 -0.00413537 
C 16.5639 38.8304 10.3053 12.011 -0.000266859 0.000269487 -0.00254552 
C 45.5636 13.3688 35.4055 12.011 -0.00503688 -0.00382737 -0.0072874 
C 29.6535 2.24296 13.7577 12.011 -0.00274267 -0.00124326 -0.00115468 
C 21.8665 38.1168 28.3767 12.011 0.0026642 0.00613449 -0.00239034 
C 4.03258 29.919 11.44 12.011 0.00171536 0.000847374 0.00246819 
C 45.6957 43.4478 5.77547 12.011 0.00273777 -0.0005616 -0.00274495 
C 1.48904 36.8908 14.0647 12.011 0.00378707 0.00186203 -0.00708066 
C 27.5465 4.92355 23.4096 12.011 -0.0101829 -0.00312896 0.00466523 
C 15.2386 28.338 24.2007 12.011 0.00625566 -0.00714552 0.000945628 
C 40.2626 30.4285 23.5817 12.011 0.000682075 -0.00364636 -0.00217981 
C 25.1732 6.24286 33.3335 12.011 -0.00191547 0.00338561 0.00366845 
C 22.9249 38.2112 12.2613 12.011 -0.00116034 -0.000733064 0.00363345 
C 21.4608 14.4325 21.151 12.011 -0.00410299 -0.0138954 -0.000110995 
C 46.9271 49.9424 15.6785 12.011 0.00181833 -0.00724648 -0.00548015 
C 15.9527 41.3483 2.4784 12.011 -0.00426088 0.00273021 -0.000518911 
C 31.1324 46.9856 50.1683 12.011 -0.00773828 0.00191054 -0.000301888 
C 50.6866 44.7329 19.3136 12.011 0.00393617 0.000994153 0.00086188 
C 48.9798 10.0178 36.4495 12.011 -0.00998064 -0.000473442 -0.0038132 
C 7.04796 30.3187 22.1812 12.011 0.00473275 -0.000646346 -0.00430307 
C 21.2934 5.17826 45.3219 12.011 0.00149475 -0.000482452 0.0100252 
C 50.6392 29.7109 50.4455 12.011 -0.00595509 -0.00100727 -0.000342222 
C 2.75437 20.2406 35.9211 12.011 -0.00694412 0.00894145 -0.00268983 
C 35.0136 3.40238 44.5426 12.011 -0.00195089 -0.00140809 0.000892583 
C 14.2254 10.7269 30.0808 12.011 -0.00188222 0.00318149 -0.00528729 
C 19.9568 34.0051 4.21541 12.011 -0.00173921 -9.67279e-05 -0.000360732 
C 6.04305 37.1653 9.73539 12.011 -0.00901485 -0.000943332 -0.000719448 
C 6.97724 17.8019 12.8839 12.011 -0.00668749 -0.00512207 -0.00648809 
C 23.9863 18.5033 22.2399 12.011 -0.00495519 -0.00334717 0.0104082 
C 26.4669 33.9794 10.0183 12.011 0.00516196 -0.00133043 0.00906086 
C 40.3395 15.3142 8.13718 12.011 -0.00510148 0.00555525 0.00111818 
C 1.74816 33.6453 26.427 12.011 -0.0050405 -0.00947045 0.000489945 
C 13.3398 30.9077 39.8431 12.011 0.00525087 0.00439074 -0.00358688 
C 32.598 45.8078 32.7591 12.011 0.0055464 0.00165725 -0.00669343 
C 49.9059 4.52297 48.3074 12.011 -0.00328764 -0.00685734 -0.00404432 
C 44.789 2.7409 12.7982 12.011 -0.00570573 0.00290266 0.00167389 
C 24.4311 23.1215 42.9825 12.011 -0.00295694 0.00300781 0.00110431 
C 39.9666 36.3198 40.0044 12.011 -0.00263429 -0.00772502 -0.00420949 
C 25.3204 25.1297 48.6065 12.011 0.00173841 0.00415338 -0.0020878 
C 13.1725 32.584 25.6128 12.011 -0.00503788 0.0020311 0.00199788 
C 0.910519 35.6512 46.4312 12.011 -0.00550429 0.00753872 -0.00222405 
C 3.23473 32.1981 10.1105 12.011 -0.0055186 0.0046324 0.00533445 
C 3.41071 10.4074 2.26603 12.011 -0.00458773 -0.00182856 -0.00100307 
C 28.4062 27.3284 13.9689 12.011 -0.00611614 0.00284622 0.00474024 
C 26.8035 27.6319 7.10729 12.011 -0.00182558 0.00892189 0.00299079 
C 26.8452 14.3321 18.6745 12.011 0.00426149 -0.00473813 -0.00722595 
C 48.1551 16.5244 12.8971 12.011 -0.00274634 -0.00247521 -0.00634459 
C 27.6663 21.5165 22.0892 12.011 -0.00325253 0.000235522 -0.00814726 
C 22.5438 41.2631 32.2974 12.011 0.00406229 -0.00515986 0.00439269 
C 27.8901 47.89 41.5421 12.011 0.00367402 -0.00283991 0.0011939 
C 34.3914 3.72645 22.0852 12.011 0.0012366 0.00442199 0.00388954 
C 32.009 29.2398 46.6307 12.011 0.00869108 -0.0059265 0.00313041 
C 2.74961 11.2107 31.5659 12.011 0.000904594 0.000797481 -0.00246613 
C 42.9351 19.8357 4.10582 12.011 -0.00249138 0.00279045 -0.00102071 
C 37.5536 33.8419 22.8916 12.011 -0.00929125 0.00346167 0.00328195 
C 45.9191 43.9118 30.2342 12.011 0.00118383 0.00742965 0.00408716 
C 24.6787 40.3314 32.9478 12.011 -0.00544726 0.00600122 0.000523375 
C 0.351655 10.4431 17.2279 12.011 -0.00481365 -0.00427482 -0.00459956 
C 44.1929 39.9661 11.5187 12.011 -0.000816486 0.00395437 -0.0013035 
C 41.7869 0.56459 17.3284 12.011 0.00544198 0.000905083 -0.00213329 
C 9.66782 14.7008 44.5072 12.011 -0.0105103 0.00149506 -0.00106235 
C 38.2768 36.7051 44.7819 12.011 -6.85978e-05 0.000191527 -0.00172178 
C 25.9862 27.7121 29.6195 12.011 0.00480187 -0.00300131 0.00622315 
C 34.6501 29.1537 26.7242 12.011 -0.00497055 0.000896591 -0.00528594 
C 40.6059 23.2546 18.8777 12.011 -0.00190262 -0.00637753 0.00178822 
C 47.389 15.1164 49.7807 12.011 0.00609651 -0.000559198 -0.00708627 
C 42.8634 21.1398 4.55594 12.011 0.00562676 0.00630692 -0.00252442 
C 3.38869 26.3123 20.9934 12.011 0.00793974 0.00544978 0.00406019 
C 28.3897 11.2198 2.07218 12.011 0.00203917 0.00896583 0.00342728 
C 23.7069 35.8676 20.5105 12.011 0.000758174 0.00383539 0.00116528 
C 48.1511 22.8098 34.0737 12.011 -0.00312592 0.0059406 -0.00165224 
C 30.1618 45.1394 43.4647 12.011 -0.00800982 0.00241046 0.00143193 
C 45.8056 14.3053 45.7205 12.011 -0.0024052 -0.00526436 0.00431359 
C 27.6715 41.5161 42.1666 12.011 -0.00491134 -0.00522781 0.00106176 
C 10.3659 0.653949 9.96046 12.011 -0.00259654 -0.00430237 -0.0078661 
C 29.3995 49.6755 5.90209 12.011 -0.003388 -0.00475294 -0.00273685 
C 34.4785 2.97812 49.6923 12.011 0.000634427 -0.00137785 0.00522967 
C 33.8962 1.76456 34.6357 12.011 0.00563529 -0.00143795 -0.00400407 
C 34.1034 26.0221 36.4345 12.011 0.00416589 -0.00873379 -0.00361258 
C 32.4324 36.382 0.715779 12.011 0.000843352 0.00440004 0.00415 
C 29.4407 39.7032 27.6636 12.011 -0.00209222 -0.00184979 0.00549571 
C 37.2084 46.0682 36.2264 12.011 0.00592623 0.00440915 0.00125215 
C 45.1213 22.31 14.5868 12.011 0.00243979 0.00380604 0.00565166 
C 44.6046 38.6656 44.8351 12.011 -0.00057897 0.00113423 -0.00318414 
C 35.4751 41.3519 38.222 12.011 0.00517477 -0.00392492 0.00485741 
C 38.7226 17.2238 36.7906 12.011 -0.00394342 0.00114684 0.00119682 
C 40.9354 23.0822 49.5181 12.011 -0.000369811 -0.00738952 0.000880123 
C 35.9487 26.338 42.4368 12.011 0.00399259 -0.0031949 -0.00191335 
C 42.5309 12.2937 27.9041 12.011 0.0015329 0.00478568 0.00463166 
C 38.589 35.2181 20.9795 12.011 0.0055367 -0.00627291 -0.00752499 
C 5.14477 19.1849 47.8867 12.011 -0.00716271 -0.000440053 -0.00210335 
C 43.8727 2.43627 29.988 12.011 -0.00374468 -0.00326065 -0.00411138 
C 37.5515 34.5895 26.4619 12.011 -0.0115958 0.00715967 0.000619465 
C 24.2407 40.5266 12.8249 12.011 0.00197783 0.0012569 -0.00296831 
C 48.861 41.4151 5.08241 12.011 -0.00601382 0.00217187 -0.0026442 
C 45.5708 31.1354 22.6223 12.011 -0.00525576 0.00524211 0.00329686 
C 37.1747 40.2638 44.2838 12.011 0.000987043 0.0103626 0.00291943 
C 14.4243 9.31589 23.5081 12.011 -0.00465799 -0.00656153 0.00221379 
C 40.9708 11.0133 14.4684 12.011 -0.00557803 0.00280866 0.00552153 
C 32.245 48.4748 30.1814 12.011 0.000189481 0.00134592 -5.03068e-05 
C 32.8477 45.1595 36.0095 12.011 -0.00491879 -0.00490039 0.00601374 
C 5.07749 18.0107 9.3999 12.011 0.00747436 -0.00310868 -0.00234469 
C 24.548 49.8727 30.7022 12.011 0.00128872 0.00684226 0.0116422 
C 21.09 44.6396 36.9054 12.011 0.0128118 -0.00498792 -0.00163065 
C 8.497 39.6862 6.02217 12.011 0.000655979 -0.00318619 -0.00476801 
C 0.86754 30.0022 23.4186 12.011 -0.00256963 -0.00527297 -0.00510901 
C 45.2262 6.50441 27.3593 12.011 -0.00338363 0.00353103 0.00473448 
C 47.7147 24.7973 49.2111 12.011 -0.0048142 -0.00366643 0.00162753 
C 2.92242 34.4131 8.83928 12.011 -0.00732235 0.00645615 0.00126565 
C 28.7604 8.0956 41.2356 12.011 0.004191 0.000164167 -0.00521479 
C 39.3945 30.7797 13.9885 12.011 -0.00377621 0.000464915 0.00432575 
C 17.2601 46.7716 24.9593 12.011 -0.00566805 0.00842759 0.00288508 
C 21.2527 43.3346 34.6121 12.011 -0.000313032 0.00361317 0.00217516 
C 14.1825 4.55377 30.5082 12.011 -0.00248983 -0.00647619 -0.00668013 
C 45.3902 17.5835 41.4388 12.011 0.000357302 -0.000779752 0.00292645 
C 4.21174 36.0433 2.89744 12.011 -0.00371191 -0.000374082 -0.00214233 
C 21.6796 12.5451 49.8847 12.011 -0.00186574 0.00506893 -0.00444644 
C 17.4049 4.67781 7.96222 12.011 0.00347218 -0.00373671 -0.000513847 
C 40.8203 11.5815 48.4041 12.011 0.00941768 -0.00364166 -0.00570213 
C 12.8678 46.0952 36.5212 12.011 0.00207737 0.00333909 -0.00183178 
C 39.0073 22.9102 4.14387 12.011 -0.00736806 -0.0022212 -0.00647389 
C 10.5622 47.8554 38.8794 12.011 0.000542426 -0.00297887 -0.00606715 
C 49.1644 20.8586 17.1399 12.011 0.0028359 -0.000306988 0.000451039 
C 31.6745 0.819103 13.6416 12.011 0.00877799 0.00141841 0.00237376 
C 48.8556 14.9921 49.4251 12.011 -0.00284772 0.00700322 0.00529856 
C 47.6757 30.6476 24.1398 12.011 0.00742921 0.00481521 0.000170156 
C 47.1123 40.2351 33.2062 12.011 0.00940907 -0.00438154 -0.00558807 
C 40.7725 8.24639 22.9683 12.011 -0.00312434 -0.00326474 0.000900076 
C 36.0726 6.89183 23.3367 12.011 -0.00656082 0.00448145 0.00278612 
C 45.1345 32.924 29.6218 12.011 -0.00571597 -0.00429311 -0.00128426 
C 29.229 7.84321 11.3285 12.011 0.00333018 -0.00740765 0.00305496 
C 37.3889 34.0214 4.51938 12.011 -0.00364635 -0.00365914 -0.00543548 
C 1.82854 20.2177 41.4962 12.011 -0.00105937 -0.0033817 -0.00362755 
C 27.3209 26.8429 1.58981 12.011 0.000308097 0.000328412 0.000558391 
C 7.26302 24.3006 12.5957 12.011 0.0101281 0.00495572 0.00142945 
C 3.56765 27.4851 11.4931 12.011 0.00783695 0.00628618 -0.00431685 
C 9.06898 49.2509 4.15559 12.011 0.00536958 0.00401338 -0.008974 
C 29.2657 9.35737 17.1442 12.011 -0.00282638 0.000263288 -0.000332367 
C 33.4967 26.2591 14.4129 12.011 0.000231962 -0.00295595 0.00425245 
C 1.20465 4.1335 13.493 12.011 0.00498264 0.00382441 -0.000245416 
C 2.51318 24.4576 43.8168 12.011 0.00244383 -0.00495499 -0.000500855 
C 49.904 22.1404 17.3269 12.011 -0.00496503 0.0115761 -0.00780094 
C 25.1252 44.9926 46.7402 12.011 -0.000243928 0.00307006 -0.00262653 
C 47.2473 5.95036 10.1622 12.011 0.00477787 -0.0012903 -0.00318479 
C 33.7738 26.8525 7.14829 12.011 0.000705644 -0.00851548 -0.000515689 
C 40.1097 50.5219 4.94261 12.011 -8.08233e-05 -0.00228581 -0.00643276 
C 41.1865 26.7277 39.0912 12.011 0.00296532 0.00541902 -0.00274766 
C 13.4533 46.1388 38.7717 12.011 -0.00164226 -0.00681695 0.00506561 
C 16.4999 28.4773 34.5567 12.011 -0.00115744 0.00312855 -0.00116011 
C 24.2061 45.9302 18.9263 12.011 -0.00706656 -0.0105525 -0.001111 
C 34.3245 19.1972 17.5928 12.011 -0.00474723 -0.00116681 0.0101337 
C 46.917 28.7395 1.34944 12.011 -0.00231693 0.00105758 0.00342691 
C 48.3485 0.229719 0.309632 12.011 -0.00506063 -0.00312182 0.000215659 
C 36.4941 6.06384 41.4345 12.011 0.00531702 -0.00663425 -0.00990712 
C 42.0903 32.4272 12.3792 12.011 -0.00443207 -0.0012221 -0.00217145 
C 14.3013 47.7312 9.24802 12.011 0.0062028 -0.00304448 0.00367402 
C 48.4072 28.4728 14.6697 12.011 0.00178313 -0.0136337 0.00693536 
C 45.6439 7.1295 18.5908 12.011 -0.00641649 -0.00412175 0.00523359 
C 15.8506 1.59351 41.4015 12.011 0.00235431 -0.00819103 -0.000433687 
C 39.0465 50.9539 31.8405 12.011 0.00584516 -0.00431392 -0.00310466 
C 2.31714 50.3547 26.3636 12.011 -0.00426397 0.0060933 0.00269485 
C 23.9445 12.5439 24.6305 12.011 0.00907189 -0.00633931 0.000389293 
C 21.1955 36.7493 32.1736 12.011 0.00906748 0.000607138 -0.00410798 
C 47.3361 23.4282 5.2997 12.011 -0.00476809 0.00315331 -0.0118983 
C 45.6762 12.0312 20.517 12.011 0.00139793 7.31275e-05 -0.00130034 
C 10.8862 30.7021 40.1549 12.011 -0.00849326 -1.96963e-05 0.00368957 
C 19.1964 19.4558 15.6679 12.011 -0.00724182 -0.0125509 -0.00504265 
C 4.72223 2.97312 33.2451 12.011 -0.00484748 -0.000233514 0.00360131 
C 23.7195 36.6755 23.2373 12.011 0.0048688 0.00049772 0.000786909 
C 33.8131 2.85354 4.83193 12.011 0.000692423 0.00366229 0.00518938 
C 11.9643 43.7236 36.7039 12.011 -0.00288188 0.00620446 0.00483107 
C 32.9618 15.4839 1.89928 12.011 0.0051017 -0.00108294 0.00589616 
C 50.6054 11.1514 19.8048 12.011 -0.00277475 0.00522868 0.00441003 
C 7.12539 39.452 6.2836 12.011 -0.00528604 -0.000492968 -0.000369162 
C 29.6636 39.0468 48.6754 12.011 0.00151264 0.00780751 0.00195614 
C 20.8917 31.5321 20.6266 12.011 0.00162519 -0.000556498 -0.000570837 
C 1.35776 42.7618 16.0343 12.011 -0.00986967 -0.000985091 0.00412322 
C 30.5353 38.1369 17.3225 12.011 0.0104497 -0.00498544 -0.00163945 
C 41.9185 36.994 12.85 12.011 -0.00532716 -0.00685502 -0.00872525 
C 5.64376 12.8379 12.1443 12.011 -0.000330737 -0.000871192 0.00425439 
C 18.588 4.62487 49.2598 12.011 -0.000668245 -0.00394941 0.00348394 
C 50.6842 38.2801 10.4729 12.011 -0.00426113 0.00207405 -0.00409707 
C 16.36 43.3168 26.9007 12.011 0.00638679 -0.00375615 0.00633894 
C 25.9649 26.6108 5.06696 12.011 0.00148445 0.00375789 0.00254302 
C 0.75782 38.2168 14.1095 12.011 -0.00267371 0.000359182 -0.00274031 
C 20.0547 48.7297 1.56265 12.011 -0.00892032 0.00153762 -0.00168338 
C 19.7706 49.3215 22.4488 12.011 0.00276975 0.00859605 -0.00119451 
C 2.36371 13.6449 19.1398 12.011 0.000581315 -0.00415727 -0.00304833 
C 21.5736 3.56872 26.3008 12.011 -0.000440837 -0.000720521 -0.0060613 
C 33.0643 28.0912 20.3858 12.011 0.00115922 -0.00170326 -0.0019655 
C 36.0942 7.19241 17.7582 12.011 0.00417049 0.00551867 -0.0053826 
C 8.23321 37.1324 19.6398 12.011 0.005539 0.00605733 0.00548496 
C 40.8437 37.3546 23.8722 12.011 0.00032684 -0.000990895 -0.00181241 
C 4.66318 14.9197 15.0828 12.011 0.000645748 0.00299352 0.0077362 
C 44.0619 39.5297 28.7044 12.011 0.00236974 0.000735896 4.37726e-05 
C 37.8002 29.1968 13.6144 12.011 0.000651826 -0.0023366 0.00100875 
C 35.3042 49.3747 44.1425 12.011 0.000440517 0.00191956 -0.00139834 
C 41.285 4.53375 32.7049 12.011 -0.00702042 -0.00305831 -0.00279206 
C 31.9969 10.3963 16.9777 12.011 -0.00252579 -0.00137074 0.00133933 
C 39.432 14.6168 7.2564 12.011 -0.00147687 0.00344978 -0.00375416 
C 34.1321 35.962 5.12571 12.011 0.00121274 -0.003972 0.00254738 
C 15.7128 33.9468 0.187464 12.011 0.00558149 -0.00321717 0.00364443 
C 26.6459 47.5976 49.3452 12.011 -0.003844 0.00589385 -0.00355031 
C 9.73322 25.6283 47.2914 12.011 -0.00295321 -0.00467183 0.00739066 
C 26.3875 48.6738 47.1893 12.011 -0.00617042 -0.00402432 -0.00160102 
C 7.10823 1.63972 23.4291 12.011 -0.00344199 0.00215135 -0.00555601 
C 25.3266 33.1739 32.9589 12.011 0.00299921 -0.00808476 0.0025642 
C 18.7435 10.2463 5.89699 12.011 -0.0002068 0.00251092 -0.00138511 
C 7.35682 19.7059 46.2546 12.011 -0.00363099 0.00242997 -0.00644906 
C 1.34059 20.452 35.7189 12.011 0.00598249 -0.00172103 0.00251531 
C 44.966 19.8702 40.6267 12.011 0.00694462 -0.00631947 -0.00558765 
C 11.6411 32.4381 0.994092 12.011 0.00514406 -0.00112011 -0.00437877 
C 44.3861 35.3112 12.5067 12.011 0.000909783 -0.00124825 -0.0103412 
C 13.1988 46.2873 19.6277 12.011 -0.00451335 0.00291434 0.00294336 
C 39.0312 40.6909 6.28009 12.011 -0.00638813 0.00500079 -0.00278464 
C 24.3531 19.686 20.0648 12.011 0.00643653 -0.00567583 0.000907404 
C 2.43065 8.60657 45.7521 12.011 0.00195817 0.00436464 -0.00013655 
C 16.6563 47.5168 45.7282 12.011 0.0076657 -0.00216416 0.00655101 
C 31.0781 4.99914 28.5743 12.011 -0.0037154 -0.00454178 -0.00421855 
C 18.2569 6.96417 48.3873 12.011 0.00418641 -0.00608716 0.0106614 
C 26.1735 32.9958 31.6577 12.011 -0.00154882 -0.00169709 -0.000245152 
C 29.9685 22.6647 47.7565 12.011 -0.00250865 -0.00416399 -0.00118662 
C 16.8291 14.173 35.9856 12.011 -0.00180477 -0.00898106 0.00397056 
C 10.3623 35.0906 45.9927 12.011 0.00398727 -0.00086862 -0.00375556 
C 23.3947 31.9766 41.5064 12.011 -0.0060458 -0.00239499 0.000157849 
C 9.62749 40.4757 33.8559 12.011 -0.00704789 -0.00425756 0.00408216 
C 0.880988 32.6733 29.1417 12.011 0.00332254 -0.00119224 0.00435018 
C 11.1627 22.4701 10.3786 12.011 -0.00403621 -0.00124193 0.00492016 
C 23.6026 17.4322 24.4302 12.011 -0.000930884 -0.00778508 0.00249406 
C 11.5659 34.9018 28.7505 12.011 -0.00262597 0.0019676 -0.00569401 
C 2.77316 28.0026 30.3858 12.011 0.00265057 0.00157486 0.00690761 
C 22.8254 44.9478 7.01018 12.011 0.00366258 0.00171951 0.00925024 
C 40.6952 16.6735 35.5704 12.011 0.00561623 0.00324821 -0.0153367 
C 7.85484 20.984 32.1773 12.011 0.00524957 -0.00163812 0.0011471 
C 28.4587 44.2551 31.2081 12.011 0.00415199 0.00428744 0.0103698 
C 6.70729 38.4746 7.26415 12.011 7.88126e-05 0.00467908 -0.00294705 
C 8.08071 33.0747 41.309 12.011 0.00503 0.00223204 -0.00433087 
C 36.0256 31.893 47.2996 12.011 0.000967801 0.00118496 0.00160804 
C 15.1554 43.1031 12.3327 12.011 0.00343172 0.00602257 0.00703773 
C 36.0587 9.21392 50.6744 12.011 -0.00960781 0.00670204 0.00746787 
C 28.2759 48.1233 15.3648 12.011 0.000768101 0.000316915 -0.00371851 
C 14.7188 16.1599 11.5884 12.011 -0.0071898 -0.00703531 -0.00718583 
C 2.36758 7.73066 36.7025 12.011 0.00485429 0.00806544 -0.00131249 
C 38.0439 19.2948 19.9291 12.011 0.00982567 -0.00247569 -0.00205987 
C 33.8574 36.5702 34.5699 12.011 0.00804253 0.00435164 0.0035647 
C 50.4243 8.49443 5.12821 12.011 0.00332619 -0.00454011 0.00073385 
C 17.3094 31.7366 35.7373 12.011 -0.000731947 0.00286228 -0.00913591 
C 5.30426 23.2268 20.3437 12.011 -0.00201158 -0.000796765 0.000285863 
C 21.6841 16.6837 18.2989 12.011 0.00330135 -0.0038088 -0.00460103 
C 31.0755 19.1968 40.1897 12.011 0.00703532 0.00324929 0.00149966 
C 14.9524 2.7423 22.379 12.011 0.00562106 0.00507647 0.00259131 
C 5.87264 22.8102 39.8343 12.011 -0.00364862 -0.00125014 0.0027589 
C 23.286 23.6709 9.89131 12.011 -0.00464746 -0.00934872 0.00973873 
C 23.3512 36.4546 16.7547 12.011 0.00505257 -0.00343441 -0.00708897 
C 29.5261 38.4246 46.1865 12.011 0.00530595 -0.0042075 0.00268563 
C 23.3633 39.0774 11.2708 12.011 -0.00217183 0.0067471 -0.00379828 
C 46.7822 24.0923 14.6816 12.011 0.0045339 0.00373442 0.00400588 
C 25.6886 2.51173 2.65478 12.011 0.00269171 0.00380626 0.000781939 
C 35.5422 27.3307 47.1964 12.011 0.000962311 -0.00522491 0.00062434 
C 42.1182 0.0711607 25.6786 12.011 0.00775865 -0.000593913 0.000685525 
C 34.0302 48.6103 11.8367 12.011 -0.00519581 0.00339485 -0.0018698 
C 25.3585 50.3668 48.7578 12.011 0.00346073 -0.000882555 -0.00389658 
C 12.3579 34.7324 26.3732 12.011 -0.00602426 -0.00150566 -0.00281215 
C 36.4313 13.7386 9.54667 12.011 0.00196012 -0.00204037 0.00361279 
C 34.6687 31.9707 47.5896 12.011 -0.000480819 -0.00304051 0.00303367 
C 23.5426 42.3703 15.3613 12.011 -0.00090557 0.00438296 0.00584195 
C 21.6922 6.21938 5.98938 12.011 -0.00402106 0.000208477 -0.000427474 
C 19.1962 24.9049 22.792 12.011 -0.0018123 0.00162865 -0.00102954 
C 34.769 30.4179 42.1007 12.011 0.00162457 0.00723377 0.000569158 
C 18.4099 48.4181 31.0641 12.011 -0.0089489 0.00176959 0.00683846 
C 41.8755 34.6292 35.2237 12.011 -5.37614e-05 0.000378549 -0.00415079 
C 27.9782 48.635 21.4125 12.011 -0.00673967 -0.00275976 -0.00124293 
C 27.7858 14.3831 39.1519 12.011 0.00248326 -0.00230688 -0.00272301 
C 19.5577 16.4328 19.5024 12.011 0.00211058 -0.00598051 -0.00270445 
C 8.05526 1.43889 43.2051 12.011 0.00262784 0.000914718 -0.00465621 
C 3.39714 30.3759 45.1017 12.011 0.00413642 -0.00269425 0.0016719 
C 31.8295 38.5691 1.28371 12.011 -0.00670377 0.000534926 0.0013269 
C 4.39171 30.0892 4.75923 12.011 0.00497165 0.00757162 -0.00429659 
C 39.1286 30.7784 15.3619 12.011 0.00162112 -0.00342694 0.000883469 
C 42.514 30.3942 3.92517 12.011 -0.00846006 0.00433341 -0.000979103 
C 33.9124 20.8024 46.6826 12.011 0.00242097 -0.00291114 8.23135e-05 
C 49.6536 49.012 30.2114 12.011 -0.00120952 0.00632588 -0.00286154 
C 17.9978 34.1829 40.3339 12.011 -0.0011221 -0.00277995 -0.000631401 
C 41.3771 39.3177 34.9361 12.011 0.00135747 -0.00189704 0.00192756 
C 47.6531 19.1821 35.1772 12.011 -0.00365813 -0.000257747 -0.00388284 
C 17.3517 35.0917 36.2325 12.011 -0.00153921 0.00548148 -0.00432779 
C 47.2416 11.6886 35.8315 12.011 -0.00419774 -0.0024634 -7.75127e-05 
C 19.0334 10.675 8.70151 12.011 0.00719127 -0.00489342 -0.00407266 
C 49.4785 42.047 33.7517 12.011 0.000814606 -0.00317405 -0.00169243 
C 35.9261 50.2063 14.6768 12.011 -0.00139163 -0.00178569 -0.000795904 
C 21.5854 44.6391 6.49815 12.011 -0.0108676 0.0024671 0.00281675 
C 35.7844 3.24784 24.0657 12.011 -0.00480562 -1.70277e-05 -0.00833384 
C 15.1161 48.2868 38.5329 12.011 -0.00213736 0.00226847 0.00221783 
C 24.1486 9.21881 33.5624 12.011 0.00786439 -0.00187946 -0.00718489 
C 15.1608 8.8138 42.6377 12.011 -0.00395948 0.0105913 0.00347486 
C 48.9425 27.4296 30.4556 12.011 -0.00514862 0.000993623 0.000542527 
C 45.9924 47.5879 35.7531 12.011 0.00546322 -0.0023196 0.00884105 
C 50.3843 27.495 49.1933 12.011 0.00135719 0.00304875 0.0035156 
C 36.7327 34.8283 13.5362 12.011 -0.00032807 0.00941205 0.0011182 
C 26.1572 42.8495 28.6299 12.011 0.0042534 -0.00223047 0.00122344 
C 10.2086 18.2594 29.2814 12.011 0.000733419 0.00018966 0.00107557 
C 38.226 31.4286 48.198 12.011 -0.00325429 0.00327432 -0.0028779 
C 25.0248 11.0969 3.6428 12.011 1.13561e-05 -0.00115597 -0.00776635 
C 28.2724 2.36301 13.5159 12.011 0.00361849 -0.00447202 0.00906772 
C 9.01806 24.4164 47.3825 12.011 -9.83187e-05 0.000460818 -0.00670855 
C 25.9612 0.92647 0.953238 12.011 -0.00111237 0.0024961 -0.00200258 
C 42.6624 21.2297 15.7036 12.011 -0.00172635 0.0124369 -0.00398806 
C 16.2407 13.0638 6.2866 12.011 -0.00530623 0.00378267 0.00273278 
C 0.504707 46.1689 31.7237 12.011 0.0052704 0.00275528 -0.00678798 
C 4.07574 50.088 40.9625 12.011 -0.000114694 0.00146759 -0.00458313 
C 3.34549 14.4661 17.0497 12.011 -0.00572019 -0.00104415 0.00453214 
C 8.75884 0.953792 21.7945 12.011 -0.00340912 0.0058117 0.00434477 
C 28.6235 29.4565 43.6215 12.011 -0.00047147 0.0117705 -0.000533358 
C 19.6655 46.6818 36.955 12.011 -0.00224386 -0.000865573 -0.00219867 
C 38.9554 10.918 8.79636 12.011 0.0105185 -0.0022316 -0.00754384 
C 11.0097 46.1497 31.285 12.011 -0.00368538 -0.00224245 -0.00230232 
C 50.7777 26.4925 26.7712 12.011 0.000906111 -0.00187259 -0.00570582 
C 31.0304 40.2347 37.4725 12.011 -0.00506418 -0.00537488 -0.00331022 
C 49.6671 30.5005 26.2798 12.011 -0.00767582 0.00062081 -0.00169526 
C 7.65539 28.0374 40.3049 12.011 -0.00233935 0.00130178 -0.00147349 
C 19.536 31.9717 36.2362 12.011 -0.00246352 -0.00127076 0.000170618 
C 43.1208 33.4652 14.5547 12.011 -0.00183694 -0.00474325 0.00264109 
C 31.8972 47.5793 26.5441 12.011 -0.0034028 -0.000647038 0.00297339 
C 7.5022 22.014 47.0726 12.011 0.00170072 -0.00200469 -0.00200773 
C 11.978 1.46702 36.6776 12.011 -0.002626 -0.00200033 0.00660298 
C 15.5846 14.607 8.12267 12.011 -0.00301699 0.000982945 0.000978766 
C 18.9338 50.9571 32.2731 12.011 0.00397959 -0.00112029 -0.00338255 
C 23.2607 32.4157 30.5432 12.011 0.00513365 -0.00304979 0.000526817 
C 13.3809 0.910151 38.7364 12.011 0.00155741 0.0041403 -0.00159949 
C 41.7326 20.1723 26.5649 12.011 0.00425347 0.00234067 0.000332071 
C 13.3547 15.8091 0.123776 12.011 0.00218516 -0.00745654 -0.0020611 
C 7.35122 47.9817 31.0343 12.011 -0.00582106 0.000397392 -0.00650235 
C 9.72153 44.0351 39.1957 12.011 0.0027642 0.00123337 -0.00765227 
C 11.3615 13.1635 25.3205 12.011 0.00082778 0.00420571 -0.000350222 
C 34.9193 41.5853 34.3661 12.011 -0.00520494 -0.00074603 -0.00489577 
C 43.3977 11.5267 14.2533 12.011 0.00346082 0.00132444 -0.00650287 
C 13.208 37.4856 22.7483 12.011 0.00128496 0.00152258 -0.00553404 
C 0.332824 9.3115 45.222 12.011 -0.00567385 0.000866137 -0.0046195 
C 37.3314 24.6297 4.80243 12.011 -0.00173391 0.00302887 0.00729332 
C 11.8056 47.935 7.25486 12.011 -0.00447398 -0.00351699 -0.00580232 
C 13.1453 27.3948 16.3026 12.011 0.00426299 0.00224589 -0.00585506 
C 24.4813 32.1979 13.4387 12.011 -0.00136894 0.00237849 0.00474577 
C 5.11548 28.1613 33.8494 12.011 0.000312655 -0.00479218 -0.00639601 
C 50.4476 42.7286 34.6441 12.011 0.00247623 -0.00589167 -2.15374e-05 
C 30.6976 30.8004 11.3925 12.011 -0.00158803 0.000407568 -0.000525696 
C 15.8738 35.2178 4.07989 12.011 -0.00265203 -0.00472912 -0.000939113 
C 2.35435 3.36572 10.991 12.011 0.00490278 0.0137187 -0.0043667 
C 34.8448 43.4671 45.9486 12.011 0.00223053 -0.0142778 0.000143683 
C 38.9405 45.6132 26.0179 12.011 0.0031425 0.00199497 0.00322296 
C 29.8986 2.6262 25.2841 12.011 -0.00400812 0.00127886 -0.00514266 
C 15.7795 2.06375 42.7068 12.011 0.00164456 0.000111839 0.00743932 
C 47.5273 41.8747 5.31511 12.011 -0.00330646 -0.00291052 -0.00273112 
C 24.4852 23.2292 11.9004 12.011 -0.00155882 -0.00549734 -0.000846234 
C 13.2946 46.2044 22.1946 12.011 0.00620347 -0.0054883 -0.00595931 
C 4.05421 34.2861 8.07366 12.011 -0.00154447 0.0041121 0.0042978 
C 31.3604 11.4709 14.8126 12.011 -0.00172381 -0.00472886 -0.00268847 
C 5.6325 37.3106 40.4303 12.011 0.00704262 0.00160246 -0.00258997 
C 31.71 40.7064 34.552 12.011 0.000589299 -0.00315967 -0.00766518 
C 38.4611 11.5769 6.54533 12.011 0.00213835 -0.00564216 0.00567226 
C 3.95538 46.1384 12.9443 12.011 0.000669563 -0.000902538 -0.00100537 
C 39.8881 41.1273 11.8219 12.011 -0.00138681 -0.00461023 0.00723694 
C 49.4623 25.7408 32.1656 12.011 0.0053916 0.00150784 0.0038588 
C 34.9034 3.09981 43.0886 12.011 0.00562552 -0.00219984 -0.000404201 
C 19.5728 0.52846 28.6411 12.011 0.00236307 0.00104417 0.0102572 
C 32.1654 35.7942 49.3077 12.011 -0.00334186 0.00874664 -0.0016902 
C 49.5369 9.25181 7.3203 12.011 0.00336197 0.0038256 -0.00267419 
C 49.9797 12.6378 44.1587 12.011 0.000850102 0.000490077 0.00323321 
C 17.9207 0.352816 17.2808 12.011 0.00550865 -0.00553422 -0.00105861 
C 11.3471 46.707 23.5386 12.011 0.0044259 -0.00201468 -0.00239847 
C 4.45123 22.5979 39.8328 12.011 0.00318044 -0.00397172 0.00413115 
C 35.9732 47.1836 22.7334 12.011 0.00286064 -0.001696 -0.00567758 
C 32.4343 33.9735 31.3665 12.011 0.00789114 -0.000157402 -0.00278496 
C 21.7787 28.3771 45.2205 12.011 0.00445174 0.00429995 -0.000580493 
C 41.4567 1.13425 49.5654 12.011 0.00162962 0.0104067 0.000128704 
C 38.6997 5.0934 13.7299 12.011 0.00874024 8.57034e-05 -8.60861e-05 
C 40.3374 20.3194 23.2448 12.011 0.00344711 0.000331182 -0.0030545 
C 4.15307 22.5662 4.13271 12.011 0.00115644 0.00524631 0.00363141 
C 34.5375 47.6978 20.8351 12.011 0.000292167 -0.000525127 -0.000531087 
C 7.05639 32.119 41.7541 12.011 0.00204048 -0.00448594 0.00344285 
C 33.3767 20.3006 38.9953 12.011 0.0105706 -0.00254766 -0.00351367 
C 6.93274 4.5375 34.3097 12.011 -0.00183774 -0.00299619 0.00276119 
C 31.4012 3.61756 28.6559 12.011 0.000124601 0.0126208 -0.00795751 
C 42.6698 32.4082 11.0858 12.011 0.0028944 -0.000963455 -0.000905134 
C 46.9219 48.1207 36.5771 12.011 -0.00759239 0.00374078 -0.004288 
C 28.6141 4.44937 24.2843 12.011 0.00297879 0.00292094 0.00626878 
C 20.2929 29.6525 36.212 12.011 -0.00225097 0.0043994 -9.96995e-05 
C 43.6807 15.1049 14.9929 12.011 0.000110743 -0.00185764 -0.00375433 
C 14.3912 37.0796 3.57378 12.011 -0.000256437 0.00526579 0.0029356 
C 18.6875 5.63925 48.1406 12.011 0.00350805 -0.00365332 -0.00478673 
C 38.1899 41.8192 6.59022 12.011 0.00649576 -0.00170116 -0.000482662 
C 31.6057 50.0483 18.8124 12.011 -0.00476771 0.00843755 -0.00496068 
C 48.4626 28.9464 6.59024 12.011 0.000127403 0.00525092 -0.00436003 
C 47.068 30.9608 40.2923 12.011 0.0036309 0.00341497 0.00124124 
C 26.4003 44.3172 5.53979 12.011 -0.000749707 0.00213407 0.00137428 
C 29.8348 30.4531 36.9285 12.011 -0.00235487 -0.000165952 0.0050687 
C 13.7471 36.2049 13.4442 12.011 -0.00757905 -0.00454891 -0.00864511 
C 48.113 19.5918 46.0303 12.011 -0.00406034 0.00131049 -0.00498606 
C 46.8311 28.4864 30.0473 12.011 -0.00246563 0.000886558 -0.00141831 
C 41.4021 4.26654 19.4804 12.011 -0.00245248 -0.00039558 0.0104482 
C 28.6396 45.254 10.0361 12.011 -0.00461681 -0.00903709 0.00903059 
C 41.5136 32.0899 17.8906 12.011 0.00679648 -0.00326864 0.00210522 
C 1.84475 42.7881 45.4776 12.011 -0.00647134 0.00107614 0.000533114 
C 29.1137 12.4302 39.7571 12.011 -0.00189195 0.000528111 -0.00335841 
C 15.1475 26.8742 24.14 12.011 0.004774 0.00908955 0.00469144 
C 36.1173 12.3164 32.06 12.011 -0.00328099 0.0021439 -0.00427296 
C 50.0511 32.7689 12.2755 12.011 -0.00373875 -0.00304065 0.0031141 
C 43.7707 0.92533 35.387 12.011 -0.0033372 -0.000373262 0.002033 
C 22.1294 39.6553 10.5696 12.011 -0.00301957 0.00113288 0.00496364 
C 23.9549 19.7537 18.6644 12.011 0.0063388 -0.00292932 -0.00721475 
C 3.59294 50.7312 19.1348 12.011 0.00250022 0.00330196 -0.00387557 
C 19.6777 30.8893 20.4214 12.011 -0.00180548 0.00322074 -0.00898301 
C 9.04352 31.2069 21.2578 12.011 0.00234331 -0.000980959 -0.00340379 
C 7.40458 1.068 27.9448 12.011 -0.00745527 -0.00529577 -0.000698821 
C 44.5622 44.1889 34.8999 12.011 -0.00047225 0.00985194 -0.00221504 
C 36.7588 47.1218 37.0839 12.011 -0.00420066 0.00635635 -0.00308348 
C 30.0733 24.1448 19.7101 12.011 -0.0015878 -0.00142148 -0.00895794 
C 4.01164 15.505 17.7951 12.011 -0.00109646 -0.00376726 0.000138536 
C 38.8803 37.9516 35.4807 12.011 0.000606288 -0.00358968 -0.000200313 
C 26.4206 46.1303 10.3626 12.011 0.000428932 0.000505298 -0.0022382 
C 5.71117 39.0715 22.0154 12.011 0.00455934 -0.00243962 -0.0115917 
C 0.972598 10.0602 15.9755 12.011 0.000634749 -0.00265001 0.000155916 
C 28.6193 2.64533 18.0426 12.011 0.000931082 0.00242261 0.0056674 
C 44.7603 17.5081 28.1598 12.011 -0.00453386 -0.0126034 -0.0094725 
C 15.6906 47.6989 9.76879 12.011 -0.00627067 0.00367729 -0.00667762 
C 21.3133 7.8653 27.899 12.011 -0.00247286 0.00856846 -0.000112523 
C 0.8027 31.3784 27.2138 12.011 -0.00469076 -0.00323009 0.00351344 
C 45.1963 44.6008 46.7182 12.011 0.00336435 0.00545423 -0.00148472 
C 30.8229 16.3476 35.4345 12.011 0.00730649 -0.00581924 -0.00326115 
C 13.7469 48.5126 34.7728 12.011 -0.00268112 -0.00715287 0.000405213 
C 21.4071 8.87499 2.00187 12.011 0.000841585 -0.00231388 -0.0022137 
C 34.5725 2.60789 46.8583 12.011 -0.00351799 0.011058 -0.0031907 
C 5.81513 32.2942 42.5669 12.011 -1.80249e-06 0.00533919 -0.00659416 
C 9.23675 15.9615 29.0293 12.011 0.00518348 -0.00383426 0.00717608 
C 49.0839 30.374 23.9606 12.011 -0.000878966 0.00330939 -0.000845614 
C 46.7304 18.1279 35.1793 12.011 -0.000152374 -7.3086e-05 0.00111179 
C 20.8896 22.5427 9.90835 12.011 -0.00954471 0.00488866 -0.000887509 
C 30.1103 50.0317 24.2223 12.011 0.00228067 -0.00171557 0.00824179 
C 27.1136 13.8007 45.4456 12.011 -0.000915432 -0.00633598 -0.00747772 
C 4.39203 38.1915 24.1023 12.011 0.00218767 -0.00545506 0.0115444 
C 20.5563 47.74 48.4429 12.011 -0.00548498 0.00779482 -0.00322007 
C 40.0644 40.5314 43.8498 12.011 -0.00713812 0.00156752 0.00489778 
C 46.3779 15.489 1.25124 12.011 0.00324822 -0.00277413 -0.00122964 
C 44.4221 31.1861 2.5019 12.011 0.00665565 -0.0053035 -0.00611848 
C 45.6805 34.02 14.219 12.011 -0.00651299 -0.00214724 -0.00239242 
C 4.45168 22.4828 19.5093 12.011 0.00341171 -0.00390957 0.00135876 
C 7.1398 39.031 18.5809 12.011 -0.00148136 -0.00211664 0.00846759 
C 31.9997 24.6113 13.6949 12.011 0.00412965 -0.0080594 0.007986 
C 13.6698 28.4393 26.2598 12.011 -0.00541859 0.00520921 0.00013959 
C 32.7847 26.8312 13.3684 12.011 -0.00227195 -0.000217855 0.00404973 
C 14.4454 2.4374 43.1883 12.011 0.00642965 0.00360479 0.00024459 
C 13.3541 27.8771 18.6407 12.011 -0.00335092 -0.00481103 0.00158993 
C 28.9296 28.417 44.475 12.011 0.00943057 0.00699633 0.00147416 
C 11.4202 43.8958 35.4592 12.011 0.00286537 -0.000496031 0.00177183 
C 14.7155 23.3334 5.42298 12.011 -0.00276306 0.00161914 -0.00548888 
C 41.6058 39.0557 17.2327 12.011 0.00381979 -0.00326834 3.86409e-05 
C 41.9577 19.1037 3.68573 12.011 0.00197036 -0.00115833 0.00977589 
C 42.0063 8.01643 34.9751 12.011 -0.00013458 0.0091404 -0.000165945 
C 23.8425 6.06405 21.4791 12.011 0.000602608 0.0026219 0.00636324 
C 46.1342 20.3345 47.3085 12.011 -0.00285447 -0.000401969 0.00256646 
C 30.3386 18.2123 27.7787 12.011 -0.00439213 -0.00838672 0.00444552 
C 26.3434 9.58646 7.83585 12.011 0.00179446 0.00128515 -0.00608065 
C 31.2913 12.6723 36.2536 12.011 0.00814011 -0.000511858 0.0061169 
C 17.815 44.0259 6.34625 12.011 2.0567e-05 -0.00296862 -0.00542772 
C 17.1519 23.1029 15.9551 12.011 -0.00621745 -0.00857643 -0.000216534 
C 25.5592 9.00163 33.2482 12.011 0.00104683 0.000755473 -0.00623461 
C 7.04747 24.9857 34.6301 12.011 -0.00348276 -0.00256348 0.000561353 
C 14.1088 11.7973 39.9758 12.011 0.00317005 -0.0036047 -0.00549181 
C 46.5174 25.5872 32.3793 12.011 -0.00162108 -0.000947833 0.00180919 
C 9.93385 39.6739 29.259 12.011 -0.000123708 0.00445441 0.00323554 
C 47.586 24.7982 5.81215 12.011 -0.00388941 -0.0014028 0.00196257 
C 25.8848 30.3261 46.3499 12.011 0.00798684 -0.00607503 -0.00156493 
C 20.3633 30.2555 10.9988 12.011 -0.00451293 0.0072634 -0.00275019 
C 48.4049 7.57955 8.74239 12.011 0.0073607 0.00188384 0.00154675 
C 20.1053 10.6129 32.9514 12.011 0.00482943 -0.00656374 -0.00543685 
C 22.5484 32.5791 25.99 12.011 -0.00273859 -0.00224989 0.0022702 
C 4.54163 6.20689 45.1841 12.011 -0.000883456 -0.00437256 -0.00262678 
C 4.8098 17.1123 36.6567 12.011 -3.91807e-05 -0.00332734 0.000688031 
C 14.1031 7.87225 42.9715 12.011 0.00282346 -0.00451271 0.00481563 
C 24.0009 39.6105 13.9858 12.011 0.00122278 0.00719244 -0.00278582 
C 42.2424 17.4816 47.603 12.011 -0.00235109 -0.00408087 -7.84535e-05 
C 24.6563 50.8493 41.266 12.011 0.00143429 -0.00119685 0.00132904 
C 44.0614 50.6537 34.858 12.011 -0.00724654 -0.00329583 -0.00656859 
C 25.821 34.5779 29.2421 12.011 1.88986e-05 0.00372801 -0.00312934 
C 17.2834 16.5628 43.9421 12.011 0.00115322 -0.00161949 -0.000599066 
C 36.2595 32.2365 36.4589 12.011 0.00184355 0.00430167 -0.00156509 
C 19.7401 36.9676 10.9074 12.011 0.00467552 -0.00780111 -0.00685421 
C 14.1017 38.9569 38.2151 12.011 0.00543253 0.00991072 0.00763871 
C 7.90015 48.5098 32.2254 12.011 0.00213356 -0.00811528 -0.000795717 
C 45.0497 15.113 1.0079 12.011 0.000777876 0.000208368 -0.00147092 
C 5.50895 49.5661 20.2253 12.011 0.00461386 0.00102073 0.00288002 
C 33.1928 40.8979 38.0402 12.011 -0.00802489 0.0036588 -0.00219855 
C 28.2237 50.9531 22.4125 12.011 -0.00817929 -0.00160743 0.00368272 
C 22.6414 34.4757 18.7957 12.011 0.0019539 -0.0021738 0.000767216 
C 24.0811 9.88426 50.6989 12.011 0.0070437 0.00492532 0.00399564 
C 25.9718 20.1699 44.6908 12.011 -0.00313124 -0.00627881 -0.00182634 
C 39.6051 16.5314 12.4741 12.011 -0.00378736 0.000673671 -0.00529966 
C 23.5728 37.1463 24.5496 12.011 -0.00177649 -0.00907697 -0.00397272 
C 23.7514 41.5589 47.8313 12.011 -0.00286469 -0.00249627 0.00234493 
C 35.3403 49.1369 50.1575 12.011 -0.00257115 -0.00560608 0.00282766 
C 24.9252 19.4457 24.382 12.011 0.0008251 0.000664499 -0.00961777 
C 37.9911 1.70923 9.02758 12.011 -0.00160098 -0.00298364 -0.0139408 
C 11.897 11.8326 40.7164 12.011 -0.00615572 -0.00555819 -0.00250266 
C 25.0271 20.9745 44.0044 12.011 0.000902773 -0.00516045 0.00335676 
C 13.743 9.11375 28.3255 12.011 0.000574981 0.00528602 0.00557604 
C 11.0143 23.2609 28.6534 12.011 0.00889277 -0.00264903 0.00154002 
C 13.932 6.76963 9.81158 12.011 -0.00573815 0.00673513 0.00510226 
C 25.0654 25.6688 42.7917 12.011 0.00923183 0.0010328 -0.00256 
C 8.76232 49.53 29.7127 12.011 0.00256303 -5.56072e-05 0.000391224 
C 31.8488 37.6345 0.32273 12.011 0.00459827 -0.00771165 0.000118486 
C 36.2718 13.8191 14.1748 12.011 -0.00127717 -0.00132568 0.00629651 
C 44.6183 33.843 40.4663 12.011 0.00157764 0.000677087 0.000280601 
C 40.6834 8.66436 50.0592 12.011 0.000154793 0.00351844 1.33646e-05 
C 19.6439 11.3022 20.7751 12.011 0.000663641 0.00947312 -0.00309671 
C 29.8069 39.3679 26.3606 12.011 0.00158218 0.00172631 -0.00435316 
C 45.0406 20.7554 12.5987 12.011 -0.00826516 -0.00131467 0.00506762 
C 17.9683 17.5213 43.0765 12.011 0.00833946 -0.0014833 0.00123695 
C 14.344 13.8918 24.7546 12.011 -0.00513425 0.00650997 0.00360003 
C 41.2356 8.48058 25.2311 12.011 -0.000877516 0.00250084 0.00292154 
C 12.1823 40.1809 37.1721 12.011 0.0013837 -0.000507116 -0.00228732 
C 3.8762 1.52583 31.4563 12.011 -0.00294649 0.000496364 0.000310172 
C 35.8425 13.0386 17.6557 12.011 -0.00435214 0.00262863 -0.00168081 
C 50.4955 6.63677 15.7781 12.011 -0.00230577 -0.0039302 -0.0118696 
C 0.100072 36.6877 44.4096 12.011 0.00473601 0.000752655 0.00192982 
C 1.34483 15.4512 43.6099 12.011 -0.00044397 -9.92966e-05 -0.000529408 
C 30.0629 29.5824 13.8911 12.011 -0.00233372 -0.00379426 0.0025276 
C 0.83002 14.1546 43.8357 12.011 0.00128727 0.00148793 0.00415601 
C 7.48341 13.5472 48.6343 12.011 0.00653808 -0.00649662 0.00400638 
C 17.1647 11.8226 4.29524 12.011 0.00123317 0.0017509 0.00110109 
C 20.3614 24.7824 40.0618 12.011 -0.0121092 0.00114346 -0.00242899 
C 39.6368 4.0621 1.10302 12.011 0.00481714 0.00555967 0.00507541 
C 35.0582 42.6244 26.3979 12.011 -0.00307205 0.00153709 0.00954177 
C 48.9792 31.2428 13.8844 12.011 0.00429164 0.00456307 0.00801726 
C 2.19881 27.6424 11.2415 12.011 -0.00244263 -0.00112013 0.0094171 
C 2.94686 46.7573 31.8963 12.011 -0.00759526 -0.00275672 -0.00316748 
C 42.9607 9.5399 44.3425 12.011 -0.000422295 0.00330021 0.000812772 
C 39.9959 33.102 48.004 12.011 0.00815937 -0.00018583 -0.000978944 
C 35.8651 37.8191 40.5547 12.011 0.0028583 -0.00436462 0.00574492 
C 12.9616 31.9248 30.6287 12.011 -0.00271335 -0.00451479 -0.00933067 
C 37.9394 2.22183 17.9143 12.011 -0.00363367 -0.00344752 -0.00110716 
C 10.9667 39.0163 35.3997 12.011 -0.00444698 -0.00451551 -0.00399043 
C 36.2873 13.5315 39.0942 12.011 -0.00507325 -0.004665 -0.00261875 
C 42.5745 30.6637 29.883 12.011 0.000133451 0.00628344 0.000824937 
C 9.59406 41.4352 31.7201 12.011 0.00557421 0.000708791 -0.0048365 
C 30.9583 31.1602 5.28115 12.011 0.00325805 -0.00812935 -0.00403942 
C 45.7223 38.0085 50.9039 12.011 -0.00996455 -0.0022173 0.000525986 
C 33.6773 46.8927 8.60712 12.011 -2.86499e-06 -0.0102558 -0.00420145 
C 23.4391 46.6055 47.7064 12.011 0.000128637 -0.000110083 -0.00337687 
C 44.3717 15.5938 19.4161 12.011 -0.00622931 0.00161519 -0.00147699 
C 4.09347 25.1872 4.06844 12.011 -0.00125045 0.00198377 0.00379788 
C 49.3722 34.4458 1.35745 12.011 0.00397324 0.00615882 0.000986186 
C 3.52756 12.3744 37.1023 12.011 -0.00594206 -0.00158157 -0.0151893 
C 31.0747 30.8933 2.9001 12.011 -0.00390452 0.00205299 0.00683053 
C 30.9294 17.9542 50.9124 12.011 -0.00299232 -0.0120673 -0.000490715 
C 14.1391 11.0489 15.7941 12.011 0.00436623 -0.00107976 0.0077063 
C 45.3745 48.6052 2.61048 12.011 -0.00352397 0.00381981 0.00158849 
C 19.0971 20.3794 14.61 12.011 -0.0104388 0.000930299 -0.00814109 
C 46.6254 26.6915 0.0406325 12.011 -0.0043347 0.00157428 0.000275136 
C 2.35668 35.9019 26.1821 12.011 -0.0104562 0.000606602 0.000262638 
C 49.9834 2.89619 1.98842 12.011 -0.00483895 -0.00428311 0.00739505 
C 5.45231 33.8795 8.5635 12.011 0.00746756 0.00656828 0.00392116 
C 37.9596 1.78023 30.5554 12.011 -0.00509588 -0.00385389 -6.93623e-05 
C 47.2527 5.76255 26.2446 12.011 -0.00368315 0.00380825 0.00658055 
C 25.9979 44.1256 19.6969 12.011 0.000703292 0.00408064 -0.00502167 
C 40.8837 38.6363 40.0481 12.011 0.00198004 0.00399311 0.00890982 
C 30.1461 14.0146 3.98428 12.011 -0.0026251 -0.000946179 -0.0003875 
C 42.9465 17.8398 35.0013 12.011 -0.000846697 -0.00499648 -0.003847 
C 47.9801 46.4976 4.47481 12.011 -0.00597844 -0.000178922 -0.00261776 
C 39.9644 50.3623 11.1928 12.011 0.00423179 0.00421978 -0.00346049 
C 8.48982 27.7052 8.55793 12.011 -0.00135973 -0.00573542 -0.0016543 
C 36.5068 26.5175 6.79172 12.011 0.00600775 -0.00409742 -0.00108357 
C 1.30166 32.2887 26.1992 12.011 -0.00432912 0.00571007 -0.00217173 
C 31.85 16.9726 19.2637 12.011 -0.00629937 -0.00525251 -0.00153645 
C 26.746 31.1622 46.831 12.011 0.00169817 0.00525049 0.00224143 
C 37.6861 26.4743 35.1431 12.011 -0.00636406 0.000252136 0.00341725 
C 29.2011 34.1783 38.2641 12.011 -0.00142193 0.0029955 0.00199361 
C 7.41277 22.3594 32.0951 12.011 -0.000585946 0.00450889 0.00207289 
C 10.1286 21.5839 6.2809 12.011 2.31262e-06 -0.00530037 -0.00326388 
C 48.012 38.4975 31.718 12.011 0.00186164 -0.00853414 -0.000585355 
C 25.1778 43.8489 17.0601 12.011 -0.00273698 0.000538019 -0.00621888 
C 3.64534 42.7692 19.5691 12.011 0.00605694 -0.00462664 -0.00677717 
C 32.4673 14.14 34.6709 12.011 -0.000327158 0.0013806 0.00400525 
C 23.1651 1.30142 20.7098 12.011 0.0113287 -0.0123465 0.00186577 
C 16.8559 20.3226 40.8921 12.011 0.00625996 -0.00297376 -0.00449446 
C 41.4726 8.3158 42.8437 12.011 -0.00461168 0.00143126 0.00249538 
C 4.60987 21.7374 5.19069 12.011 0.00511066 0.00314566 0.00175822 
C 17.0323 1.56786 39.333 12.011 0.00487941 -0.00126845 0.00341739 
C 35.1862 39.9125 6.55163 12.011 -0.00501237 -0.000227241 -0.00380455 
C 40.0997 46.0366 12.5782 12.011 -0.00854752 0.00130066 -0.00403975 
C 21.901 13.1507 13.1665 12.011 0.00369272 -0.0018915 -0.00552929 
C 46.0632 19.8213 10.1426 12.011 -0.00439723 -0.0109857 -0.0036057 
C 43.7522 48.4897 10.9653 12.011 0.00107306 -0.00765733 0.0020953 
C 41.0481 39.7938 5.40039 12.011 0.00236194 0.00944896 -0.00700589 
C 21.5283 41.0207 30.2545 12.011 0.00352973 0.00132177 0.00729374 
C 18.9524 37.0059 35.8362 12.011 0.00101381 0.00200838 -0.00345223 
C 3.18647 12.6584 23.1533 12.011 0.0075302 0.00342959 0.00728315 
C 42.3902 31.1517 24.545 12.011 -0.00455237 -0.00394121 0.0011853 
C 36.7893 16.0841 30.1555 12.011 -0.00156881 -0.00125314 0.00162311 
C 6.20827 29.1231 22.3386 12.011 -0.00594836 0.00529391 -0.00107617 
C 45.62 16.3184 14.2819 12.011 0.00310967 -0.00164831 0.00747971 
C 21.2256 47.4113 44.634 12.011 -0.0105006 0.00111159 -0.00144172 
C 30.4847 30.84 8.9795 12.011 0.000986076 -0.00162494 -0.0044781 
C 17.3238 22.0843 13.8947 12.011 -0.00533574 -0.0092555 -0.00360518 
C 19.3173 45.017 33.494 12.011 -0.0112685 0.00316049 0.000503465 
C 26.4483 14.1252 50.9766 12.011 -0.00218291 -0.00178238 -0.00316388 
C 20.9078 27.0386 40.1114 12.011 -0.00191854 0.000336451 0.00254178 
C 7.49366 12.871 49.9991 12.011 -0.00371626 0.00404842 0.000233408 
C 6.57219 16.1284 31.7675 12.011 0.00304805 -0.00387429 -0.00199805 
C 29.8395 37.0766 17.9104 12.011 0.00581492 -0.00362571 0.00418878 
C 9.08272 28.586 3.62077 12.011 -0.00447713 0.000777045 -0.00239072 
C 1.159 9.08089 2.60531 12.011 -0.00107893 0.0135465 -0.00124214 
C 11.0485 23.2648 46.6315 12.011 -0.00280503 0.00232116 -0.00473706 
C 5.46675 26.7116 33.7675 12.011 -0.0073802 0.00253065 -0.0124853 
C 32.5619 45.1785 37.4303 12.011 -0.00216851 0.00352264 -0.00303824 
C 30.4907 50.2305 11.6148 12.011 0.00359275 -0.00184863 0.00247362 
C 34.6982 9.75199 20.1048 12.011 -0.00146005 -0.00467287 -0.00255512 
C 28.8003 41.552 0.948779 12.011 0.00535067 -0.00516063 -0.00805097 
C 14.5838 44.4434 14.1968 12.011 0.00117383 0.00432242 -0.00999002 
C 26 47.3971 12.4121 12.011 -0.00246936 0.00861582 0.00569917 
C 28.2266 40.7158 49.6334 12.011 -0.00257404 0.00696924 0.000126728 
C 48.3124 0.279721 43.1489 12.011 -0.00299254 0.00034717 -0.000870094 
C 34.7387 2.29444 45.4178 12.011 -0.0144707 0.00247843 0.00563523 
C 19.1664 6.38042 20.8054 12.011 -0.0119037 -0.0014936 -0.00285738 
C 2.98279 18.4324 12.4151 12.011 0.00326944 0.00511169 0.00184811 
C 15.6473 15.0438 9.52466 12.011 -0.000721769 0.00210467 -0.00110228 
C 7.44142 12.8175 5.82013 12.011 -0.00485216 0.00128867 0.00338062 
C 40.5495 37.3287 15.2968 12.011 -0.00479349 0.00261979 0.00192858 
C 22.5985 28.882 36.7395 12.011 0.00315333 0.00395034 -0.00649475 
C 4.42031 46.2673 1.62725 12.011 0.00316894 -0.00555878 0.00713731 
C 34.4598 22.0338 37.6837 12.011 0.00125976 -0.000367185 -0.00984841 
C 42.8235 42.5331 1.91475 12.011 0.00543837 0.00116224 0.00514431 
C 26.1553 26.4142 30.1911 12.011 -0.00190653 -0.0039983 -0.00249421 
C 36.1155 32.8939 19.5471 12.011 0.00523419 0.00570611 -0.00389688 
C 11.5263 2.75611 23.8088 12.011 0.000629327 -0.00621785 -0.00351571 
C 34.5508 14.4843 32.7549 12.011 -0.00521404 -0.00227746 -0.00017547 
C 14.4959 4.93327 34.2278 12.011 -0.000966057 -0.00464069 0.00464429 
C 31.9471 11.8699 50.9184 12.011 0.00545506 -0.000656187 0.00512978 
C 38.6581 47.7104 25.322 12.011 0.000283343 -0.00571657 0.00186202 
C 30.9792 6.6508 19.301 12.011 0.000934664 -0.00660501 0.00412974 
C 25.7811 31.3236 20.3784 12.011 0.00558584 -0.00417339 0.000256227 
C 50.2711 46.8273 42.4375 12.011 -0.00562831 -0.00664794 -0.00172806 
C 44.0515 49.9307 0.353747 12.011 -0.00331143 0.00606489 0.00316504 
C 41.7159 38.4139 23.4745 12.011 -0.00778227 -0.00725421 0.00453443 
C 38.035 13.1067 37.5115 12.011 0.0055215 -0.00591519 -0.0029569 
C 33.6096 20.1284 29.7402 12.011 -0.00304822 -0.00523333 0.00199726 
C 1.22955 4.42952 23.4577 12.011 0.00118176 0.00502478 0.000542044 
C 16.9272 40.4866 26.4546 12.011 0.000601966 0.00260973 5.41553e-05 
C 47.8383 43.138 25.3898 12.011 -0.00378364 -0.00533366 0.00215006 
C 33.2297 40.0893 10.8868 12.011 0.0033374 -0.00024286 0.004011 
C 16.1706 32.0134 7.90979 12.011 0.00767172 -0.00926068 -0.00606216 
C 49.3364 16.7263 1.37593 12.011 -0.00116153 -0.00296115 0.000563962 
C 25.3537 14.4561 39.869 12.011 0.00260622 -0.00125853 0.00234068 
C 23.1493 7.14476 32.2421 12.011 0.000811381 0.000365095 0.00309436 
C 23.5285 33.6828 0.341776 12.011 -0.0010144 0.000438101 0.0018081 
C 35.6814 13.3061 16.3553 12.011 0.00394732 0.000259761 0.00758713 
C 7.86927 7.61875 27.2731 12.011 -0.00855844 0.00161643 0.00197581 
C 28.5407 19.9893 39.5171 12.011 0.00154457 0.00535829 -0.00602782 
C 22.4571 13.9225 10.4559 12.011 -0.00109661 0.0020076 0.00698657 
C 2.94924 43.2793 44.7652 12.011 -0.00258193 -0.00467733 0.00126226 
C 2.69944 15.6032 43.2158 12.011 -0.0048581 0.00118865 -0.00284061 
C 29.3526 18.7926 28.511 12.011 -0.00134853 0.00254168 -0.00451567 
C 49.1106 37.2952 3.51916 12.011 -0.00963277 -0.00885409 0.000385975 
C 2.58607 11.4113 37.0209 12.011 0.00281867 -0.00387564 -0.00133674 
C 24.5879 49.0262 33.1128 12.011 -0.00295967 -0.00594224 -0.00554201 
C 30.3234 36.1805 12.1026 12.011 -0.00273775 0.000306472 0.0035329 
C 47.3069 14.1244 27.8957 12.011 -0.00307692 -0.00720298 0.00690436 
C 10.93 44.6368 29.2927 12.011 0.00341733 -0.00301535 0.0031401 
C 42.6346 44.3452 49.6762 12.011 0.00493259 0.0024255 0.00187775 
C 32.534 5.94778 31.8707 12.011 0.00220581 0.00192733 0.00810106 
C 23.0081 16.2898 22.2782 12.011 0.0102331 -0.00173413 0.00791082 
C 4.9204 16.0753 7.93408 12.011 -0.00582813 0.00318665 -0.00989548 
C 10.8224 34.3447 11.9333 12.011 -0.000912067 0.00081552 -0.000716044 
C 29.658 42.6316 3.14126 12.011 0.00421227 0.000150917 5.59083e-06 
C 11.8099 18.847 30.9867 12.011 0.00255189 0.00447839 0.0063435 
C 10.3694 33.4498 19.8263 12.011 -0.00295683 0.000841391 0.0007773 
C 10.904 19.7407 12.9605 12.011 0.00496001 -0.00107105 -0.000407477 
C 8.36413 7.94676 32.1465 12.011 0.000210793 0.00289239 -0.00675931 
C 25.08 4.68053 17.2195 12.011 0.000651673 -0.0101263 0.00494468 
C 49.8407 26.7069 18.7949 12.011 -0.00809333 0.00104098 0.000247858 
C 8.62623 21.7614 26.3863 12.011 -0.00291765 -0.00687618 0.000785506 
C 27.7121 8.59428 9.68805 12.011 -0.00439882 0.00300885 0.00398076 
C 45.2067 14.0973 13.3117 12.011 -0.00553922 0.000349419 0.00974132 
C 50.3456 29.2522 35.5289 12.011 -0.00289133 0.000418421 0.000691846 
C 3.75919 40.6325 47.9747 12.011 -0.00621393 -0.00311206 0.00878594 
C 8.72565 28.9154 40.2643 12.011 -0.00256681 -0.000879612 -0.000378586 
C 33.0998 47.2931 7.29831 12.011 -0.00343851 -0.00231264 0.00114426 
C 13.0478 36.2958 22.1232 12.011 -0.00543815 -0.000832703 0.00181323 
C 34.9488 29.1592 23.9625 12.011 -0.00609664 -0.00122834 -0.0100697 
C 9.83126 12.0089 38.0835 12.011 -0.000604126 0.00406992 0.0120917 
C 45.7125 34.0048 31.938 12.011 -0.00488072 -0.00936464 0.00701141 
C 18.2821 0.548939 15.9437 12.011 -0.00179926 -0.00680126 0.00231833 
C 22.1941 27.4585 36.5133 12.011 0.00539261 -0.00107341 0.00651235 
C 27.0845 27.2692 36.9225 12.011 0.00459683 0.000602897 0.00205311 
C 23.5104 13.5208 11.3314 12.011 0.00712936 -0.00209632 0.00618761 
C 33.1239 32.6761 16.0079 12.011 -0.00542397 9.8771e-05 -0.0080989 
C 31.949 17.7139 33.6902 12.011 0.00386631 -0.000240304 -0.00413508 
C 44.2878 32.6125 8.95266 12.011 0.00923203 0.0029181 0.00143667 
C 27.3585 27.9849 9.30204 12.011 0.000306521 0.00327916 -0.00125255 
C 40.5639 0.63333 13.0296 12.011 0.0010438 -0.00474334 -0.00189055 
C 29.9569 28.8328 15.1236 12.011 -0.00830217 0.000482319 -0.00461419 
C 34.7949 4.04544 48.7892 12.011 0.00100514 0.000964577 0.00442966 
C 34.9096 7.86214 13.3782 12.011 -0.000190253 -0.00396719 -0.00656508 
C 20.4087 3.32599 15.8775 12.011 -0.00550963 0.00169499 0.00071208 
C 19.7265 34.9412 14.065 12.011 0.00591339 -0.00204123 -0.000215247 
C 17.5363 21.9135 12.5104 12.011 -0.00521755 -0.00361189 0.00438137 
C 2.21551 36.2511 7.33335 12.011 -0.00312938 -0.00337 0.0042837 
C 30.5743 24.5246 49.2282 12.011 0.00698794 -0.00673299 -0.00688292 
C 12.5556 36.8822 25.1326 12.011 0.00105053 0.00133342 0.000193664 
C 50.8427 48.6161 14.7128 12.011 -0.00298095 0.000898807 0.0113361 
C 44.0796 18.2559 9.86105 12.011 -0.00330069 -0.00369889 -0.0093811 
C 8.39169 42.0003 46.3567 12.011 -0.000706979 0.00248375 -0.00264394 
C 29.0856 19.5717 0.203943 12.011 0.00181307 -0.00427723 -0.00323648 
C 7.88526 0.185768 42.5836 12.011 -0.00421412 -0.00306416 0.00264042 
C 31.8196 49.9585 12.1261 12.011 0.00150899 -0.00165666 -0.0014266 
C 13.5014 39.9306 6.67039 12.011 -0.00188529 -0.00126492 0.00227336 
C 32.1446 49.891 30.1479 12.011 -0.0021293 0.00948293 -0.000810488 
C 12.0016 27.2845 39.4715 12.011 -0.00170798 -0.0102669 -0.00456734 
C 3.32508 17.5635 48.8671 12.011 0.000385668 -0.00175273 -0.0092646 
C 20.5485 6.48593 20.8064 12.011 -0.00339853 0.00131576 -0.00167107 
C 22.8446 42.9005 36.5265 12.011 -0.00416489 -0.000261974 0.00738546 
C 15.6167 18.9775 26.4546 12.011 0.0003953 -0.00247176 0.00227576 
C 32.9453 28.1862 36.6693 12.011 0.000165614 0.00168958 -0.00109893 
C 13.8098 23.5286 31.1737 12.011 0.00383133 -0.00157104 -0.00182925 
C 18.3286 32.6719 36.1032 12.011 -0.00735012 -0.000310131 -0.00425527 
C 3.95345 23.6617 34.6714 12.011 0.000933598 -0.00384381 0.000292298 
C 48.4543 25.1797 22.6803 12.011 -0.00101205 0.00267472 -0.000206405 
C 32.5724 14.1386 4.40688 12.011 -0.00304643 0.00447598 0.00451467 
C 24.6684 39.1898 24.054 12.011 -0.00131648 -0.00112153 -0.00923589 
C 25.7762 8.16564 50.4731 12.011 0.00228176 0.00164808 0.00267024 
C 16.4382 12.4607 39.4102 12.011 -0.00832416 -0.00137864 0.00290904 
C 25.7087 11.2999 31.8105 12.011 -0.00910727 -0.00318095 -0.00330885 
C 25.7517 44.1517 44.0539 12.011 0.00143543 -0.00388242 -0.00384219 
C 44.2317 42.6747 11.6485 12.011 0.00437789 -0.00266441 -0.000972699 
C 36.6206 42.2865 36.0841 12.011 -0.00496026 0.00286715 0.00954307 
C 1.99552 44.8118 33.1301 12.011 -0.00623232 -0.0010382 -0.00103138 
C 4.76636 33.0829 23.2244 12.011 -0.000806074 0.00430997 -0.00831548 
C 45.5483 9.29383 12.2937 12.011 0.00437609 -0.00314433 0.00596523 
C 48.7542 46.911 31.0284 12.011 -0.00473032 -0.000475829 0.00224248 
C 25.6866 22.4072 16.4506 12.011 -0.00141388 0.00517034 0.00334951 
C 23.2208 41.6126 34.6105 12.011 0.0041132 -0.00504593 -0.00515551 
C 14.1794 7.27323 34.2625 12.011 0.00849725 -2.2241e-05 0.0044007 
C 30.0948 38.7627 42.5308 12.011 0.00127547 -0.00236203 -0.00498912 
C 33.484 46.2 49.7627 12.011 0.00113479 -0.00419114 -0.00744141 
C 22.5238 35.3698 16.4498 12.011 0.00553187 -0.00703551 -0.0030591 
C 1.73944 31.8838 48.0853 12.011 -0.00582257 -0.00344154 -0.00613068 
C 2.16847 10.4048 32.2777 12.011 0.00105241 -0.000816897 0.0025188 
C 48.7342 1.27043 27.6641 12.011 0.00323896 0.00385387 0.0037507 
C 29.7533 14.8241 37.0415 12.011 0.000832436 0.00563268 -0.00193761 
C 11.8051 46.5827 19.7597 12.011 -0.00442781 -0.0022617 0.00214793 
C 39.5299 37.4955 27.8266 12.011 0.0044272 0.00418588 -0.00875559 
C 19.0989 19.616 35.865 12.011 0.00422045 -0.00622886 -3.39242e-05 
C 9.5466 3.89501 15.3055 12.011 -0.0024931 -0.00393749 -0.00439957 
C 6.48127 28.4308 40.9488 12.011 -0.00341036 0.005184 -0.00319949 
C 34.8463 18.1889 30.5579 12.011 -0.00175575 0.00446739 -0.00528694 
C 12.6321 6.1279 35.6407 12.011 -0.00228231 -0.0027737 -0.0049597 
C 10.9305 43.3093 28.7956 12.011 -0.000600787 -0.00212704 0.00533218 
C 33.1524 39.9312 39.0846 12.011 0.000196523 -0.000227377 -0.00471508 
C 12.6067 34.9105 17.3024 12.011 0.00217937 -0.0043542 0.00322636 
C 29.4237 0.545591 38.7243 12.011 0.00176829 0.00344889 0.00347304 
C 49.6627 29.6089 6.23342 12.011 0.00155944 -0.00261164 0.0035899 
C 45.3307 9.71663 44.0326 12.011 0.0012998 0.00438641 -0.000988426 
C 49.0336 29.8127 1.37045 12.011 0.00719736 -0.00296754 -0.00270176 
C 10.9066 20.964 16.9608 12.011 -0.00388401 -0.00625721 -0.000193534 
C 46.3356 11.7335 40.5098 12.011 0.00252444 -0.00326789 0.00554031 
C 29.6492 38.0089 43.7752 12.011 0.00112501 0.0078997 0.00293438 
C 1.96795 35.1131 44.2547 12.011 0.0103208 -0.00681997 0.00692138 
C 13.2763 23.5397 5.37035 12.011 -0.000603198 -0.00462552 -0.00321566 
C 40.3057 19.0861 21.0464 12.011 -0.00329426 -0.00503941 -0.00121585 
C 13.1783 31.0487 29.5041 12.011 0.00407375 -0.000815008 0.000315911 
C 22.5811 33.9388 26.3423 12.011 -0.00289164 -0.00270313 0.00997879 
C 25.0496 13.1898 33.327 12.011 -0.00043904 0.00125914 -0.00355779 
C 17.5444 10.8657 43.1737 12.011 -0.00631893 0.0111898 -0.00329696 
C 50.3472 10.1596 44.7626 12.011 0.00118468 0.000282468 -0.0035782 
C 22.162 25.7519 28.0412 12.011 0.00109408 0.00557971 0.000237802 
C 28.6924 9.19732 7.48279 12.011 -0.0131968 -0.00186705 -0.00267518 
C 23.2043 32.2844 9.4576 12.011 0.00424042 0.0072732 -0.00410253 
C 1.68909 19.9743 3.09669 12.011 -0.00523667 -0.00134152 -0.00462349 
C 16.8853 23.6516 4.39184 12.011 -1.48037e-05 0.000891194 0.00115354 
C 34.0072 27.5938 22.5441 12.011 -0.0079677 -0.0028473 -0.000590255 
C 48.4463 44.4591 18.2079 12.011 -0.00991998 -0.000693269 0.00590914 
C 25.2544 44.9283 45.2884 12.011 0.00578308 0.00841765 -0.00359929 
C 33.2253 41.3457 24.6973 12.011 0.000653784 0.00108868 0.000128956 
C 11.093 20.564 29.4937 12.011 0.00210124 0.00329439 0.00247141 
C 27.8371 5.19692 45.5355 12.011 -0.00824318 0.00322714 0.00239357 
C 13.739 14.161 39.3098 12.011 0.00732173 0.000935456 -0.000641204 
C 20.4207 24.2816 27.6405 12.011 0.00623056 0.0040527 0.00995514 
C 13.5744 6.75509 28.8842 12.011 -0.00300273 0.00868801 0.00237584 
C 11.9359 50.0872 10.9431 12.011 0.00508123 -0.00502105 -0.00129152 
C 46.4101 17.9901 15.9418 12.011 0.00175834 -0.0027796 0.00952177 
C 11.8454 50.0165 38.7785 12.011 0.000363978 0.0103236 0.00383304 
C 16.9379 32.0402 39.7532 12.011 -0.00407689 -0.0025406 -0.000405181 
C 27.7416 44.2106 5.99551 12.011 0.00681172 0.00397677 -0.00597566 
C 12.8391 47.5986 49.1288 12.011 0.00438217 0.00198881 -0.00129588 
C 48.3497 30.7239 40.0825 12.011 0.00182473 -0.0023177 0.000147569 
C 14.1157 35.8622 40.9447 12.011 -0.00293105 -0.00580709 -0.00732926 
C 32.712 42.5487 10.9985 12.011 -0.000917264 -0.000155279 -0.000106976 
C 19.9334 39.2492 34.736 12.011 0.000500079 -0.00289121 -0.00327025 
C 42.1145 32.4541 36.3127 12.011 0.0039716 0.00124375 -0.000658245 
C 26.6265 39.3509 29.9648 12.011 0.00615312 -0.00789199 0.00411981 
C 42.0346 25.6033 39.3503 12.011 0.00702367 0.0083866 0.00447443 
C 16.772 12.7901 13.7187 12.011 -0.00192462 0.00427214 -0.000656405 
C 25.3993 8.43015 42.8132 12.011 -0.00449676 0.00234503 -0.00403539 
C 45.976 15.3182 13.3198 12.011 0.0111031 0.00115821 0.00561345 
C 29.947 5.23934 37.6611 12.011 -0.00456954 -0.00155108 0.000110167 
C 35.2122 29.0748 42.1338 12.011 0.00276529 -0.00103227 -0.00299008 
C 35.4749 15.7333 2.48085 12.011 -0.0047592 0.00576232 0.00263285 
C 6.37451 13.9549 5.88321 12.011 0.000129528 -0.00531251 -0.00112659 
C 44.9653 32.6494 40.8094 12.011 0.00675321 0.000871245 0.00856314 
C 14.6432 1.32915 22.3029 12.011 0.00149013 0.000264054 0.00468128 
C 19.5176 32.7676 6.37834 12.011 -0.00249479 -0.00105084 -4.1791e-05 
C 29.6145 11.5618 50.751 12.011 -0.0032167 -0.00235981 -0.00962792 
C 27.0117 6.46837 49.1162 12.011 0.00424476 -0.00543975 0.00115738 
C 10.14 4.39672 13.0285 12.011 0.000156923 0.00155197 0.00367395 
C 43.6189 49.1596 24.8208 12.011 -0.00557053 0.00434932 -0.00397599 
C 13.9651 14.0745 28.4417 12.011 -0.000896519 0.00141404 0.00530823 
C 5.41842 19.221 30.0674 12.011 -0.000389025 -0.00201862 0.00463842 
C 19.1434 50.1922 26.6454 12.011 0.00498788 0.0064852 0.00369992 
C 45.0588 7.16507 34.9189 12.011 -0.000840359 0.000118756 0.0039034 
C 33.8983 20.9697 0.638965 12.011 -0.00243194 0.00021092 -0.00496036 
C 28.6986 40.7757 42.9146 12.011 -0.00381591 0.00786076 -0.00513992 
C 7.99175 50.9159 31.4319 12.011 -0.00169347 0.0030749 0.00274268 
C 3.89284 6.5907 11.3654 12.011 -0.00126713 0.00313387 0.00461193 
C 48.6738 19.2134 40.6083 12.011 -0.000501205 -0.00571331 0.00600617 
C 24.7462 43.8523 3.72453 12.011 -0.000757406 -0.00140952 -0.00171072 
C 18.381 26.6701 14.4518 12.011 -0.00776581 0.000629158 0.0048925 
C 17.8471 35.7911 12.1231 12.011 0.00320233 -0.00113712 -0.00115357 
C 8.04237 5.41828 26.1621 12.011 -0.00777622 -0.007385 -0.00329553 
C 13.292 1.22782 22.6188 12.011 0.00238222 -0.0023457 -0.00586344 
C 47.0486 33.773 5.43535 12.011 -0.00820997 0.00217939 -0.0102479 
C 4.00905 44.702 42.994 12.011 -0.00376476 -0.000308065 -0.000635385 
C 4.59318 0.32455 4.98529 12.011 0.00351994 0.00530846 0.00269825 
C 26.7782 18.8449 50.9352 12.011 0.00246702 0.00569584 0.00310148 
C 13.6245 41.1535 42.8234 12.011 0.00363859 0.0042186 0.00298965 
C 42.1099 0.105075 50.3904 12.011 0.00498621 0.000787595 -0.014041 
C 49.5235 1.65915 1.67565 12.011 0.00492871 0.00399159 -0.00636912 
C 15.5559 5.89275 11.4418 12.011 -0.00155381 -0.00443524 -0.00838321 
C 26.296 23.1205 44.6247 12.011 0.00580899 -0.00968533 -0.00776169 
C 5.90771 0.723731 5.41059 12.011 -0.00296205 -0.000680705 0.000380932 
C 32.121 26.0239 28.5656 12.011 -0.00527383 -0.00424604 -0.00138164 
C 23.0189 42.3241 14.0325 12.011 0.00682758 -0.00116176 -0.004885 
C 29.5525 35.6932 42.927 12.011 -0.00982391 -0.00395391 0.00640923 
C 9.46457 32.5896 40.836 12.011 0.00913514 -0.00385743 -0.00308999 
C 11.3735 17.6046 23.0871 12.011 0.00649607 -0.00483685 -0.0053135 
C 45.0343 31.3917 21.2673 12.011 0.00516405 -0.00023221 -0.00428032 
C 27.5816 9.11015 8.3728 12.011 -0.00110679 0.00408278 -0.00353232 
C 41.2614 14.4111 5.5045 12.011 0.000434133 0.00421648 -0.000468713 
C 3.09969 16.5045 9.34483 12.011 0.00211028 -0.00237844 -0.00175353 
C 0.109007 6.94186 37.2078 12.011 0.000751907 -0.00427255 -0.000975671 
C 8.36674 30.1293 21.7684 12.011 -0.00497656 0.00717326 0.00593988 
C 3.41762 24.7945 50.6825 12.011 0.00976758 0.00326533 -0.00138513 
C 26.2815 49.6418 42.6281 12.011 0.00229697 0.00308177 -0.000474418 
C 25.8236 34.4096 6.80654 12.011 -0.00237699 -0.00133739 -0.00508731 
C 26.3934 40.4111 47.5583 12.011 -0.00746431 0.00566024 0.00494215 
C 6.95307 38.2138 50.9248 12.011 0.000954204 0.00388381 -0.000906721 
C 2.95351 19.955 15.5534 12.011 -0.000584158 -0.000458335 0.0044819 
C 49.0174 18.8002 35.5013 12.011 0.0043073 -0.00170984 -0.00736298 
C 22.561 17.6921 18.8113 12.011 0.00154336 -0.00358015 -0.0014003 
C 3.81011 33.59 5.63269 12.011 0.00157254 0.00450011 -0.00254449 
C 41.5608 44.1053 44.832 12.011 -0.00549788 0.00850861 0.00272376 
C 37.1165 17.5268 1.90237 12.011 -0.00554342 0.00731467 -0.00397808 
C 37.1944 36.0824 28.505 12.011 -0.00382504 -0.000647275 -0.00570789 
C 36.2844 46.3612 50.6404 12.011 -0.00237416 -0.00513139 8.75069e-05 
C 15.1245 17.2362 43.0592 12.011 -0.00835891 0.00541658 0.00171947 
C 5.80393 36.6928 22.6669 12.011 -0.00285935 -0.00472804 0.000593345 
C 17.4176 17.1589 33.8493 12.011 0.000241635 0.00295104 0.00398655 
C 6.75991 47.8185 0.207242 12.011 0.00176705 -0.0044307 -0.000296661 
C 6.53285 43.9598 36.3952 12.011 -0.00686383 -0.00209565 0.00807724 
C 0.832889 27.9444 36.8614 12.011 0.00527311 -0.00435629 0.00478026 
C 22.1378 49.3631 6.60706 12.011 0.0067619 -0.00354526 0.000983674 
C 28.0019 32.0199 29.8205 12.011 -0.00153801 0.00615154 0.00492179 
C 3.40639 37.0285 2.33744 12.011 -0.000371614 -0.00242798 0.00023451 
C 37.7033 14.316 9.07802 12.011 0.00938576 0.00281599 -0.00561109 
C 43.1599 44.6309 7.4122 12.011 -0.00644095 0.00350827 -0.00799206 
C 12.3773 32.5201 12.3347 12.011 0.00710905 -0.00252805 0.00338331 
C 8.26729 42.2719 12.2666 12.011 -0.00364622 -0.00708525 -0.000551917 
C 39.0608 34.1399 39.7335 12.011 -0.00236115 0.0134124 0.00374258 
C 37.4354 30.3209 4.72898 12.011 0.000707592 0.0111008 0.00132561 
C 40.3877 5.77498 30.6527 12.011 -0.00620923 0.00344846 0.00514243 
C 32.9393 34.6871 2.29744 12.011 -0.00107997 -0.00111792 -0.00765081 
C 20.0619 29.1149 13.0477 12.011 0.0113591 0.00299479 -0.00658658 
C 46.0136 44.5659 19.0309 12.011 -0.00471905 -0.0064488 -0.00439188 
C 10.0784 47.2469 23.581 12.011 0.00805616 0.00246817 -0.00141587 
C 32.3126 1.08249 31.2336 12.011 0.00335467 0.00174982 0.00418739 
C 11.683 17.5225 31.4678 12.011 -0.00427915 -0.00166498 0.00194707 
C 20.1787 43.0446 1.40324 12.011 0.00221283 -0.00317412 0.000177883 
C 9.07064 12.1919 21.0925 12.011 0.0118358 0.00427206 -0.00214482 
C 28.8868 20.17 25.885 12.011 -0.00158509 -0.000466145 -0.00781585 
C 31.8678 20.0123 31.9656 12.011 -0.000265305 -0.00111189 0.00600621 
C 42.8259 33.3865 13.1706 12.011 -0.000347521 4.52494e-05 0.000819353 
C 49.8917 37.6497 2.42173 12.011 -0.00113675 -0.00179367 0.00125518 
C 39.1881 1.62184 17.8479 12.011 -0.00500339 -0.00649426 0.00346147 
C 48.2938 21.5673 40.0555 12.011 0.000168865 0.000246239 0.0015633 
C 9.14607 24.1074 35.7608 12.011 -0.00766164 -0.00194345 0.00245376 
C 12.2425 41.0638 11.8607 12.011 -0.00342163 -0.00153564 -0.00229571 
C 0.196287 10.6958 24.2238 12.011 -0.0147996 -0.00231272 0.000510243 
C 25.6552 4.60326 45.9706 12.011 0.00860668 0.0065105 -0.000222381 
C 31.8296 24.682 37.5203 12.011 -0.00449868 -0.000716867 -0.00176825 
C 40.0485 22.0545 35.2127 12.011 3.96944e-06 -0.00509839 -0.0087861 
C 44.2407 1.04736 17.1873 12.011 -0.00716154 -0.0107358 0.00250487 
C 49.7212 2.81353 25.9324 12.011 0.00459297 0.00138689 0.00309367 
C 41.9904 11.4464 47.4711 12.011 0.00366852 0.00709956 0.00568189 
C 8.92491 3.08572 10.2469 12.011 -0.0011637 0.000518511 -0.00232534 
C 7.62932 16.0395 46.9803 12.011 -0.0010598 0.00114307 0.00458856 
C 3.37294 23.5818 28.4218 12.011 0.00966358 -0.0010427 -0.00223962 
C 10.7443 46.2991 16.1968 12.011 -0.00831701 0.000868271 -0.00661494 
C 50.2052 36.1522 29.5431 12.011 0.00176153 0.0053627 -0.00464439 
C 27.5653 32.8719 48.5405 12.011 -0.00536984 0.00227803 0.00436881 
C 29.4948 18.2094 50.881 12.011 -0.00544785 0.00894824 0.00304465 
C 14.2994 47.9904 37.3211 12.011 0.00436392 -0.00487704 0.00610633 
C 32.7229 16.473 0.835595 12.011 -0.0039073 -0.00444605 0.00188074 
C 3.736 37.7792 13.7669 12.011 -0.00909527 0.00427577 0.001873 
C 21.9561 47.8758 11.2697 12.011 0.000991056 -0.00968596 0.00571128 
C 38.1903 6.95096 26.253 12.011 -0.00102722 0.00494105 -0.00309018 
C 46.943 32.5469 33.8267 12.011 0.00851255 -0.00377385 0.00905909 
C 32.0126 11.1121 1.11375 12.011 0.0029113 -0.00527131 -0.00361396 
C 2.21291 11.9626 49.6138 12.011 0.0010224 -0.0060722 -0.00151183 
C 49.4531 24.1523 47.5997 12.011 0.000559906 -0.005093 -0.00706762 
C 18.2727 42.1607 10.7734 12.011 0.00614626 -0.00561919 -0.00448852 
C 25.01 31.4269 18.055 12.011 -0.000644103 -0.00167414 0.00107441 
C 33.2552 10.5959 33.734 12.011 -0.00292099 0.0038292 0.000582565 
C 1.22548 50.7436 6.38279 12.011 0.00223616 0.00191688 -0.0023391 
C 4.99919 12.2914 50.3831 12.011 0.00209386 -0.00509025 0.00653334 
C 40.1307 37.1731 35.2858 12.011 -0.00127452 0.000422684 -0.00579102 
C 50.774 30.3946 27.2228 12.011 0.00561858 0.000812165 -0.00817892 
C 17.6038 41.2789 27.3559 12.011 -0.00412485 8.0456e-05 -0.00070185 
C 2.74921 13.5266 6.57331 12.011 0.00169503 8.50085e-05 -4.83518e-05 
C 37.0274 21.6687 2.53245 12.011 -0.0040877 0.00153632 0.00338302 
C 51.0101 47.3663 13.9893 12.011 -0.00252727 0.00952854 0.00307062 
C 31.4139 36.9698 49.0459 12.011 0.00179233 0.000974078 -0.00212205 
C 50.7919 8.06795 49.3035 12.011 -0.000915323 -0.00958844 0.00235677 
C 15.359 6.75183 10.2884 12.011 -0.000506992 -0.00725419 0.00379455 
C 26.1267 5.86451 43.8321 12.011 -6.87721e-06 0.0032726 -0.00328218 
C 13.6969 5.95756 14.6309 12.011 -0.00555972 0.000655974 -0.0028101 
C 40.0374 11.8872 10.9547 12.011 0.0100295 -0.00554656 0.000558731 
C 41.6329 27.9738 38.5879 12.011 -0.00360559 -0.00394879 0.00377274 
C 9.99504 25.0139 27.0948 12.011 -0.00335986 -0.000864242 0.000107361 
C 25.1334 13.8111 9.42246 12.011 0.00444497 -0.000555456 -0.00120731 
C 33.5694 26.844 26.7045 12.011 0.00795728 -0.00520771 -0.00515374 
C 17.3126 45.652 19.497 12.011 0.00478748 -0.00204056 -0.00364995 
C 31.5361 16.7097 21.7862 12.011 -0.00468149 0.00577138 0.00613477 
C 8.37748 43.2183 4.54379 12.011 -0.00273358 0.00761316 -0.00969753 
C 49.2219 40.2448 14.8081 12.011 -0.0056812 -0.00930668 -0.000828724 
C 13.442 41.6898 11.4521 12.011 -0.0073926 -0.00599942 -0.00308875 
C 30.3934 11.8275 13.8367 12.011 -0.00890345 -0.000702729 0.000363488 
C 45.3526 41.2771 0.247877 12.011 0.00159821 0.0063517 -0.00169273 
C 38.3854 19.5544 2.58961 12.011 -0.000717334 -0.000138011 -0.00123721 
C 8.35336 13.6732 28.6602 12.011 -0.000964717 0.00288392 0.00606932 
C 31.943 48.7174 18.4404 12.011 -0.006796 -0.00321517 0.00143638 
C 9.93625 23.5567 34.6305 12.011 0.00645301 -0.000735079 -0.00201093 
C 34.4208 1.64012 49.2136 12.011 -0.00668342 0.00102095 -0.00688733 
C 42.8148 1.34493 13.3716 12.011 -0.00703813 -0.00154699 -0.00445281 
C 47.0359 30.4231 20.3702 12.011 0.0018944 -0.00252558 0.00596438 
C 16.6184 6.67054 3.81763 12.011 -0.00185667 6.21079e-05 0.00183555 
C 18.5853 24.3042 34.8473 12.011 -0.0052869 0.00179886 0.00531742 
C 46.0205 32.0006 34.7066 12.011 -0.00197622 0.00408935 -0.00214452 
C 23.8458 21.0976 15.3079 12.011 0.00155345 0.00853695 -0.00125846 
C 40.644 19.566 3.4969 12.011 -0.00486154 0.000975374 -0.000183913 
C 44.8804 27.4805 31.3318 12.011 -0.00696621 -2.92276e-05 -0.00802211 
C 3.83088 18.5998 28.3157 12.011 0.0037918 -0.0104331 -0.00294234 
C 9.76837 41.0644 49.6371 12.011 -0.00253953 0.0010039 0.00512727 
C 48.4995 20.7019 9.21384 12.011 0.00701577 0.00652659 -0.00425479 
C 26.1033 41.0697 37.616 12.011 -0.0050825 0.00457275 -0.00399023 
C 13.5497 10.0337 25.8263 12.011 -0.00104428 -0.00521962 0.00573228 
C 22.308 34.0183 3.37261 12.011 -0.00224492 0.00131366 -0.00149936 
C 7.36932 17.2183 41.9634 12.011 -0.00013727 0.00359976 -0.000523946 
C 41.5398 12.2455 1.10249 12.011 -0.00789715 -0.00167961 0.00727099 
C 7.21062 47.3646 15.3563 12.011 -0.00289703 -0.00194297 -0.000309238 
C 36.7631 9.9866 32.2133 12.011 -0.00172325 0.00539331 0.00354691 
C 48.049 26.2114 14.008 12.011 0.007042 -0.00107054 -0.00039274 
C 29.0729 11.6979 14.1925 12.011 -0.00162633 -0.00408452 0.00625138 
C 13.9819 8.31188 30.641 12.011 -0.00490865 -0.0082107 -0.00462395 
C 10.1699 28.6546 21.3221 12.011 -0.00054829 0.00035856 -0.00221855 
C 30.0878 43.8025 5.70745 12.011 0.00536252 -0.000738773 0.00528633 
C 50.9464 18.4859 41.011 12.011 0.00343554 -0.00861523 -0.00113938 
C 24.9907 20.5326 0.57493 12.011 0.00342429 -0.00753055 0.00343096 
C 43.196 41.5753 20.1416 12.011 -0.00849059 0.00505305 0.00850274 
C 21.1716 22.545 36.6426 12.011 0.0094827 -0.00533671 0.00669493 
C 32.3031 6.90634 19.9124 12.011 0.00644928 -0.0052079 -8.49447e-05 
C 1.16699 9.80028 3.90674 12.011 0.00203861 0.00163266 -0.00011016 
C 1.95478 10.1828 0.339486 12.011 0.00566889 0.00485153 0.00930567 
C 1.94699 24.4334 3.17827 12.011 0.00171727 0.00416564 -0.00463743 
C 38.9769 4.00633 19.31 12.011 -0.007636 0.00526621 0.00339605 
C 15.5989 18.7244 27.8169 12.011 -0.00724777 -0.00169104 0.0146118 
C 21.1261 29.5009 45.8248 12.011 -0.000699026 -0.00107011 0.000481221 
C 32.4744 46.5785 33.9407 12.011 0.00162311 -0.00355083 0.00620596 
C 32.3837 48.624 32.5844 12.011 0.00117591 -0.00186126 -0.00328417 
C 34.6068 46.3605 20.3237 12.011 -0.00153534 0.00236877 0.00716759 
C 6.77764 45.7889 2.24316 12.011 -0.00236994 0.0023667 0.000975284 
C 24.8096 32.7737 11.1583 12.011 0.00640443 0.00890538 0.00728044 
C 33.1789 1.80518 20.9377 12.011 -0.00390555 0.000874459 0.00602364 
C 44.034 45.2919 30.094 12.011 -0.0122098 -0.000550774 -0.00217459 
C 8.28724 50.9922 5.69365 12.011 0.000692567 0.00159725 -0.0052764 
C 37.4514 13.7808 30.5238 12.011 -0.00494106 -0.00425026 0.00755872 
C 19.9567 7.32548 45.6983 12.011 -0.0023787 0.00363425 -0.00122319 
C 33.2956 25.7755 4.90007 12.011 0.00410029 -0.00263434 -0.000366338 
C 31.8116 45.7918 48.1005 12.011 0.000448856 0.00442321 0.00700329 
C 2.51992 34.641 25.6365 12.011 -0.00108428 0.0013554 -0.00712818 
C 43.0173 10.5187 45.4482 12.011 0.00194227 0.000674792 0.00839638 
C 45.544 31.9493 18.9417 12.011 -0.000605843 0.00110742 0.0101581 
C 44.8801 29.2752 37.1216 12.011 0.000629301 -0.00197657 -0.000487695 
C 48.5203 19.2886 15.489 12.011 -0.000203399 0.00934425 0.00155598 
C 36.7324 8.9338 22.2847 12.011 0.0039216 -0.00466936 0.000834087 
C 48.257 24.3185 12.636 12.011 0.00365509 0.00757757 0.00965468 
C 12.8837 19.1274 7.10857 12.011 -0.00721869 0.00212979 -0.00177159 
C 8.41956 13.54 23.7437 12.011 0.0010105 -0.00521553 0.00189019 
C 14.0473 46.0258 23.3284 12.011 -0.00052059 0.00044723 0.00963649 
C 49.5619 15.8756 50.2653 12.011 0.00713061 0.00258982 0.000222436 
C 19.5076 1.75625 6.84757 12.011 0.00238187 0.000754237 0.00737127 
C 43.2327 48.8146 33.5124 12.011 0.00203875 0.000348675 0.00413322 
C 11.7118 14.4333 45.7832 12.011 -0.00470735 -0.00295604 -0.000577588 
C 18.3963 0.345046 35.0412 12.011 0.00260999 -0.00169454 0.000251414 
C 16.4001 14.2523 10.3802 12.011 -0.00301144 0.00528193 0.00103322 
C 31.713 17.0921 23.182 12.011 -0.00117663 0.00684913 0.00184915 
C 25.7775 42.3118 40.1998 12.011 -0.00151932 -0.00630569 -0.00383946 
C 3.25696 2.60945 20.8293 12.011 0.00332059 0.00410048 -0.00524385 
C 5.42719 45.5314 2.28613 12.011 -0.00213982 -0.00382009 -0.00516255 
C 18.0968 12.1685 41.1201 12.011 0.00191828 0.000253628 0.00274442 
C 41.6016 41.7538 30.1133 12.011 0.00206965 0.000392159 0.00152943 
C 0.516819 34.0014 28.6821 12.011 0.00600859 -0.000120765 0.00156231 
C 43.4873 39.639 15.7087 12.011 0.0030096 -0.00288675 -0.000721806 
C 2.97834 44.1381 11.8074 12.011 -0.00360708 0.000229098 0.0153267 
C 6.99598 23.0484 22.1816 12.011 0.00990447 0.0035598 -0.00344901 
C 32.3139 40.6256 36.9834 12.011 -0.00220241 -0.00181404 -0.00418034 
C 41.3492 22.5345 17.8871 12.011 -0.00707909 -0.00478946 -0.00202833 
C 24.7639 12.3036 27.0441 12.011 0.00259169 -0.00257496 0.00363867 
C 17.6867 25.5942 15.0686 12.011 -0.0021899 7.55394e-05 -0.00205019 
C 10.0339 46.8349 28.4575 12.011 -0.00459018 0.000572089 0.00146312 
C 35.6471 19.4055 21.7235 12.011 0.00273967 0.00499767 -0.000401354 
C 4.33107 42.8126 44.9548 12.011 -0.0102799 -0.00310795 0.000165728 
C 18.1941 12.382 0.290876 12.011 0.00636521 -0.00645311 -0.00232728 
C 44.5201 43.9969 30.3422 12.011 0.0011809 0.000892108 0.00705898 
C 9.07868 11.0183 37.4293 12.011 -0.00557491 0.000270275 -0.00368703 
C 46.8502 38.649 50.2565 12.011 -0.00497346 0.0047186 -0.00582061 
C 45.8367 42.019 34.5009 12.011 -0.00256433 -0.00720742 0.00941328 
C 33.1436 44.3938 30.2897 12.011 0.00250792 -0.000784397 0.013246 
C 21.8588 43.0162 13.6757 12.011 0.000797006 0.00534774 -0.000624717 
C 39.2639 13.8801 19.949 12.011 0.00215889 0.00665822 -0.00201956 
C 2.27472 42.9395 17.1204 12.011 0.00575666 -0.00189647 -0.00268833 
C 22.6973 12.6162 22.3869 12.011 0.00463939 -0.00318843 0.00440201 
C 49.4895 5.71888 16.4163 12.011 -0.00165468 -0.0063558 0.00172382 
C 28.8953 36.7903 43.4895 12.011 -0.00540496 0.00499364 0.0113714 
C 37.7659 45.6131 25.1798 12.011 3.78021e-05 -0.00441585 0.00613939 
C 49.2418 45.5216 37.8129 12.011 0.000111561 0.00293609 -0.00531743 
C 11.0324 24.6094 28.0064 12.011 -0.00479513 -0.00240733 -0.00236284 
C 47.2468 25.8642 23.1536 12.011 0.00229665 0.000392874 0.000642315 
C 34.6694 42.6211 29.2848 12.011 -0.00217189 0.000512803 0.00259069 
C 47.6496 11.36 44.3913 12.011 -0.00955965 -0.00330348 0.0102647 
C 48.4382 16.4104 35.8307 12.011 0.00250375 0.00666157 0.00138819 
C 42.6103 36.1012 2.06991 12.011 0.00501913 0.00423034 0.0066506 
C 47.7291 1.34535 42.4673 12.011 -0.00246069 -0.00160234 0.0039181 
C 42.6241 31.3179 10.2646 12.011 0.00662756 0.00159112 0.0109533 
C 24.6597 38.9271 44.5797 12.011 0.00110739 0.00400878 0.00403337 
C 2.5398 39.8718 14.5058 12.011 0.00241071 -0.007423 -0.0107795 
C 14.1783 14.5459 26.0203 12.011 0.00326223 0.00210415 -0.00832724 
C 12.4225 6.87846 16.3884 12.011 0.000816815 0.00687005 -0.00436635 
C 17.7173 25.8489 45.6679 12.011 -0.00335423 0.00909249 7.03856e-05 
C 37.756 15.0488 29.9581 12.011 0.000585782 0.00512466 0.00685024 
C 7.93028 2.10345 24.3315 12.011 0.00525266 0.00581597 -0.00757921 
C 32.059 47.8901 3.16818 12.011 -0.00203402 -0.00470749 0.00705081 
C 49.3299 38.7976 14.7671 12.011 3.55473e-05 -0.000996771 0.00696792 
C 47.9859 50.5403 29.2995 12.011 0.0115593 0.00770854 0.0155782 
C 33.7908 7.50587 9.36155 12.011 -0.00141014 -0.00986096 0.000185573 
C 18.6271 5.15158 20.5443 12.011 0.000691009 0.00114073 0.0011229 
C 11.6943 13.0033 47.7649 12.011 0.00367294 -0.00206959 -0.00392501 
C 40.2828 31.5391 17.4444 12.011 0.00197432 -0.00224477 -0.000917201 
C 2.63195 24.7147 0.789009 12.011 -0.0084419 -0.00461234 0.000195781 
C 12.8916 7.60274 26.7819 12.011 0.00115784 0.00039002 -0.00154829 
C 27.3261 9.13092 25.8774 12.011 -0.000946517 -0.00467374 -0.00483952 
C 18.7323 20.5024 49.3361 12.011 -0.00712317 -0.00385565 -0.00498384 
C 34.2862 10.026 41.6161 12.011 0.00503154 -0.00121588 -0.00560644 
C 8.14759 33.6925 12.2718 12.011 -0.00261292 0.00474686 0.00722973 
C 8.98834 10.3463 43.4185 12.011 -0.00246253 -0.00622412 0.00534652 
C 34.7839 0.658395 43.6064 12.011 0.00393803 0.00178101 0.00190609 
C 29.9049 4.29407 38.6793 12.011 -0.00175792 -2.67588e-05 -0.00749361 
C 48.2035 23.8832 48.2195 12.011 -0.00130633 0.00589515 -0.00426671 
C 42.8297 44.5842 46.9174 12.011 -0.0052657 3.92171e-06 -0.0056788 
C 10.5444 1.42785 42.8976 12.011 -0.00337973 -0.00253714 -0.00124925 
C 33.4112 3.26176 21.1643 12.011 -0.00767309 -0.000961558 -0.00314596 
C 50.4743 13.3947 36.4821 12.011 0.00853224 -0.00548568 -0.00444362 
C 42.4335 32.6816 16.9332 12.011 -0.00194975 0.00174933 0.00199551 
C 18.546 44.6818 30.7255 12.011 -0.00862634 -0.00383324 -0.00198184 
C 26.342 50.9941 38.9449 12.011 0.00736787 0.00177995 -0.000223806 
C 46.1775 43.2203 49.349 12.011 -0.00227968 0.00640866 0.00390445 
C 27.4271 4.71997 17.6735 12.011 -0.00196354 0.00954271 -0.00297594 
C 20.6481 18.3846 11.0966 12.011 0.00121035 0.00810576 -0.00371675 
C 4.82267 29.3381 22.6268 12.011 0.00256897 0.000604831 -0.00310955 
C 49.279 28.7867 36.3707 12.011 -0.00576442 -0.00377958 0.00715979 
C 10.1431 44.0569 13.0736 12.011 0.0040494 -0.00722041 -0.00512433 
C 29.8411 21.9166 12.4327 12.011 0.00420586 -0.00361231 0.0034809 
C 48.8024 43.0757 16.1414 12.011 0.00229838 0.00148902 0.00487804 
C 30.3403 8.8025 17.9186 12.011 0.00420355 -0.00103406 0.00116376 
C 0.732893 24.0477 3.7485 12.011 0.0098427 0.00141072 -0.00712125 
C 8.64163 7.99227 29.5568 12.011 -0.00365848 0.00362296 0.00198686 
C 17.3442 35.0853 13.2829 12.011 -0.00352591 0.00125416 -0.000870105 
C 2.00858 11.5031 5.40413 12.011 0.00277394 -0.0102046 0.00100005 
C 14.5587 42.2211 5.5488 12.011 0.00078224 0.00253846 -0.00401917 
C 8.38491 27.441 4.04283 12.011 -0.000352187 -0.00180866 -0.00046364 
C 24.4056 43.5697 2.37794 12.011 0.0010111 0.00235988 -0.0106585 
C 21.2793 30.6892 23.0038 12.011 0.00512987 0.00382271 0.00538699 
C 42.0539 49.278 15.7812 12.011 0.00725188 -0.00653833 0.00321109 
C 3.12001 30.0152 5.42956 12.011 0.00289194 0.00520728 -0.00369312 
C 6.01079 1.49014 6.5936 12.011 -0.00403287 -0.0023443 -0.00562009 
C 12.3872 17.93 13.6477 12.011 0.00294967 0.00479752 0.00519555 
C 4.21444 15.0623 22.0402 12.011 0.00299463 0.00126626 -0.000400203 
C 27.0198 6.55115 42.9018 12.011 -0.00248285 -0.00548167 0.00118444 
C 0.672878 22.9053 44.8598 12.011 -0.0056696 0.00236556 0.00918286 
C 0.799937 13.0694 36.8171 12.011 0.0020232 -0.00194162 -0.00648694 
C 9.52398 8.47808 31.806 12.011 -0.00371115 0.00372396 -0.00317875 
C 1.87583 43.0331 35.2949 12.011 -0.00595974 -0.00818503 -0.00353109 
C 0.0240294 25.1294 4.52006 12.011 -0.00749978 0.00650085 0.000147246 
C 47.6234 50.9051 50.1856 12.011 -0.00264969 0.00498136 0.00162849 
C 1.63214 6.87338 24.0001 12.011 0.00763683 0.00235962 -0.00524179 
C 2.20466 10.9237 44.8674 12.011 0.00653168 0.00169463 0.00749774 
C 14.9939 30.3097 33.3166 12.011 0.00596992 -0.00423032 -0.00883081 
C 7.0947 34.2102 1.95599 12.011 -0.00104918 -0.000351696 0.00310137 
C 34.3377 12.9286 12.8949 12.011 -0.00753952 0.00228734 0.00561768 
C 10.1598 0.946997 34.6918 12.011 7.10483e-05 0.00290192 0.000853662 
C 48.37 4.96498 25.6708 12.011 0.00047216 0.00076545 -0.00332055 
C 25.6815 40.1665 33.9818 12.011 -0.00500794 -0.00213345 -0.000649907 
C 33.4783 39.6729 4.34401 12.011 -0.00660212 0.00069671 -0.0064442 
C 32.8177 26.7514 36.6838 12.011 -0.00571101 -0.000684951 0.00279871 
C 43.6155 38.9924 2.7143 12.011 0.00470379 -0.00448917 0.00357234 
C 47.3662 19.0354 16.3374 12.011 0.00290685 0.00233113 0.00733381 
C 44.4543 42.4712 50.9594 12.011 0.00231417 0.00562091 0.00718417 
C 13.4271 29.4827 39.4887 12.011 0.00516244 -0.000820683 0.0011214 
C 29.6779 10.3381 16.2062 12.011 -0.0050786 -0.00497304 -0.00215599 
C 45.4974 0.613159 16.7388 12.011 0.0056795 0.00383612 0.00155324 
C 33.2518 12.9085 49.2263 12.011 0.0025313 0.00239865 -0.00854219 
C 27.1961 22.5343 3.97946 12.011 -0.00468664 -0.00460164 -0.00631802 
C 13.4498 0.833617 41.5221 12.011 0.00779618 -0.000286485 0.00187373 
C 22.6896 12.2525 15.3444 12.011 -0.00445304 -0.00201588 0.00415825 
C 35.4086 40.1832 34.0469 12.011 0.00224579 0.00319656 0.000190572 
C 21.3809 42.1809 32.3327 12.011 0.000206223 -0.00954609 0.00198107 
C 50.8725 8.24746 24.7521 12.011 -0.00132667 -0.0026479 0.000103316 
C 45.9768 38.8396 44.9931 12.011 0.0021251 -0.00541477 0.00294851 
C 6.68116 27.8014 22.1928 12.011 0.0100259 -0.000872594 -0.00517698 
C 28.9803 3.05183 24.2935 12.011 0.00957393 -0.00953951 0.0036902 
C 1.78959 25.9711 45.6097 12.011 0.00201989 0.00274183 -0.00402847 
C 43.8479 47.1092 4.50623 12.011 0.0018246 -0.00291158 0.00155564 
C 12.5128 33.7001 32.695 12.011 0.000909588 0.000551398 -0.00252064 
C 8.01371 33.165 2.03187 12.011 -0.00193901 -0.00306078 -0.000121766 
C 27.5787 23.6627 17.5376 12.011 0.0028692 0.00202237 -0.00816399 
C 35.6992 0.455635 23.5952 12.011 0.00155262 0.000136226 0.00214072 
C 42.0668 44.0105 10.0811 12.011 0.00618196 -0.00514056 0.00529219 
C 9.77645 14.3317 3.57179 12.011 -0.000128549 -0.00565396 -0.00731819 
C 33.9467 14.4345 3.95259 12.011 0.000983817 0.00342388 0.00259819 
C 14.4035 42.2886 44.7389 12.011 0.00640929 -0.000499744 0.00281195 
C 18.3305 3.56101 8.03621 12.011 -0.00656337 0.00363396 -0.00166189 
C 35.1794 39.5268 32.6732 12.011 -0.00719378 0.00428344 -0.00961672 
C 38.9938 6.85211 32.4961 12.011 0.00290659 -0.00429815 0.00347158 
C 10.1287 23.2817 15.7979 12.011 0.00666488 -0.00882917 -0.00921077 
C 14.2571 46.6194 8.33041 12.011 -0.00322559 0.0028365 0.0053265 
C 16.4863 10.653 15.5921 12.011 0.00999945 -0.00457142 0.0027528 
C 3.26448 5.7328 44.8562 12.011 -0.00241332 -0.00268121 -0.00114692 
C 27.5946 18.9312 35.6705 12.011 0.00448521 0.000654579 0.00603632 
C 24.9452 17.2103 34.3121 12.011 0.00335062 -0.00623641 0.00601644 
C 1.42248 35.7968 27.2563 12.011 -0.00370308 0.00754874 -0.00172844 
C 4.24194 21.2907 49.605 12.011 -0.0065094 -0.0014679 0.000972595 
C 23.8768 29.9483 19.6877 12.011 0.00136116 -0.00621214 0.00753349 
C 4.46033 28.4926 11.8288 12.011 -0.00123394 0.00168609 0.00179673 
C 11.0201 15.531 24.4954 12.011 -0.00408408 -0.00211791 -0.0016416 
C 2.93467 10.0119 36.9626 12.011 -0.00125024 -0.00275379 -0.00997536 
C 19.4743 41.3779 44.9349 12.011 0.00728935 0.00057346 -0.00473509 
C 38.786 29.4825 49.503 12.011 0.0111758 0.00362107 0.00505159 
C 11.7506 50.259 17.2215 12.011 -0.00208741 0.00367255 0.00363806 
C 40.0604 15.973 45.2466 12.011 -0.00305585 -0.000688195 0.0017047 
C 29.5466 7.50124 35.9827 12.011 -0.00143404 -0.00663209 -0.00532338 
C 9.59875 39.3995 32.8876 12.011 0.00606442 0.00379465 0.00313925 
C 5.1307 41.1356 20.7694 12.011 0.0033875 0.00457038 0.000848107 
C 48.9691 5.2944 45.6839 12.011 -0.00107427 0.000769715 -0.00332934 
C 30.7786 2.44433 42.7621 12.011 0.000910792 0.00419258 -0.00675062 
C 18.9435 14.4112 20.8454 12.011 -0.00543887 -0.00359389 -0.00715367 
C 34.242 14.2262 47.645 12.011 0.00236821 -0.00308892 3.8839e-06 
C 28.3178 21.708 1.75939 12.011 0.000856867 0.000894203 0.00192766 
C 37.2006 48.8985 35.3379 12.011 0.000440885 -0.000496554 0.00148327 
C 40.7132 5.72225 36.2034 12.011 -0.00513637 0.00230172 -0.00151763 
C 44.0565 8.6024 20.1812 12.011 -0.00387907 0.00285236 -0.00151899 
C 11.0588 29.372 39.857 12.011 -0.00176029 0.00175714 0.00112314 
C 13.9424 6.82167 8.40484 12.011 0.00244079 0.00624338 0.00988616 
C 40.9226 38.6373 19.9397 12.011 0.00105355 -0.00191324 0.00362095 
C 16.6922 42.1491 45.5682 12.011 0.00542874 2.59685e-05 0.00313932 
C 50.7518 3.14424 24.9089 12.011 0.000235653 0.00488472 0.00652592 
C 44.6402 5.15301 13.3041 12.011 -0.00139998 -0.00540024 -0.00099163 
C 48.5457 38.633 11.5281 12.011 -0.00332395 0.00359058 -0.0028707 
C 6.14849 6.58978 10.2976 12.011 -0.00297843 -0.00142879 -0.000519664 
C 40.1625 0.265785 2.34632 12.011 -0.00988778 0.00237808 0.0017715 
C 18.1257 48.0137 26.8759 12.011 -0.00677631 -0.0024909 -0.00251015 
C 45.1193 34.9936 5.1393 12.011 0.000474281 0.00221495 0.0074843 
C 11.0004 35.9952 32.3015 12.011 0.000325022 0.00257375 0.0033812 
C 48.828 7.5708 17.7851 12.011 -0.00529221 -0.000793591 0.0034675 
C 8.86144 11.663 42.8793 12.011 0.00324043 0.00841948 0.00116219 
C 32.4507 40.834 22.4973 12.011 -0.00257463 0.00549708 0.0021165 
C 12.0905 33.765 0.770661 12.011 0.00249689 -0.00484174 0.00687667 
C 0.73386 9.3915 24.4621 12.011 -0.0010849 -0.00633162 -0.00167396 
C 39.4411 28.939 4.97472 12.011 -0.000178021 -0.00645002 0.00271705 
C 0.524706 40.903 14.531 12.011 -0.00427569 0.00328464 -4.02421e-05 
C 1.92336 22.582 34.7192 12.011 -5.58111e-05 -0.000709414 0.00461622 
C 0.800922 11.7948 21.9798 12.011 0.000813517 -0.00211173 -0.0035161 
C 27.6709 40.1436 35.9353 12.011 0.00511916 -0.00358119 -0.00389444 
C 38.8015 19.3074 21.1144 12.011 0.00686822 0.000214597 -0.000388177 
C 41.2348 47.2581 9.84762 12.011 0.00185435 -0.00503667 -0.00495238 
C 32.8816 14.6368 47.6604 12.011 -0.00823527 0.00314891 0.00341088 
C 47.3247 29.7093 7.00842 12.011 -0.000201196 -0.000222868 -1.61294e-06 
C 37.3695 39.097 6.925 12.011 -0.00202601 0.00445631 -0.00436127 
C 44.2696 16.9572 16.3185 12.011 -0.00032115 -0.0045089 0.00272884 
C 19.8146 34.605 35.8253 12.011 -0.00422759 0.00302409 0.000426302 
C 38.9755 7.17502 37.1647 12.011 0.00515734 -0.00484612 -0.000673457 
C 40.075 8.09334 0.248268 12.011 0.00276003 0.00281839 0.0050486 
C 48.0644 37.8205 37.6291 12.011 -0.00072391 0.000379289 0.00251639 
C 42.2257 19.5634 41.3375 12.011 0.00118055 -0.00237941 -0.003371 
C 19.5261 1.41623 40.5933 12.011 -0.00300514 0.00757624 -0.00332496 
C 40.7843 32.5124 36.884 12.011 0.00550272 -0.00188314 -0.0101904 
C 37.819 37.039 35.7528 12.011 0.00597499 -0.0059788 -0.00491838 
C 1.50878 45.7122 12.8834 12.011 0.00443966 -0.00431471 -0.00310907 
C 37.2854 35.907 8.5322 12.011 0.00403879 -0.00459873 -0.00380532 
C 1.72759 5.47383 36.1356 12.011 0.0025579 -0.000852427 0.00186583 
C 35.5351 9.7288 32.8598 12.011 -0.000618307 -0.00443023 1.72025e-05 
C 5.29533 23.9082 49.4013 12.011 0.00862076 0.0137483 -0.00647729 
C 15.4494 19.9926 10.1208 12.011 -0.000506498 -0.000189738 0.0089021 
C 26.3169 1.82133 12.2112 12.011 0.00273771 -0.00225298 0.00313931 
C 6.94387 4.31056 9.64183 12.011 -0.000653508 0.00406624 -0.0034676 
C 47.9681 36.8412 15.5147 12.011 0.00711753 -0.00111636 0.000505029 
C 24.5546 38.9012 17.6054 12.011 -0.00362173 0.00489616 0.00576413 
C 25.1004 21.9458 32.6513 12.011 -0.000224827 0.00308985 3.84722e-05 
C 50.8624 31.6582 6.16987 12.011 -0.0076886 -0.00178634 0.00190394 
C 21.7952 4.9442 28.2051 12.011 -0.00944294 -0.000473853 0.00496735 
C 46.9439 8.1707 26.6063 12.011 -0.0029472 0.000170448 -0.00365394 
C 14.0154 8.46692 32.0191 12.011 -0.001462 -0.00058548 -0.00789313 
C 32.0286 48.3574 27.7399 12.011 0.00199716 1.83838e-05 -0.00542639 
C 0.304895 18.0605 1.5973 12.011 -0.00220307 -0.000356488 0.00563374 
C 14.261 27.954 0.968948 12.011 0.00513577 -0.00336819 0.00133189 
C 37.8479 15.5885 17.0928 12.011 -0.00535797 -0.00341035 -0.00276531 
C 40.1641 40.8767 5.44398 12.011 0.000117919 -0.012436 -0.00308671 
C 31.9921 25.6256 20.1295 12.011 -0.00246083 0.00177015 -0.00228675 
C 5.42269 12.4358 43.8992 12.011 0.00418682 0.00186569 -0.00142026 
C 38.1168 46.5608 35.2983 12.011 -0.00255582 -0.00170383 -0.00488664 
C 21.5676 4.07652 30.4808 12.011 0.00361474 0.00538968 0.000124357 
C 0.0514246 15.7273 36.3671 12.011 0.00419884 0.00495967 -0.00283198 
C 17.5532 15.2852 35.4581 12.011 0.000378139 0.00470197 0.00406181 
C 38.5679 1.16632 6.69362 12.011 -0.00367089 -0.0048745 -0.0127257 
C 47.4624 46.1028 13.8424 12.011 -0.00404878 0.00367174 0.00471215 
C 29.1349 35.7378 7.93577 12.011 -0.00268248 -0.00463744 -0.00401756 
C 14.0964 28.1026 31.6475 12.011 -0.00433068 -0.0105653 0.00583534 
C 47.8039 31.6276 17.5786 12.011 0.00632075 0.0050484 0.00571931 
C 23.3658 29.8316 46.1333 12.011 0.00947132 0.011081 0.00269123 
C 38.3938 9.26407 46.7108 12.011 0.000905517 0.00654015 -0.00189877 
C 18.6602 49.5595 30.2759 12.011 -0.00778894 -0.00320218 -0.000315977 
C 17.5695 21.3821 22.6875 12.011 -0.00721374 -0.00210762 0.00165517 
C 13.9936 32.3636 23.3638 12.011 0.00214866 0.000777348 -0.00269994 
C 1.32812 26.5474 11.0342 12.011 0.00665475 0.00119118 -0.00712163 
C 34.7488 27.2941 8.14738 12.011 0.00455624 -0.00115577 -0.0034921 
C 6.58164 38.6761 20.9103 12.011 0.00231502 0.00329581 0.00188746 
C 27.1017 40.8935 38.5844 12.011 0.00166379 0.00150147 -0.00114648 
C 23.7453 18.6512 20.8089 12.011 -0.00117492 0.000505001 0.00741293 
C 36.545 5.56798 7.777 12.011 -0.0017414 -0.00388865 -0.00364484 
C 20.931 18.8946 25.6787 12.011 -0.00727053 0.0094705 -0.00205531 
C 50.6594 8.33369 36.9507 12.011 0.000546723 0.00799338 0.00306819 
C 18.1436 11.0068 3.70921 12.011 0.00252232 -0.00534357 0.0066374 
C 1.14778 3.14153 35.4511 12.011 0.00247569 -0.00294247 -0.000220283 
C 23.2734 13.1823 12.708 12.011 0.00780886 0.00177259 0.00184343 
C 33.8638 18.002 46.5002 12.011 -0.00231311 -0.00157604 -0.00624226 
C 22.023 7.73112 2.60748 12.011 -0.000357868 0.00588445 -0.00579242 
C 20.3975 25.8666 35.7637 12.011 0.00544517 0.000499707 -0.00705587 
C 12.707 39.9617 25.553 12.011 0.000754106 0.00123122 0.000781449 
C 0.350178 28.3097 21.768 12.011 -0.0018746 0.00129011 0.00385547 
C 48.8178 18.4549 14.3455 12.011 -0.00469016 -0.00422604 0.000635796 
C 7.38746 47.8227 28.6979 12.011 0.00717862 -0.0022019 0.00272779 
C 2.95272 28.5843 35.0607 12.011 -0.00773606 -0.00767916 0.00335634 
C 32.4028 18.0281 16.9298 12.011 0.00577972 0.00283887 -0.00264317 
C 44.6682 27.8041 1.0624 12.011 -0.00105843 0.00557247 -0.000583794 
C 13.3554 16.9544 13.3624 12.011 -0.0013743 -0.00577901 0.00139092 
C 35.3766 18.9804 0.53299 12.011 0.0025277 0.00474714 0.00020081 
C 46.0363 39.3776 33.3336 12.011 -0.0103654 -0.000968553 0.00435594 
C 42.7074 10.0257 27.4153 12.011 0.0108183 0.00952253 0.00162614 
C 19.703 44.0206 14.375 12.011 0.00601686 -0.0010251 -0.00149497 
C 44.276 35.7389 48.578 12.011 0.00259574 0.00202291 -0.000112079 
C 26.8611 46.615 11.6368 12.011 0.00448908 -0.0018058 -0.000511949 
C 33.6314 3.37843 15.6966 12.011 -0.00158829 -0.0125125 0.00196434 
C 39.835 7.52587 41.1828 12.011 0.00268867 0.00143654 0.00327133 
C 23.4533 3.67789 20.9826 12.011 -0.00511397 0.00155034 0.000412767 
C 26.0288 41.0402 23.522 12.011 -0.00232515 -0.00457752 -0.00257683 
C 38.1545 19.8004 22.3756 12.011 0.00466008 0.00055525 -0.0042058 
C 50.7278 0.764038 34.4253 12.011 -0.00720818 0.00170503 -0.000144647 
C 2.7863 13.139 21.8888 12.011 -0.00553672 -0.00411182 -0.00603843 
C 7.69177 22.9023 12.1848 12.011 -0.00659831 -0.000290033 -0.00605782 
C 12.9888 37.8638 24.1226 12.011 -0.0042636 -0.00586913 -0.0034012 
C 35.3627 6.93767 11.1332 12.011 0.00194475 -0.000552794 0.00513222 
C 40.5118 35.9293 45.4817 12.011 0.0017576 0.00181411 -0.00205591 
C 39.9066 33.4342 36.2355 12.011 0.00150607 0.00997099 0.00518444 
C 14.6651 15.2763 7.21801 12.011 -0.0025675 -0.00162176 -0.00198116 
C 45.7196 16.7094 46.4892 12.011 0.000729602 0.001551 -0.00394932 
C 4.36779 13.3538 23.8174 12.011 -0.00544231 0.00361124 0.000646419 
C 31.6749 40.6567 28.0764 12.011 -0.00293175 -0.0019128 0.000669371 
C 17.1194 20.931 26.9786 12.011 0.00238687 -0.00755271 7.1531e-05 
C 15.2238 42.3126 48.4814 12.011 0.00408675 0.00543332 0.00364391 
C 39.3401 0.503683 16.9942 12.011 -0.000543079 0.00195859 0.0025711 
C 16.0216 45.0356 7.44365 12.011 0.000620714 0.00326056 -0.00550996 
C 13.964 21.6209 11.0635 12.011 -0.000851602 -0.000182111 -0.00437589 
C 15.2744 32.5003 19.6999 12.011 -0.000270579 -0.00104941 -0.00119127 
C 50.1204 10.4869 7.15802 12.011 0.00196009 -0.00106969 0.00626079 
C 2.83432 20.3109 26.8358 12.011 -0.00310982 -0.00643185 0.00168173 
C 46.2622 14.9166 49.0073 12.011 -0.00228086 0.00304923 0.00244937 
C 11.2223 49.8066 30.3141 12.011 0.00652914 0.00193387 0.00398072 
C 50.9941 26.1795 38.2774 12.011 -0.000981852 0.00661505 -0.00719425 
C 23.5683 47.1361 19.4532 12.011 0.00168611 0.00285577 0.00164707 
C 47.5382 2.05187 27.7384 12.011 -0.00448774 -0.00266314 0.0016504 
C 31.3266 13.1368 9.88182 12.011 0.000578778 0.00513273 0.00597906 
C 0.508983 32.2547 30.4568 12.011 0.00106728 0.00235145 -0.00366833 
C 10.0825 41.951 40.5603 12.011 -0.0024232 -0.00284902 -0.0109381 
C 27.7704 14.5165 19.5428 12.011 0.000443006 -0.00202102 -0.00645374 
C 5.94603 5.23323 9.9925 12.011 -0.0038246 -0.00423541 -0.00369523 
C 1.29642 46.8915 13.6827 12.011 -0.00180497 -0.000857626 0.00663474 
C 19.2838 24.2497 25.5192 12.011 0.00137956 0.00081795 -0.00122056 
C 43.93 48.7849 2.67317 12.011 -0.00490972 -0.000127045 0.00039254 
C 39.1984 45.8118 34.7087 12.011 0.00378482 0.00214203 0.00252876 
C 11.1473 21.6125 18.2146 12.011 0.00642182 -0.00181527 0.00178285 
C 23.8542 29.3709 28.4821 12.011 -0.00121647 -0.00606921 0.0110663 
C 30.0404 48.3666 16.9579 12.011 0.00359714 0.00488324 -0.00796239 
C 4.18419 49.0603 1.46382 12.011 0.00717161 -0.00133197 0.00445989 
C 38.8112 28.8038 10.8592 12.011 0.00286027 -0.00528517 -0.00374943 
C 48.0797 45.8999 36.8377 12.011 0.00416281 0.000615786 -0.00505775 
C 28.7144 6.90313 18.1076 12.011 -0.00275913 -0.000911589 -0.00450138 
C 36.2986 20.1239 43.8919 12.011 -0.00247559 -0.0103261 0.00575773 
C 4.14721 38.8914 50.1894 12.011 0.00585572 -0.00391317 0.00317824 
C 49.0287 22.5526 20.2088 12.011 -0.00413611 3.81737e-05 0.00253345 
C 16.1782 45.9314 24.5375 12.011 -0.00321834 0.000385791 0.00777739 
C 29.6355 28.7544 29.6021 12.011 -0.00497462 -4.88424e-05 -0.00254303 
C 0.650301 50.7395 37.9141 12.011 0.00328985 -0.00309907 0.00464533 
C 13.7221 39.9874 42.1133 12.011 -0.000376708 -0.000884158 -0.00523516 
C 23.2178 21.6546 13.0411 12.011 0.0057786 0.00296118 -0.00634931 
C 30.545 30.5325 4.11181 12.011 -0.00460004 0.00295729 -0.00296295 
C 25.8209 1.75908 5.07422 12.011 0.00828883 -0.00209536 0.00819345 
C 39.7242 48.0462 14.5508 12.011 0.000804628 0.00356072 0.00013189 
C 34.6238 28.9136 22.5691 12.011 8.43706e-05 -0.0114897 0.00482963 
C 11.3806 30.9021 8.532 12.011 0.00446137 -0.00373151 0.00159332 
C 50.6886 13.8278 25.1216 12.011 0.00978769 -0.0035104 0.0064618 
C 39.2242 35.5825 3.58886 12.011 -0.00174699 -0.00206161 -0.000485248 
C 3.93426 48.2656 0.22151 12.011 -0.00173693 -0.00258947 -0.00308749 
C 20.0464 28.0466 17.3947 12.011 -0.000299175 0.0086929 0.00748287 
C 8.9677 7.37434 36.0677 12.011 -0.000963143 -0.00397157 -0.0011898 
C 6.48544 46.0617 34.4187 12.011 0.00197223 -0.00132053 -0.00134248 
C 43.8462 6.42378 27.7434 12.011 -0.00563552 -0.0103827 -0.0045853 
C 17.426 44.8778 7.3536 12.011 -0.00281636 0.00201395 -0.00573122 
C 47.721 47.922 46.377 12.011 -0.00735528 -0.0108097 -0.00351362 
C 38.1683 12.5934 48.2671 12.011 0.00329868 -0.00351003 -0.000679936 
C 33.9682 42.3205 33.6175 12.011 0.00132949 -0.00296253 -0.00338801 
C 44.8133 16.4011 42.0146 12.011 0.000953953 0.0080112 0.00965401 
C 26.7613 35.6567 42.965 12.011 -0.00137853 -0.00499186 -0.00351274 
C 33.7136 4.77079 16.1804 12.011 0.00418165 0.00632277 0.00320159 
C 23.9108 9.68247 22.208 12.011 0.00380899 -0.00596957 -0.000295669 
C 28.8524 43.3727 22.8702 12.011 -0.00591082 -0.00908924 -0.0028807 
C 36.7313 24.2923 29.8883 12.011 -0.00395969 0.0031708 0.00462316 
C 41.3413 37.8097 34.8572 12.011 -0.00132889 0.00566973 -0.00711249 
C 22.8749 20.9884 14.248 12.011 0.00267592 -0.00247415 0.00687995 
C 3.76031 14.0609 15.7388 12.011 -0.00434714 0.00605649 -0.00437913 
C 9.59405 12.523 0.454097 12.011 0.00373075 0.0050936 -0.0011687 
C 50.7897 24.0845 39.1249 12.011 -0.00211133 0.000799216 -0.00417334 
C 33.3768 41.7397 7.39042 12.011 0.00562266 0.00530169 0.0109951 
C 49.2383 43.9982 17.1268 12.011 -0.00158247 -0.00301278 0.00045757 
C 35.8724 10.5165 20.4156 12.011 -0.008406 -0.00113284 -0.00314924 
C 45.9951 16.5208 4.83575 12.011 -0.00467679 -0.000179851 0.000368687 
C 5.3633 33.1476 12.9068 12.011 -0.0043537 0.0030613 -0.00383039 
C 37.9771 39.1166 44.141 12.011 -0.00425962 0.00665355 -0.00610452 
C 46.9055 21.3717 40.1185 12.011 0.00755588 0.00548863 0.00087756 
C 22.4105 13.4078 49.0203 12.011 0.00648067 -0.000838717 -0.00848852 
C 12.5121 28.9973 35.5627 12.011 0.00148103 -0.000692729 0.00191467 
C 7.26686 21.7546 22.9299 12.011 0.0124365 -0.00194012 0.00460028 
C 33.0309 12.4105 13.2344 12.011 -0.00165302 0.00414471 -0.0001396 
C 35.2947 35.5384 29.9106 12.011 0.00592075 0.00214554 -0.00468204 
C 7.16844 38.6011 14.9406 12.011 -0.00127092 -0.00035069 -0.00212467 
C 39.896 50.445 29.5074 12.011 0.00204748 0.000139881 0.015494 
C 16.9618 23.2939 14.5171 12.011 0.00188173 0.00840933 -0.00294937 
C 3.1823 37.3066 40.6868 12.011 -0.00108531 0.00306131 -0.00065887 
C 12.6234 38.9151 0.816874 12.011 -0.00473914 -0.0012062 -0.00403211 
C 13.1082 42.1359 5.74245 12.011 -0.00106902 0.00171892 0.000939008 
C 23.7556 20.5356 38.2379 12.011 -0.0026212 0.00237699 -0.00487369 
C 0.378581 44.9801 12.4372 12.011 -0.00671336 0.000315216 -0.00490015 
C 28.7835 43.7449 5.15412 12.011 -0.00933274 0.00437582 0.000619935 
C 11.0813 27.1016 3.62185 12.011 -0.000899044 -0.0010624 -0.00568286 
C 3.3797 24.1991 42.6605 12.011 -0.000415422 -0.00137998 -0.00326576 
C 16.7913 49.2352 36.9814 12.011 0.00389218 -0.00240831 0.00116699 
C 48.012 47.1316 5.8254 12.011 -0.00153498 0.00403899 -0.00122431 
C 48.6152 50.3798 40.7627 12.011 0.00340587 -0.0020339 0.00135904 
C 47.4578 42.6663 16.1248 12.011 0.00340059 -0.00415035 0.00106689 
C 27.2198 29.4813 25.7513 12.011 0.00909024 9.22979e-05 0.010565 
C 7.43705 35.4853 1.24897 12.011 0.00287133 -0.000507129 -0.00125242 
C 28.1467 33.0341 35.5747 12.011 0.000357554 -0.00198101 0.00343692 
C 6.20706 15.0036 25.2111 12.011 0.00868432 -0.00176494 -0.00149796 
C 6.52955 15.3951 37.1835 12.011 -0.00303053 0.0032469 -0.00278555 
C 21.5339 10.71 0.353924 12.011 0.00361113 0.000858359 -0.00221212 
C 25.1362 49.9313 28.1766 12.011 -0.00349903 -0.00442114 -0.00418492 
C 48.4246 2.88184 45.1757 12.011 0.00106346 -0.00881863 -0.00474238 
C 11.5239 18.0508 21.7537 12.011 -0.00254496 -0.00241473 0.00533053 
C 18.2927 27.401 12.0454 12.011 0.00222726 0.00484109 0.0011024 
C 28.0813 22.6097 2.80053 12.011 -0.0034615 -0.00364874 -0.00614211 
C 17.148 18.8597 21.9857 12.011 0.00400251 -0.00983444 0.0104178 
C 22.0104 34.0768 34.6079 12.011 0.00154693 -0.00887526 -0.00610122 
C 30.9935 32.1515 30.6282 12.011 -0.0024401 -0.00629628 0.00645631 
C 6.07351 8.49994 25.283 12.011 0.00328397 0.00733383 -0.000571127 
C 6.13999 19.7662 8.5586 12.011 0.00140909 0.000503321 0.00392385 
C 0.366659 6.11908 14.7741 12.011 0.0048621 0.00391155 -0.00544399 
C 13.1974 19.3842 32.9451 12.011 0.00204228 -0.00206427 0.00107028 
C 41.3445 17.1082 43.4241 12.011 0.000273361 0.00151813 0.0105107 
C 11.7446 46.145 44.9816 12.011 -0.00436632 -0.00596999 -0.0102944 
C 24.4864 3.66074 4.23669 12.011 0.00428728 -0.00804836 -0.0055114 
C 37.4403 49.7524 25.1061 12.011 0.000585005 0.00316899 0.00495865 
C 6.8725 18.3874 46.4384 12.011 0.00886915 -0.00351471 0.00621561 
C 2.14473 3.12391 34.4111 12.011 0.00342216 -0.00260894 0.00559415 
C 7.71145 47.7557 33.37 12.011 -0.00330293 0.00635922 -0.0113603 
C 45.3894 18.3669 34.9386 12.011 0.000691486 -0.00726561 -0.000907303 
C 26.2164 1.54909 3.72833 12.011 -0.00541393 0.00611635 -0.000405158 
C 31.103 1.57902 19.276 12.011 -0.00505599 0.00181463 0.00457253 
C 5.27038 45.6981 12.6746 12.011 6.16466e-05 0.00149351 0.00114668 
C 16.3514 3.15101 47.651 12.011 0.000971813 0.00481436 0.000844994 
C 10.2665 37.6255 41.0348 12.011 0.0063364 -0.00242655 -0.00209222 
C 15.2962 21.1836 11.1363 12.011 -0.00222921 0.00392543 -0.00435575 
C 11.2449 24.8177 4.64271 12.011 0.005583 0.00119225 -0.00221 
C 24.7183 13.5337 31.0123 12.011 -0.00183774 -0.00048087 -0.00538589 
C 32.4956 50.7354 19.7546 12.011 0.00379522 -0.00206999 0.006136 
C 20.1599 28.881 21.5639 12.011 -0.0117478 0.000333282 -0.00342656 
C 27.607 7.62254 17.6603 12.011 -0.00434082 0.00106674 -0.000583495 
C 41.675 38.7166 28.4258 12.011 -0.000104205 0.00631439 0.00349708 
C 28.6651 26.4638 30.0689 12.011 0.000258571 0.003102 0.00240268 
C 16.4754 24.8763 50.0079 12.011 -0.00190135 4.31444e-05 -0.00771026 
C 5.48198 19.4661 36.1001 12.011 0.00278528 0.00220214 0.00200133 
C 50.0566 15.7558 40.7505 12.011 0.00167917 -0.00489197 0.00071268 
C 35.2957 9.50594 0.826219 12.011 -0.00744477 0.00104445 0.00520315 
C 27.9529 24.256 46.6515 12.011 -0.000746583 -0.0106827 0.0110936 
C 24.509 18.1377 38.7453 12.011 -0.00412653 0.00272937 -0.00389017 
C 46.8088 44.9686 30.5795 12.011 -0.0039395 -0.00311009 0.00199391 
C 42.5307 9.22685 8.461 12.011 0.00406369 0.000509481 0.00342782 
C 29.16 21.9735 38.4628 12.011 0.00893522 0.0007324 -0.000286457 
C 7.71276 11.4107 37.243 12.011 0.00485037 -0.00240481 0.00892172 
C 6.95103 25.4985 48.4358 12.011 0.00249626 -0.00342083 0.00389663 
C 12.5516 39.2989 41.6249 12.011 -0.00358564 -0.0005692 -0.00059101 
C 10.2362 5.6184 16.98 12.011 0.000313376 -0.00584934 0.000828164 
C 36.2196 24.8295 47.166 12.011 0.00618007 0.00486973 0.00923811 
C 15.5196 5.2758 33.1849 12.011 0.00806853 0.000847524 -0.00469738 
C 38.7217 30.2964 39.2859 12.011 0.00256518 -0.000531492 0.00963081 
C 44.6477 11.0433 20.5376 12.011 -0.0046106 0.0069432 -0.00320365 
C 20.3945 23.4034 40.296 12.011 0.00280841 -0.00151416 0.00825773 
C 18.3385 45.9599 31.4005 12.011 0.000498262 0.00347217 -0.000517629 
C 19.4215 29.278 39.6689 12.011 -0.00559698 -0.000478951 0.00436942 
C 12.9982 11.5132 49.712 12.011 -0.00187198 -0.00293881 0.00181504 
C 41.0294 30.5952 31.8527 12.011 -1.7833e-05 -0.00315599 -0.00233208 
C 28.6631 26.8939 49.1756 12.011 -0.00450414 -0.00365414 0.00275354 
C 31.966 40.7719 2.83056 12.011 0.00400523 0.00316808 0.00588674 
C 10.3668 21.8219 15.897 12.011 -0.00356433 0.00116004 0.00487693 
C 34.3041 45.116 47.7594 12.011 -0.00205778 -0.00270821 -0.00253271 
C 28.9253 13.5388 38.9287 12.011 -0.00534509 -0.000608072 0.00028814 
C 47.0775 41.4621 33.9955 12.011 0.00322712 -0.000172672 0.00102243 
C 18.1311 27.8125 23.2744 12.011 -0.00470744 0.00601642 0.00297752 
C 27.3247 20.5169 38.8411 12.011 0.00291097 0.00270557 0.00196843 
C 41.1019 50.1541 2.78093 12.011 0.00383343 7.94536e-05 0.00175922 
C 37.3418 46.2478 44.2585 12.011 0.00271105 -2.02992e-05 -0.00276378 
C 43.2555 43.0203 0.66522 12.011 0.00719857 -0.000594945 -0.00754789 
C 0.481569 43.2365 45.185 12.011 0.0019915 0.0047901 0.00774348 
C 29.8662 35.7894 10.8116 12.011 0.00249531 -0.000553852 0.000561768 
C 46.3692 11.8878 44.6933 12.011 -0.00150898 0.000665587 0.00573159 
C 13.8156 39.2778 5.44638 12.011 0.00261245 -0.00675193 0.00120805 
C 50.2434 4.45318 49.7272 12.011 -0.00170584 -0.00362599 0.000362908 
C 26.2324 21.9316 18.7649 12.011 -0.00101319 0.000836053 -0.00283588 
C 18.3397 4.15345 46.3156 12.011 -0.00337759 -0.0046494 0.000657231 
C 4.51816 4.01089 34.1612 12.011 -0.00787505 0.00764588 0.00195552 
C 28.6596 46.8006 42.0094 12.011 -0.00333098 0.0108218 -0.00458925 
C 14.1969 3.064 46.5005 12.011 -3.62629e-05 0.00546865 -0.00410775 
C 5.81876 5.93918 21.6226 12.011 -0.00195947 3.75799e-05 0.00118941 
C 19.9344 39.3874 43.0517 12.011 0.00309988 0.00144897 -0.000427176 
C 18.1486 17.8504 34.7847 12.011 -0.000515976 0.000535672 -0.00263816 
C 20.6866 29.4473 22.8143 12.011 0.00335633 0.000493098 0.00175812 
C 6.84705 19.0178 35.9783 12.011 -0.00835671 -0.000503462 0.00265714 
C 2.9676 13.1462 49.236 12.011 -0.00874269 -0.00104922 -0.000995949 
C 21.6999 6.37917 8.70436 12.011 0.00236378 -0.00218585 0.00444591 
C 22.1493 34.4331 17.4658 12.011 0.000521287 0.00908471 -0.00901346 
C 33.7471 48.6427 20.1295 12.011 0.00440633 -0.00351412 0.00604239 
C 30.0422 7.47362 18.4751 12.011 -0.00795922 -0.00417445 -0.00121621 
C 32.1965 32.853 30.619 12.011 0.00213218 0.00202766 -0.00154717 
C 17.9473 20.0386 33.6249 12.011 0.0087995 -0.000929096 0.0117797 
C 41.5394 40.7162 43.8946 12.011 0.00304412 0.002701 0.000341124 
C 21.1016 45.9682 38.9685 12.011 0.00133565 0.000772879 -0.00343068 
C 30.9858 44.1533 11.2525 12.011 -0.00387339 0.0113609 -0.0136544 
C 34.4132 12.6733 40.9449 12.011 0.00302363 -0.00136432 0.00933902 
C 17.7803 46.5479 9.08917 12.011 0.000969423 0.00149832 -0.00328763 
C 46.2769 27.5086 30.9576 12.011 0.00419439 -0.00844515 -0.00869807 
C 26.4366 2.54622 16.9822 12.011 -0.000466566 -0.00349526 -0.000286384 
C 5.09551 2.89391 8.50717 12.011 0.00902913 -0.000626418 -0.00509486 
C 15.3564 11.4127 15.1603 12.011 -0.00555884 -0.0049494 -0.00592755 
C 21.3677 32.2414 7.85831 12.011 0.00553712 -0.00478815 0.0028046 
C 26.3069 23.9152 31.4846 12.011 0.00375266 0.000841208 -0.00176136 
C 16.4885 17.5453 50.1149 12.011 0.00665688 -0.00275863 -0.000499183 
C 10.8975 3.97031 25.7897 12.011 -0.000270342 -0.000976083 -0.000673663 
C 21.3865 44.09 5.19133 12.011 0.00571241 -0.00225101 0.00506615 
C 33.0272 32.7403 13.6421 12.011 0.00494728 -0.00827136 0.00123718 
C 6.93016 23.103 47.8076 12.011 0.00137788 0.000722467 0.00513006 
C 5.58679 26.2725 36.168 12.011 0.00441657 0.00373471 9.40074e-05 
C 29.209 13.517 8.04668 12.011 -0.00173439 -0.00347651 -0.00565377 
C 50.3667 31.6716 1.10837 12.011 0.000301518 -0.00222184 -0.00216053 
C 33.6672 23.8169 15.485 12.011 0.00728872 -0.0040813 -0.000116852 
C 34.9887 4.4823 38.2827 12.011 -0.000781176 -0.00413999 -0.00963137 
C 12.8333 47.4274 34.3732 12.011 -0.0017183 -0.00579272 -0.00203481 
C 30.1546 27.1441 17.3855 12.011 -0.00126451 0.00220731 -0.0105314 
C 25.2904 49.9417 26.9597 12.011 0.0036608 -0.00119027 0.00597215 
C 23.3382 35.3369 22.9185 12.011 -0.00840094 0.00627724 -0.00162746 
C 1.96112 12.3756 17.1701 12.011 0.000282599 0.00999225 0.00482317 
C 13.4376 31.2421 25.8027 12.011 -0.00103064 0.000642818 -0.00685035 
C 50.5868 39.9108 4.87586 12.011 -0.00505996 -0.00409046 -0.0081552 
C 48.2762 6.27378 36.9249 12.011 -0.00236654 -0.00659926 -0.00563732 
C 18.915 1.6717 21.3018 12.011 -0.00454125 0.00381394 -0.000865779 
C 20.5647 17.0569 38.3107 12.011 0.00106133 -0.00406145 -0.000334721 
C 40.9316 17.9999 13.5468 12.011 0.0045203 -0.00541074 -0.000150328 
C 45.4436 33.4699 30.72 12.011 0.000642466 0.00360861 -0.000667434 
C 15.1394 25.1202 39.2511 12.011 0.00166289 -0.00420747 0.00501983 
C 40.8156 8.13291 35.6169 12.011 0.010532 -0.00395725 -0.00309186 
C 18.8104 5.25847 50.4713 12.011 0.00310746 0.0122809 0.0057095 
C 17.0569 3.56562 21.1652 12.011 0.00394257 -0.00113415 -0.00329869 
C 24.7251 29.4424 41.8213 12.011 -0.0100131 -0.00307282 -0.00403348 
C 45.2788 11.6558 12.5782 12.011 0.00599356 -0.00112175 0.00152022 
C 11.2822 19.975 40.9184 12.011 -0.00512747 0.00254996 -0.00104601 
C 17.6675 47.8912 43.1296 12.011 -0.00326809 0.00104665 0.00129524 
C 17.4097 37.649 10.5604 12.011 -0.0059986 -0.00289121 -0.00225119 
C 8.83048 16.7596 47.1388 12.011 0.00759246 0.00726093 -0.00336044 
C 35.0135 38.5994 5.90925 12.011 -0.0068755 -0.00403001 0.00374869 
C 40.0749 41.4984 34.912 12.011 -0.00163391 0.00304802 0.00208882 
C 50.5464 32.9463 31.0881 12.011 0.00427776 -0.00510349 0.00367854 
C 36.3157 24.9835 42.5023 12.011 0.00172043 0.00293667 -0.00700003 
C 1.84841 42.8622 4.32247 12.011 -0.000793633 -0.00426504 0.00147602 
C 3.12798 22.0202 3.3497 12.011 -0.0016796 -0.00433147 0.00483325 
C 44.2097 13.6699 35.171 12.011 -0.00245855 0.00163472 -0.00641701 
C 11.0899 26.1078 15.4286 12.011 -0.000962418 0.00308988 0.00724361 
C 11.3105 15.7285 20.8716 12.011 -0.00797196 0.00848478 0.00235946 
C 13.8892 22.1744 31.6098 12.011 -0.00673386 -0.00418809 -0.00174348 
C 20.7977 43.068 33.3247 12.011 -0.00462672 0.00565215 0.00197695 
C 35.4388 4.69455 44.9465 12.011 -0.00158755 -0.004607 -0.00353247 
C 23.7109 5.39855 10.1519 12.011 -0.00389862 -0.00256152 -0.00130704 
C 1.25384 15.1132 49.0929 12.011 0.000235537 -0.00991293 -0.00549226 
C 10.3879 50.7711 17.1972 12.011 -0.00580217 0.00918198 0.0052637 
C 40.8148 29.311 50.9237 12.011 -0.00103355 0.00371324 0.000566241 
C 47.6771 26.175 38.3249 12.011 -0.00255841 0.00669151 -0.00135127 
C 32.5101 2.97215 14.8947 12.011 0.00322158 -0.00424798 -0.00197129 
C 27.179 47.8823 47.9862 12.011 -0.00278161 0.00159158 -0.00242235 
C 11.5861 41.3527 36.8497 12.011 -0.00645785 -0.00120936 0.00179124 
C 13.3685 14.841 3.63991 12.011 -0.00933348 0.00197532 -0.00733563 
C 37.8797 34.9134 18.6266 12.011 0.00149538 -0.000156771 -0.000849564 
C 17.7278 22.0531 19.9705 12.011 0.00370744 -0.00166694 -0.00255022 
C 12.7049 26.9065 9.39692 12.011 -0.00138101 -0.00331908 0.00642428 
C 31.8003 25.7664 12.9183 12.011 -0.00362153 -0.00430797 0.00144731 
C 46.1591 22.5692 48.3696 12.011 -0.00052983 0.00284659 0.00389991 
C 32.2377 9.10362 4.83453 12.011 0.00437463 -0.00259268 -0.00821562 
C 26.6912 13.9354 39.9362 12.011 0.00374635 -0.000331285 -0.000802987 
C 41.9046 28.5954 0.460133 12.011 0.00044293 0.00162658 0.00920081 
C 34.9453 27.2792 45.8532 12.011 0.00630615 -0.000124719 0.000832874 
C 2.35483 2.34478 33.2112 12.011 0.00699653 0.000701518 -0.00384503 
C 27.5583 25.0539 45.5497 12.011 0.00244772 -0.000325076 0.00206427 
C 33.6308 43.5481 20.2529 12.011 0.0037008 -0.00570836 -0.0011321 
C 2.79568 44.1251 43.6801 12.011 0.000305616 0.0022156 0.00136642 
C 11.8578 37.5666 26.1518 12.011 -0.00588499 -0.00378987 0.00600057 
C 32.2646 23.6459 24.3777 12.011 0.00398889 0.00368146 0.000792 
C 9.42369 0.0206818 27.4073 12.011 0.00542348 0.00288138 -0.0090756 
C 3.23226 28.6705 32.6003 12.011 -0.000669965 0.00517453 -0.00651787 
C 31.6065 37.4549 10.016 12.011 -0.000754097 -0.00235638 -0.00864774 
C 32.5093 26.9865 11.1371 12.011 0.0054012 -0.00699075 0.000264213 
C 1.66306 22.2135 39.8936 12.011 0.0068549 -0.0015607 0.00402323 
C 20.5554 32.6589 18.3903 12.011 -0.000151297 0.00346706 0.00471941 
C 5.02395 13.6293 5.80632 12.011 0.00119321 -0.00369361 0.00563955 
C 6.70581 31.4431 3.56747 12.011 0.00385723 0.00251838 -0.00367912 
C 28.4638 0.611921 37.672 12.011 0.00233435 0.00476802 -0.00437454 
C 37.1706 23.8915 48.0118 12.011 0.00486571 -0.00926857 0.00121912 
C 36.7308 31.2714 40.5235 12.011 0.00735168 0.00449633 0.0101769 
C 35.6773 39.4713 49.8734 12.011 0.00299123 -0.00175208 -0.00348915 
C 33.1543 24.1336 37.4185 12.011 0.0021663 0.00473164 -0.00140071 
C 23.9559 16.1115 49.2422 12.011 0.00246343 -0.00287333 0.0140033 
C 25.0848 24.9571 23.0105 12.011 0.00134651 0.00224145 -0.0102262 
C 18.8123 46.0894 32.6653 12.011 -0.00309783 0.00856968 0.00234615 
C 30.3547 29.0345 36.9176 12.011 0.00636486 0.00286043 -0.00096277 
C 47.0939 16.7864 35.4772 12.011 -0.00641552 8.32927e-05 0.00255891 
C 13.239 11.3243 40.8912 12.011 -0.00622135 -0.0020026 0.00263991 
C 50.6004 5.66343 24.6962 12.011 0.00674555 -0.00110622 0.00530199 
C 29.8275 13.6898 37.8371 12.011 0.00129531 -0.00891261 0.0088992 
C 17.1039 22.7548 48.2127 12.011 0.00370919 0.00106988 0.000314154 
C 35.1537 12.9884 14.0708 12.011 0.00171604 -0.00718117 -0.00367719 
C 21.0235 29.226 15.3908 12.011 0.0004188 0.00573518 0.00465658 
C 43.4279 3.63448 37.7944 12.011 -2.67593e-05 -0.00290349 -0.0012774 
C 41.0506 27.2199 8.20331 12.011 -0.000243601 0.000197909 0.00114643 
C 18.8647 0.711336 3.35809 12.011 -0.00491018 0.00169929 -0.00171319 
C 16.3932 13.438 7.67935 12.011 -0.00696073 0.00334717 -0.00253601 
C 5.1707 23.6243 11.3513 12.011 -0.000688678 -0.00905678 0.00366705 
C 30.5272 16.815 27.8899 12.011 0.00089417 0.00200857 -0.00159953 
C 32.0241 3.02337 29.787 12.011 0.00494096 -0.00477271 -0.00314976 
C 8.44017 19.6528 40.9602 12.011 0.000334867 -0.00315975 0.00150124 
C 36.764 8.04563 47.8238 12.011 -0.00358987 0.00680294 -0.00731616 
C 18.351 45.6427 8.18503 12.011 0.00221165 -0.00250386 -0.0036155 
C 37.7157 23.5356 3.99499 12.011 -0.00106411 -0.00399312 0.00377367 
C 46.99 38.2743 48.818 12.011 -0.00382038 -0.00539955 -0.00335052 
C 19.9493 13.7778 39.6728 12.011 -0.00885098 -0.00125701 -0.00289997 
C 46.0442 49.4374 30.0809 12.011 -0.00211773 0.0103547 0.00328009 
C 37.8341 3.3958 18.7058 12.011 -0.000299337 -0.00230773 -0.00245207 
C 42.7093 3.92369 19.01 12.011 0.000514633 0.00456674 0.000412926 
C 33.756 0.864411 14.5849 12.011 -0.00442746 0.000674012 -0.00333046 
C 12.1151 14.2351 17.4954 12.011 -0.00442933 0.00236963 0.00622144 
C 25.4608 11.9367 29.3481 12.011 0.0073625 -0.00185383 0.0055857 
C 11.3507 27.2459 9.13356 12.011 0.00173856 -0.00168821 -0.00360604 
C 14.2518 26.271 39.2018 12.011 0.000103171 0.00227752 0.00335822 
C 16.499 9.20979 48.9604 12.011 0.00959882 -0.00823554 0.00014601 
C 44.3076 10.9585 13.4041 12.011 0.00293058 0.00319197 0.00135728 
C 18.8222 44.6023 15.4467 12.011 0.00199139 0.00414206 0.00211578 
C 27.7082 30.7313 27.7982 12.011 0.000196941 -0.000550747 -0.0159917 
C 12.3162 26.7678 27.7189 12.011 -0.00247731 -0.00838145 0.00312751 
C 39.3933 31.5259 38.8962 12.011 0.0007133 -0.00338699 0.00327747 
C 10.9196 41.9664 47.6418 12.011 0.000279717 0.00723899 0.00592656 
C 7.93268 17.8763 6.9209 12.011 -0.00211588 -0.00945226 -0.00196096 
C 16.6539 42.4727 48.7868 12.011 -0.0061541 -0.00367257 0.00770333 
C 25.0086 25.6006 30.3912 12.011 0.00125971 0.000369584 0.00103251 
C 18.9469 1.5097 4.51512 12.011 0.0018893 -0.00409855 -0.00365467 
C 15.5544 29.9178 9.07943 12.011 -0.00184391 0.00207902 0.00182989 
C 28.4778 14.7762 0.808619 12.011 -0.00023515 -0.00349411 -0.00240181 
C 40.0717 46.9147 34.042 12.011 0.00463432 0.00188266 -0.00382483 
C 13.8178 36.8909 4.80579 12.011 -1.25033e-06 0.00386882 0.000512144 
C 11.4335 19.845 19.9474 12.011 0.00222822 0.00603843 0.000756604 
C 21.8756 31.4385 36.3222 12.011 0.00215855 -0.00243693 -0.0111101 
C 5.58162 29.6283 9.51989 12.011 -0.00142425 -0.000107117 -0.00465142 
C 29.9399 20.7804 33.074 12.011 0.00798497 0.0020634 0.00814256 
C 38.1865 10.5566 21.5368 12.011 -0.00587581 -0.00316917 0.00517582 
C 11.9482 39.0095 36.3952 12.011 0.00424149 0.00327989 -0.0105888 
C 21.6569 14.6528 8.28944 12.011 -0.0054708 -0.00364352 -0.00266602 
C 4.4276 3.73386 44.0392 12.011 -0.00437206 -0.00641854 -0.00511758 
C 10.3212 31.0687 20.6168 12.011 -0.00615998 0.00302783 -0.000653095 
C 33.8305 37.1541 4.25593 12.011 0.00393105 -0.00366134 -0.006435 
C 43.7864 23.4649 39.8492 12.011 -0.00201758 0.00443099 -0.000336262 
C 50.1918 30.3203 0.651699 12.011 0.000792245 0.00052079 -0.000603038 
C 30.46 40.2547 28.5572 12.011 -0.00630242 0.00251088 0.00119666 
C 38.9482 40.5972 14.247 12.011 -0.0098516 0.00565651 -0.00154709 
C 13.2415 9.5835 32.5399 12.011 -0.00282875 0.000227301 -0.000176829 
C 2.78778 0.880943 30.8701 12.011 -0.0010014 -0.00121526 0.00772185 
C 36.4158 19.7577 1.22343 12.011 0.00165904 0.00219331 -0.00168135 
C 27.7002 7.15463 24.465 12.011 0.00531929 -0.0116903 -0.00238851 
C 14.0021 49.1177 11.8707 12.011 0.00665998 0.0050167 0.000857628 
C 42.4369 16.5338 8.35716 12.011 0.00351097 -0.00504643 -0.004532 
C 31.3277 21.0066 14.1307 12.011 0.000944265 0.00846112 -0.000137639 
C 36.4042 10.303 49.745 12.011 0.00138663 -0.00264145 0.00248356 
C 40.6201 2.17617 50.2618 12.011 0.000438302 -0.00617623 0.00224932 
C 7.0755 6.14558 45.0407 12.011 0.00514641 -8.8047e-06 0.00411006 
C 1.59899 38.7941 39.8378 12.011 0.00216444 -0.0143862 -0.00382521 
C 43.0574 31.2924 27.0246 12.011 0.000380335 0.00920192 -0.00233478 
C 24.8655 0.226758 38.8821 12.011 0.00422039 0.00251022 -0.00231261 
C 36.2283 9.41051 40.1482 12.011 0.00312212 0.00592697 0.00114058 
C 6.70163 10.3949 36.9793 12.011 0.00301399 0.000163924 -0.00350208 
C 13.9208 9.40304 29.7476 12.011 -0.00390938 0.000399672 -0.00553516 
C 31.6302 40.0314 21.685 12.011 0.00421686 -0.00852959 0.00405948 
C 48.1855 12.7085 36.0575 12.011 0.00142828 -0.00542893 0.00462033 
C 41.7563 38.8416 22.1675 12.011 0.00460858 -0.00368522 -0.00630939 
C 41.7235 5.97214 38.4676 12.011 -0.00400659 -0.00361037 -0.00392365 
C 22.1477 33.8173 0.724697 12.011 0.00729665 0.000837054 -0.00439127 
C 32.1784 45.4851 25.3573 12.011 -0.00209586 -0.00987228 0.00150602 
C 17.9169 23.5486 39.6161 12.011 -0.000188382 0.000806157 0.00685193 
C 48.9731 38.0679 30.6577 12.011 0.00328258 -0.000255636 0.00487604 
C 13.6665 10.0689 27.2689 12.011 -0.00282537 -0.00345029 -0.00691769 
C 34.15 42.489 22.7963 12.011 -0.000547817 0.00220196 0.00418741 
C 17.9348 1.20985 37.1974 12.011 0.000571524 -0.000542739 0.00893445 
C 42.901 17.7603 10.4226 12.011 -0.00287775 0.00314806 -0.00111465 
C 41.2238 31.3924 12.5539 12.011 0.00118538 0.00128872 0.0021027 
C 23.7273 1.47769 15.7177 12.011 -0.00588635 -0.00177837 0.00678936 
C 28.3171 19.4852 28.1155 12.011 0.00453009 0.00288662 -0.00479965 
C 27.8237 28.2413 4.9697 12.011 -0.000376604 -0.00620255 0.00203818 
C 48.0795 33.0732 6.04056 12.011 -0.0027432 -0.00369557 -0.00392348 
C 42.7238 38.7511 3.85155 12.011 -0.00388377 -0.0011231 -0.00312431 
C 11.0445 15.0639 44.6942 12.011 0.00521624 0.001083 -0.00506566 
C 24.1924 28.3159 21.7723 12.011 -0.00577797 0.00841217 -0.00351614 
C 27.9825 40.035 34.5349 12.011 0.00279274 -0.00239582 -0.00453747 
C 6.3586 32.048 12.7521 12.011 -0.00495689 -0.00257494 -0.000489976 
C 28.1953 14.1638 44.6814 12.011 0.00346263 0.011773 -0.00557357 
C 29.3191 21.5182 23.8803 12.011 0.00159146 -0.00127031 -0.00288462 
C 46.9643 43.2427 24.2926 12.011 -0.00518148 -0.00233951 -0.00360866 
C 34.649 37.0656 31.7337 12.011 0.000870236 -0.00493652 -0.0024857 
C 39.6419 12.1676 36.1446 12.011 -0.00390488 -0.00478285 0.00633001 
C 27.109 34.8245 7.24962 12.011 -0.00451519 0.0092807 0.00256207 
C 18.9009 47.4924 34.6777 12.011 0.00537733 -0.00443543 -0.00040826 
C 38.8892 8.21254 15.6818 12.011 -0.000497315 -0.00302836 0.00239264 
C 15.3728 18.1615 25.325 12.011 0.00429088 -0.00479063 -0.000299176 
C 4.15245 19.2729 15.9499 12.011 -0.000121733 -0.00335977 -0.00247867 
C 18.2543 14.1813 37.9837 12.011 0.00617912 0.00822523 0.00188623 
C 28.7936 31.9183 43.0408 12.011 -0.0102174 0.00183649 -0.00484547 
C 39.8037 26.5828 39.5093 12.011 0.00446429 0.00978964 -0.0017533 
C 43.0522 0.0600889 46.3641 12.011 -0.000337772 -0.00976103 0.00723528 
C 0.721166 31.5183 38.6921 12.011 0.00111954 0.00828792 0.00358511 
C 18.8248 33.3122 16.1675 12.011 0.00277467 -0.0062678 0.00188108 
C 13.4039 26.2455 2.64956 12.011 -0.00283931 1.50049e-05 -0.00250124 
C 7.98399 25.3017 13.3065 12.011 0.00611256 0.00154688 -0.00436391 
C 39.4984 44.4934 34.7312 12.011 -0.00626322 -0.00499813 -0.0056256 
C 23.4641 13.828 25.0556 12.011 0.00405164 -0.00792548 -0.00442615 
C 14.2623 14.6565 13.6452 12.011 -0.00227461 -0.00197805 -0.00282104 
C 33.8275 43.9143 29.1108 12.011 -0.00077219 -0.00150272 -0.00445814 
C 34.3734 33.4514 16.1232 12.011 -0.00267634 -0.00450121 0.00454435 
C 22.4031 37.8971 42.9584 12.011 0.00119383 0.00207929 -6.82544e-06 
C 25.2199 1.46497 10.032 12.011 0.00278446 -0.00949566 -0.00127752 
C 29.7844 49.5365 7.2404 12.011 0.000311575 0.000570524 0.00143805 
C 21.238 28.5801 24.9992 12.011 0.00140803 -0.00473267 0.00296953 
C 45.802 18.3248 8.16977 12.011 0.000215162 -0.00812669 0.0025214 
C 2.88623 16.2716 28.1929 12.011 0.00418342 0.00193896 -0.00117048 
C 25.5961 0.886465 11.3237 12.011 -0.00137022 -0.000216529 0.00554009 
C 9.23065 2.48297 24.5028 12.011 0.002148 0.000696809 0.00511698 
C 24.2401 16.6915 39.124 12.011 0.00297774 0.00500367 -0.00799163 
C 11.2552 14.7964 19.7293 12.011 -0.00483513 -0.00450305 -0.00216533 
C 18.7662 26.231 44.9223 12.011 0.00227907 -0.00240167 -0.002486 
C 27.4284 25.8492 30.5177 12.011 -0.00262105 -0.00355109 0.00961977 
C 30.5686 13.4301 7.58398 12.011 0.00272326 -0.00340664 0.00118655 
C 31.676 44.7314 40.1083 12.011 -0.00841895 0.0044979 0.00213769 
C 50.3693 9.64143 17.9172 12.011 -0.00289185 -0.00235211 0.00210967 
C 40.2822 42.1048 4.7157 12.011 -0.00591843 0.00272998 -0.00232678 
C 9.23728 46.8759 48.7867 12.011 -0.0042274 -0.00658843 -0.007497 
C 15.5873 1.89862 37.3097 12.011 -0.00473557 -0.00242304 -0.00247121 
C 22.6185 2.53809 20.8576 12.011 -0.00249963 0.00302412 -0.00587685 
C 13.5601 8.76524 4.24035 12.011 0.00110308 0.00304173 -0.0108808 
C 0.115341 41.2195 4.79942 12.011 0.00290958 -0.00481674 -0.00279634 
C 31.3726 12.7647 43.231 12.011 0.00122379 0.00184589 -6.58475e-05 
C 50.9296 37.1168 28.8534 12.011 -0.00614986 -0.00188012 -0.00509554 
C 43.4281 33.5688 10.9184 12.011 0.00452113 0.00282444 0.00644277 
C 18.1326 44.5214 29.35 12.011 0.00159779 -0.00685913 0.0155106 
C 25.5144 2.70334 34.6857 12.011 0.00950094 -0.00534974 0.00540047 
C 27.9298 8.97195 17.3376 12.011 -0.00252505 0.0050405 -0.00267908 
C 21.8712 17.3644 48.8512 12.011 0.001017 -0.00311482 -0.00606022 
C 50.7043 24.1062 10.6582 12.011 0.00485393 0.000330908 -0.0049148 
C 9.44913 47.4372 24.8592 12.011 0.000898194 0.00630193 -0.00545899 
C 14.6052 14.3899 41.7348 12.011 0.0134769 0.00310248 0.00173252 
C 37.2694 45.0939 5.31818 12.011 0.00412375 0.00250121 0.0014104 
C 29.5575 11.1942 1.13611 12.011 0.00251062 -0.0150626 0.00255423 
C 0.70346 1.96256 38.9289 12.011 0.00149218 0.0024537 -0.000829311 
C 45.4651 17.5264 16.8946 12.011 -0.00624704 6.52912e-05 -0.00655288 
C 45.0422 15.0854 28.1395 12.011 0.00509124 -0.00222201 0.00600159 
C 49.0808 5.98427 38.0345 12.011 -0.00312006 -0.00205333 0.00011308 
C 17.0253 30.6888 21.0537 12.011 0.00192577 0.00905299 0.00168199 
C 4.58529 42.0391 46.1484 12.011 -0.000732472 0.00261884 0.00162076 
C 21.61 49.1011 20.8654 12.011 0.00232023 -0.00546736 -0.00468819 
C 20.3029 35.5137 41.1359 12.011 0.00219878 0.00293708 0.00160617 
C 4.50645 16.6238 20.1218 12.011 -0.00662067 -0.000347098 -0.00250227 
C 48.3294 49.3987 30.0275 12.011 0.00166197 -0.00336724 0.00490148 
C 0.0108428 34.9388 50.4964 12.011 -0.00770674 0.0032411 0.00183775 
C 24.9044 22.0941 15.3485 12.011 -0.00700965 0.00344387 -0.00308225 
C 8.12583 21.9042 40.1228 12.011 0.00258831 -0.0104673 -0.00163669 
C 28.4887 48.4792 40.4233 12.011 0.00220209 -0.00393198 0.000123431 
C 25.212 25.5055 3.00934 12.011 -0.00487104 0.00543769 0.00364501 
C 31.2529 22.1308 47.806 12.011 -8.31988e-05 0.00366773 -0.00309691 
C 24.0784 40.1326 30.6155 12.011 0.010375 0.000301375 -0.0110138 
C 28.6546 19.1096 40.5867 12.011 -0.000273436 -0.0034587 -0.000828103 
C 36.7378 20.412 37.1791 12.011 0.00965588 -0.00343423 -0.00136934 
C 23.2121 14.7135 6.3929 12.011 0.00321887 -0.00116724 0.000593274 
C 22.3814 7.36878 17.6677 12.011 0.00153936 0.00928376 0.00341731 
C 5.48602 49.3554 22.6186 12.011 0.000870866 -0.0045797 0.00121285 
C 31.0989 50.2911 26.5402 12.011 -0.00624026 0.00293655 0.000575401 
C 18.3413 37.8468 28.4777 12.011 -0.000421381 0.00128752 0.00480547 
C 18.7808 15.7806 20.445 12.011 -0.00935623 0.0030652 -0.00258571 
C 30.8399 38.1912 15.9546 12.011 -0.00827754 0.00386846 0.00417605 
C 21.5467 31.6091 21.9022 12.011 0.00735491 0.00104177 -0.00371769 
C 6.32837 22.6949 31.3424 12.011 -0.00173418 -0.00774546 9.49668e-05 
C 3.83896 45.6339 41.9456 12.011 -0.00166618 0.00652997 -0.00676159 
C 34.4196 8.99492 3.06707 12.011 0.000445079 -0.00889206 -0.00334539 
C 40.6862 6.64086 39.0676 12.011 0.00598434 0.00542347 0.00459004 
C 45.0221 49.0546 11.0111 12.011 0.00485193 0.00335277 -0.00410322 
C 21.4296 10.256 33.3078 12.011 -0.002175 -0.00619183 -0.00262005 
C 28.1403 13.7484 7.1165 12.011 -0.00206832 0.000630181 -0.000987244 
C 22.2974 34.4783 27.6314 12.011 -0.00271048 0.00285833 0.0044594 
C 43.6222 49.937 30.6503 12.011 -0.000959281 0.00160414 0.00206888 
C 43.559 34.8439 49.4309 12.011 0.00326253 0.0108105 -0.000204472 
C 49.2563 44.9042 19.3432 12.011 -0.00518161 -0.00301772 -0.00776802 
C 36.0272 47.9463 42.3123 12.011 -0.00416558 -0.00268755 -0.00451579 
C 39.5907 9.95789 46.9512 12.011 0.00596713 0.0114988 0.00307091 
C 36.4063 47.3738 39.5927 12.011 -0.00236275 0.0168942 -0.0028025 
C 7.09315 24.4853 33.2873 12.011 -0.00336867 -0.00717288 0.000441631 
C 37.0986 41.4091 7.53119 12.011 0.000659822 0.00641248 -0.000173367 
C 12.2334 42.5122 45.9001 12.011 -0.00891323 -0.00152491 0.00287844 
C 40.8047 16.3769 10.2209 12.011 0.000798042 -0.00542571 -0.000483534 
C 43.5511 17.6069 47.3497 12.011 0.000599395 -0.004503 -0.00136292 
C 36.9811 24.0147 18.266 12.011 -0.00378115 0.00122592 0.00508048 
C 19.5642 47.7461 39.9074 12.011 0.00242447 0.000924751 0.00744265 
C 6.78209 15.1059 11.9225 12.011 -0.00892646 -0.00103974 -0.0014649 
C 44.9249 49.7236 35.5154 12.011 -0.00381242 0.0022051 0.00383099 
C 34.0963 40.8745 6.40152 12.011 0.00052719 -0.00435866 0.00358543 
C 9.22527 47.4662 0.473662 12.011 -0.00356385 -0.00411893 -0.00364133 
C 9.41144 3.40078 43.9306 12.011 0.00399502 0.0053518 0.00143846 
C 49.9018 40.7565 38.1824 12.011 0.000104174 -0.00576593 -0.000967216 
C 24.7168 11.8527 25.6088 12.011 0.00393122 0.00112599 -0.00387699 
C 15.361 13.4067 4.052 12.011 0.015599 0.0122571 -0.00661453 
C 17.9288 4.69692 15.4658 12.011 0.00183968 0.00784398 -0.00911575 
C 34.12 15.2224 2.73749 12.011 0.0067463 -0.00245517 0.00583731 
C 18.8517 0.577199 36.4946 12.011 -0.00238804 -0.00461378 0.00364463 
C 44.0788 0.166707 31.1635 12.011 -0.00945309 0.0012594 -0.000425958 
C 15.716 50.6597 35.0693 12.011 0.000729578 0.00199045 0.00576259 
C 16.7684 22.588 6.59812 12.011 -0.00351813 -0.000500243 -0.00805042 
C 36.6583 18.7272 44.1378 12.011 0.00919143 -0.00387541 0.00115221 
C 4.08752 14.7483 36.9956 12.011 0.00379281 0.00371119 0.00696048 
C 41.6365 5.3523 37.2499 12.011 0.00734465 -0.00629746 0.000685154 
C 31.5513 34.2858 32.3875 12.011 -0.000288934 0.00210674 -0.0058404 
C 2.12351 17.4329 49.7223 12.011 -0.00172769 -0.00362676 0.00022665 
C 30.9123 18.7021 33.882 12.011 0.000594111 0.000443714 -0.00916138 
C 35.0257 50.3159 43.1321 12.011 -0.00206114 0.00265071 -0.000888117 
C 35.3764 13.648 8.60069 12.011 -0.00155504 0.00561872 -0.00513948 
C 12.7878 15.4219 2.50054 12.011 0.00220791 0.00321307 0.000127845 
C 4.84099 39.4213 15.0508 12.011 -0.00519886 0.000326964 -0.00247459 
C 28.1811 8.56009 26.8457 12.011 -0.0020359 -0.00522857 0.000401738 
C 28.1 46.2114 12.1797 12.011 0.000430789 -0.0108242 -0.00341763 
C 30.9603 18.9984 26.6817 12.011 0.00346293 0.00237232 0.0033905 
C 39.4262 44.9744 44.5909 12.011 -0.00632664 0.00281765 0.00543904 
C 39.1399 35.6904 23.3386 12.011 0.00883749 -7.56727e-05 0.00509586 
C 32.4057 46.2672 26.5422 12.011 -0.00379728 0.00419006 -0.000832543 
C 28.9068 29.2033 5.3595 12.011 -0.000903379 0.00349468 0.00496956 
C 22.7228 28.2895 41.0813 12.011 0.00071056 -0.00299462 0.00810526 
C 0.170107 43.809 31.9207 12.011 -0.00497457 0.00445645 0.00135148 
C 9.29175 18.5985 41.4864 12.011 -0.0110643 0.00270558 -0.00441935 
C 49.6148 17.0592 21.6699 12.011 0.00429344 0.00710344 -0.00935783 
C 34.0659 13.3226 9.03916 12.011 0.00285404 0.00338301 0.00336201 
C 9.97564 21.2899 14.6268 12.011 -0.0115112 -0.00263865 0.00468099 
C 39.9513 23.424 34.8315 12.011 0.0116285 -0.00452879 0.0033328 
C 12.5222 51.0037 40.8539 12.011 0.00393394 0.00541131 0.000594212 
C 7.17317 3.37954 33.5383 12.011 0.00171874 0.00211895 -0.00196482 
C 0.159422 1.23767 33.3526 12.011 -0.00139183 -0.00110566 0.0156861 
C 50.8374 26.8624 19.8661 12.011 0.0033949 0.00726776 0.00783911 
C 28.0137 25.9943 26.5157 12.011 0.00179173 -0.00432664 -0.00279854 
C 31.0798 9.13659 5.6493 12.011 -0.0143147 0.00229255 -0.00498842 
C 33.6519 47.3997 4.98471 12.011 0.00207994 -0.000145357 -0.00365806 
C 47.8615 13.7925 21.0547 12.011 0.00636837 0.00653691 0.00203021 
C 47.0509 42.1649 49.6621 12.011 5.58938e-05 -0.00811432 0.00374268 
C 12.9138 10.6971 1.12885 12.011 -0.000156323 -0.00269008 -0.00188765 
C 38.2354 35.7603 9.59727 12.011 -0.000441893 0.00298427 -0.00357112 
C 4.83205 24.2822 30.3121 12.011 0.00769548 0.0083703 -0.00516668 
C 26.308 34.6484 26.7452 12.011 -0.00255008 0.013511 0.00511011 
C 10.6383 5.54921 44.0177 12.011 0.00484673 -0.00192392 0.00168057 
C 47.4329 20.5655 46.803 12.011 0.00225676 -0.00324558 -0.00108674 
C 13.8077 3.40016 23.0481 12.011 0.00242452 -0.00102704 0.00576622 
C 2.96178 12.4735 5.64368 12.011 -0.000260693 -0.00131618 0.000758762 
C 26.3668 32.6187 28.0661 12.011 -0.000517037 0.00191977 0.00366925 
C 4.24753 46.5165 32.6015 12.011 -0.00851013 -0.00795228 -0.000815251 
C 29.273 13.2436 44.3722 12.011 -0.00336119 -0.0055402 -0.00341392 
C 16.9086 40.0057 38.1626 12.011 0.00183465 -0.00766219 -0.00123632 
C 27.35 10.5678 4.15179 12.011 0.00123203 -0.000306331 -0.0006772 
C 22.3102 5.22877 8.12895 12.011 0.00261339 0.00146558 0.000657997 
C 9.19182 10.3636 30.2458 12.011 0.00131141 0.00116109 -0.00469158 
C 42.3574 42.9496 30.2583 12.011 -0.00497687 0.000618083 0.00598425 
C 23.5449 7.44706 21.5129 12.011 0.00278442 -0.000366753 0.000337363 
C 41.5349 21.7094 4.5099 12.011 0.0032776 -0.00829824 -0.00404154 
C 37.2739 5.14058 5.45564 12.011 -0.000388428 0.00585401 -0.00299067 
C 17.5586 46.5061 21.8109 12.011 0.000826169 -0.0142832 -0.000785403 
C 6.94542 11.8157 26.9528 12.011 -0.00091404 0.00228933 -0.00230738 
C 47.6587 30.2411 35.3976 12.011 -0.00117326 -0.00435375 -0.00308822 
C 24.6377 26.2977 36.935 12.011 0.0053318 -0.000156582 -0.00346359 
C 17.9151 30.5933 8.98209 12.011 -0.00155856 -0.00478518 0.00508581 
C 43.4956 33.625 0.507524 12.011 0.000341296 -0.00600158 0.00463208 
C 23.9778 32.6904 35.3943 12.011 0.000547884 -0.00109511 0.00324029 
C 37.9332 40.9346 39.843 12.011 -0.0011329 0.0100947 -0.000511259 
C 49.4714 49.0354 15.1053 12.011 0.00781907 -0.00537768 0.000483971 
C 35.6511 6.83026 0.250597 12.011 0.00136231 -0.00100477 -0.00163654 
C 44.5435 31.1537 23.5532 12.011 0.0047662 0.00331344 0.00186565 
C 49.3818 45.8774 4.32699 12.011 0.00161825 -0.00533216 0.00572299 
C 46.6389 8.15276 19.0939 12.011 -0.000305038 0.00081793 -0.0054135 
C 28.4431 49.3878 1.67045 12.011 -0.00272837 -0.00185917 -0.00164585 
C 40.2885 31.3243 49.6219 12.011 0.000187764 0.000784541 0.00484095 
C 46.8495 33.7341 32.8601 12.011 0.0018004 0.00216695 -0.00163839 
C 30.3501 15.884 47.0501 12.011 -0.00351948 -0.000484938 0.000406502 
C 8.5577 28.9622 48.2463 12.011 -0.00433088 0.00471584 0.00487282 
C 15.2621 36.0418 3.08846 12.011 0.00530352 -0.00329177 -0.00114884 
C 23.1414 37.3141 14.4878 12.011 0.00152384 -0.00388636 0.000587839 
C 39.2875 8.45817 44.6414 12.011 0.00167483 0.00428974 -0.00289955 
C 9.66661 47.9712 4.11979 12.011 0.00377837 0.0043629 -0.00373925 
C 38.6054 0.458294 9.45123 12.011 -0.00515156 0.00199082 -0.0041945 
C 36.7073 47.791 23.8333 12.011 -0.00323211 -0.000208894 -0.00248615 
C 42.5797 12.4956 20.6119 12.011 0.00496238 -0.0115436 -0.0058161 
C 12.4246 14.9021 37.2844 12.011 -0.000877009 0.00270412 0.00680029 
C 1.92618 24.8298 33.8353 12.011 -0.00226179 0.00603916 0.00897486 
C 17.459 27.9901 39.2341 12.011 -0.00249757 -0.00345625 -0.00258814 
C 22.4422 5.22974 6.76365 12.011 -0.00170652 -0.00132343 -0.000662884 
C 14.8964 3.39807 45.3703 12.011 0.00209814 0.00942217 0.00130896 
C 24.1299 39.9414 15.4313 12.011 0.00403854 -0.00774796 -0.00173252 
C 19.2111 38.4435 35.6984 12.011 0.000409287 0.00568298 0.000486461 
C 42.8619 19.8248 19.599 12.011 0.00670459 0.000409052 0.00366826 
C 50.5541 30.3045 12.1363 12.011 0.00143905 -0.00161237 -0.00869159 
C 43.2548 41.2325 34.8053 12.011 -0.00674928 -0.00296463 0.00191399 
C 38.0357 45.0251 4.11929 12.011 0.00278372 0.000206798 -0.00412404 
C 20.6234 49.9304 21.4745 12.011 0.00376145 -0.00314606 0.000313608 
C 14.5264 14.0855 3.23257 12.011 -0.00395457 0.00143935 0.00252781 
C 11.6777 17.0763 20.6785 12.011 0.00297922 -0.0096476 0.000422693 
C 40.3279 5.88975 50.5148 12.011 -0.00159797 0.000354517 -0.00429845 
C 38.6147 1.52246 5.36775 12.011 0.00394592 -0.00147638 0.00233879 
C 20.331 49.9765 4.30766 12.011 -0.00551776 0.00462207 0.00250837 
C 48.8062 24.7795 33.0057 12.011 0.00392288 -0.00259215 0.0131296 
C 50.5897 25.5942 25.7153 12.011 0.00834309 0.00377147 -0.00262488 
C 5.60398 48.8094 16.5938 12.011 -0.00608236 -0.0013241 0.00252874 
C 20.0011 39.2381 9.35969 12.011 0.00126627 -0.00138452 0.00130295 
C 23.3019 31.7491 36.2247 12.011 -0.00636961 0.00189071 0.000169731 
C 39.3177 12.6999 4.49429 12.011 0.00164969 0.00181895 -0.00295074 
C 39.3368 16.3939 19.4958 12.011 0.00451443 0.00458269 0.000870922 
C 14.2565 34.946 15.4586 12.011 -0.00110595 0.00473005 0.000643547 
C 50.7071 7.97971 16.1503 12.011 0.00811367 -0.0016545 -0.00198614 
C 16.7169 42.0039 1.47285 12.011 0.00132321 0.000148464 -0.00147921 
C 36.8772 27.6918 17.7797 12.011 -0.00228667 0.00514368 0.0114474 
C 49.8599 47.8207 30.9068 12.011 -0.00119666 0.00245051 0.00340982 
C 26.1498 10.6666 41.8724 12.011 0.00739457 -0.00244889 0.00124333 
C 9.89091 46.9858 41.1401 12.011 0.00436622 0.00604185 0.000222319 
C 6.75175 29.4335 8.92114 12.011 0.0033794 -0.00176616 0.000379879 
C 44.5892 29.4278 29.7339 12.011 -0.000477707 -0.000291465 0.00763066 
C 14.706 8.10019 3.81965 12.011 0.000514317 0.00225662 -0.0022528 
C 44.6664 32.6348 28.3585 12.011 0.00464664 -0.00852102 0.00196215 
C 11.6806 35.4655 27.4409 12.011 0.00335751 -0.00700226 0.0047546 
C 50.7384 44.0438 17.1394 12.011 -0.00239489 0.00433353 -0.00628124 
C 50.5029 45.2029 31.7619 12.011 -0.00414612 0.001934 0.00136732 
C 32.7746 34.1169 50.9016 12.011 0.00181895 -0.00252071 -0.00446928 
C 0.814269 24.8102 25.2132 12.011 -0.00489916 0.000147647 -0.00441385 
C 5.23795 33.5945 42.6163 12.011 -0.0025005 0.00613204 0.00115986 
C 33.1015 41.174 26.1172 12.011 -0.00167185 0.00446056 -0.00134255 
C 15.4698 12.5676 14.434 12.011 -0.0019448 -0.00256041 0.00187491 
C 46.0028 38.0562 12.3089 12.011 0.00189784 -0.000651469 0.0108405 
C 13.4979 7.41824 24.3433 12.011 0.000583908 -0.000629538 -9.4758e-05 
C 45.5418 41.7983 29.118 12.011 0.00655751 -0.00617921 0.00297271 
C 36.2842 32.5456 26.1128 12.011 0.0107561 0.000971963 -0.000173243 
C 5.05738 44.4285 3.11199 12.011 0.00306529 0.00624943 -0.00627649 
C 31.6163 39.2602 15.4586 12.011 0.00237039 0.00294663 -0.00363137 
C 17.5195 7.24323 16.633 12.011 -0.0014763 0.000591978 0.000424994 
C 27.6508 22.4551 7.84652 12.011 -0.000854002 -0.0026703 0.00466928 
C 24.371 14.3604 7.20558 12.011 0.00850212 -0.00559744 0.0032054 
C 38.8656 9.79501 22.5487 12.011 -0.000599148 -0.0031036 0.00200918 
C 22.0817 9.54892 0.944926 12.011 0.00131465 -0.00425465 -0.000150293 
C 24.1584 40.1766 26.7334 12.011 -0.00529855 0.00704777 0.000164827 
C 3.61578 11.0601 44.8859 12.011 -0.00703664 -8.76238e-05 0.00329932 
C 17.4701 4.68389 10.4394 12.011 0.00051635 0.00938945 0.00201637 
C 49.5028 2.21818 50.3239 12.011 0.00482185 -0.00625511 -0.00313527 
C 43.3352 13.9398 0.0256724 12.011 -0.00198748 0.00211074 -0.00120607 
C 10.2056 24.0648 23.0885 12.011 -0.00405917 -0.00188657 -0.00393494 
C 12.1301 5.57423 12.6482 12.011 0.00395485 -0.00406282 0.000305992 
C 35.5333 45.3637 20.9095 12.011 -0.00473625 -0.001108 0.00131578 
C 37.1356 44.3061 37.9731 12.011 -0.0034358 0.00671724 0.0051201 
C 42.1834 24.9999 50.5119 12.011 -0.00504745 0.00123579 -0.00162793 
C 27.6147 21.2509 33.8301 12.011 0.00185022 -0.00550299 -0.00730086 
C 47.669 16.5549 40.8773 12.011 -0.008109 0.00401192 -0.0013089 
C 48.2316 31.9003 33.7427 12.011 -0.000885051 -0.00564338 0.00102547 
C 8.00848 25.3365 23.1999 12.011 -0.00249569 0.00953604 0.000303142 
C 24.8794 4.62767 0.590733 12.011 -0.00176114 0.00260896 -0.00305346 
C 17.2836 44.7077 15.1338 12.011 -0.00455305 0.00286871 0.000142026 
C 26.6665 27.231 24.3064 12.011 -0.00253011 0.00352134 0.00241617 
C 14.5291 39.8301 23.8988 12.011 0.00295921 -0.00574273 -0.00303956 
C 4.40328 2.84796 20.0542 12.011 -0.000224579 0.00120779 0.00337814 
C 7.30243 37.1861 7.64226 12.011 -0.00209148 0.00703988 0.000986523 
C 23.0367 14.9523 4.94566 12.011 8.60044e-05 -0.00112788 -0.00177169 
C 23.6156 11.1861 50.2574 12.011 0.0026409 0.00436191 0.00294048 
C 11.422 25.2454 16.6009 12.011 -0.000544985 -0.00711235 -0.00268947 
C 36.079 36.3744 40.7208 12.011 -0.00575138 -0.00207164 -0.000649415 
C 21.2119 3.75655 45.0472 12.011 0.00242934 0.0121737 0.013355 
C 39.3276 28.3135 9.564 12.011 0.00792906 -0.000941419 -6.88781e-05 
C 27.5575 21.9799 9.17387 12.011 -0.00961834 0.00260897 0.000160164 
C 31.4803 16.7085 0.120419 12.011 0.00630712 -0.00477887 -0.00151426 
C 5.65986 1.6866 43.1726 12.011 0.00353016 -0.00212772 -0.00914022 
C 37.7817 0.550529 26.7152 12.011 0.00424772 0.0058243 -0.00034854 
C 36.5972 14.1354 15.5093 12.011 0.0041117 0.0025503 0.000179244 
C 21.0987 39.038 29.0791 12.011 0.00297327 -0.00298521 -0.00137149 
C 31.1607 37.2083 6.39011 12.011 -0.00259522 -0.00149894 -0.000452517 
C 47.676 3.4072 44.1021 12.011 0.00136331 0.00471444 0.00771334 
C 5.81939 41.6781 11.3734 12.011 -0.00366117 0.00662063 -0.000848363 
C 28.4801 30.9581 29.0969 12.011 -0.00334732 0.00292478 -0.00446885 
C 12.2961 49.9594 15.9 12.011 -0.00417195 0.000500847 0.00241697 
C 50.9281 15.114 24.5785 12.011 0.00585533 0.00273125 -0.00490341 
C 18.536 3.22901 0.773087 12.011 0.00682377 -0.00419218 -0.00187078 
C 10.6014 4.12046 43.8255 12.011 -0.00549802 -0.00129951 0.00440252 
C 40.5636 31.5841 13.7806 12.011 -0.00392489 0.00158978 -0.00776207 
C 48.5892 6.09333 39.3319 12.011 -0.00243181 -0.00801121 -0.00157687 
C 37.2009 26.4889 40.371 12.011 0.000819971 0.0105691 0.00024183 
C 30.1703 2.31143 40.4723 12.011 0.00255781 -0.00741451 -9.11899e-06 
C 18.9285 17.6135 18.9029 12.011 0.00279898 -0.000429371 0.000935694 
C 34.1282 11.1707 18.1 12.011 0.00797135 0.00419727 0.000681576 
C 9.89233 45.1968 4.46232 12.011 0.00175048 0.0035396 0.00589855 
C 11.7704 38.0116 5.86646 12.011 0.000884377 -0.00967205 -0.00779785 
C 0.515662 19.6572 40.9066 12.011 -0.00609314 0.00469887 -0.00403397 
C 47.9329 27.1502 15.0285 12.011 2.18402e-05 -0.00399665 0.00846418 
C 31.094 16.3723 24.1681 12.011 -0.00334154 0.00428135 0.00549617 
C 28.1127 22.6365 19.8695 12.011 0.000254778 -0.00106036 0.00100502 
C 44.9218 49.9097 46.9464 12.011 -0.00930486 -0.00239971 0.000786912 
C 24.4929 47.5248 2.76643 12.011 -0.00486529 -0.00447173 0.00669268 
C 33.8294 19.1293 30.7479 12.011 -0.00844683 0.000658753 -0.00114001 
C 2.55109 33.4581 9.90201 12.011 -0.00262991 -0.00859617 -0.00254139 
C 5.80619 13.5952 43.1922 12.011 0.000320181 0.00889121 -0.00109469 
C 45.5148 41.5008 25.2999 12.011 -0.000710386 0.00403298 -0.0023817 
C 46.4911 2.93057 17.3612 12.011 0.00450048 -0.00321159 -0.00577206 
C 42.4308 46.065 34.1566 12.011 -0.00114434 -0.00709755 -0.000372678 
C 43.223 16.3889 19.3849 12.011 -0.00934339 -0.00440446 -0.00210357 
C 48.9437 44.3135 23.0507 12.011 -0.00679153 -0.00105555 -0.000131992 
C 30.0285 20.579 0.481871 12.011 -0.00148882 -0.011132 -0.00570062 
C 19.1995 43.6222 13.0637 12.011 -0.000927866 -0.00512397 0.00460056 
C 46.0698 5.68417 18.2774 12.011 -0.00372518 -0.00039778 0.00716133 
C 50.6798 23.3065 34.1268 12.011 0.00442116 0.000255038 0.00129618 
C 24.6149 47.5168 12.0456 12.011 -0.000609782 -0.00188856 0.00266739 
C 46.9365 33.4617 14.485 12.011 0.000105372 -0.00121703 -0.00628224 
C 36.8123 13.1232 48.1163 12.011 -0.00145756 0.00436051 0.00445676 
C 14.9236 27.6595 9.70986 12.011 0.00196433 0.00612255 -0.00231927 
C 24.1028 40.7906 46.7135 12.011 -0.00159924 -0.0012112 -0.00433356 
C 30.7862 39.9699 38.8062 12.011 0.00421597 -0.000993334 0.00864667 
C 2.49991 23.9657 1.89225 12.011 -0.00147085 -0.00169911 0.000837048 
C 1.41774 2.01527 23.2712 12.011 -0.000568333 -0.00798719 -0.00469375 
C 31.1836 24.5909 20.4114 12.011 -0.00570382 0.00620129 -0.000521662 
C 32.2151 7.32505 31.9233 12.011 -0.0047274 -0.00448617 -0.00196677 
C 37.7738 14.7479 18.2536 12.011 0.00157224 -0.000266294 -0.00389867 
C 7.26862 17.1976 25.4582 12.011 9.42589e-06 -0.00727273 -0.0025117 
C 18.6609 47.6825 44.177 12.011 -0.00209582 0.0115498 -0.00765991 
C 25.188 3.28555 16.8831 12.011 -0.000236725 -0.00273606 -0.00213178 
C 22.8813 45.3104 40.691 12.011 0.00427338 -0.000602094 -0.000540097 
C 35.8924 46.6434 4.15431 12.011 -0.000337959 0.0047917 -0.00215385 
C 17.0225 8.41928 50.0077 12.011 0.00180221 -0.00117152 -0.0031564 
C 10.823 20.3906 6.65052 12.011 0.00116977 0.000894995 0.000619173 
C 37.2002 14.0004 38.1456 12.011 -0.00113951 -0.00821645 -0.00233595 
C 32.0806 22.4189 38.4696 12.011 -0.00445725 0.00239625 0.000700216 
C 24.7251 34.4336 42.2361 12.011 0.00365828 -0.00976617 0.000688544 
C 35.3274 22.7646 16.9512 12.011 0.0119556 -0.00671815 0.00727853 
C 40.8219 37.9529 27.4968 12.011 -0.0142576 -0.00172286 0.00147937 
C 28.3654 47.2597 21.4878 12.011 -0.00124486 0.00106411 -0.0120504 
C 14.9883 41.6094 50.8031 12.011 -0.00166329 0.00941555 -0.00247555 
C 17.8422 43.6295 12.7953 12.011 0.00419162 -0.00347027 -0.00304013 
C 9.30626 23.952 26.3514 12.011 -0.00300723 -0.00100892 0.00199864 
C 30.9923 7.10289 29.8121 12.011 -0.000603531 -0.000191063 -0.00550432 
C 20.4981 21.3387 36.7973 12.011 -0.00479889 -0.00103398 -0.00158951 
C 39.75 46.8749 25.9195 12.011 0.0052318 0.00144469 -0.00287558 
C 5.40512 25.87 12.1517 12.011 -0.00658836 0.0112325 -0.000168869 
C 49.6592 43.3284 35.7708 12.011 0.000667042 -0.00252016 -0.00528352 
C 43.7156 37.6984 33.9976 12.011 0.00482843 -0.00164872 -0.000598984 
C 47.193 39.6605 6.53992 12.011 -0.00400086 -0.00253489 -0.00433886 
C 12.4644 27.6793 35.621 12.011 -0.000380576 -0.000220008 0.00139848 
C 11.5716 25.2272 35.5869 12.011 0.000593287 0.00243293 0.000263362 
C 50.1952 41.2703 14.8925 12.011 -0.00151643 0.00134177 0.00301711 
C 39.8771 24.9634 50.2566 12.011 0.00121616 0.00466953 0.00365665 
C 9.87363 10.8005 5.42983 12.011 -0.00165545 0.00081004 -0.00124567 
C 18.9005 47.7632 46.7605 12.011 -0.00436003 -0.000425686 0.000445737 
C 12.3129 33.1951 30.3492 12.011 -0.00606298 0.00112579 -0.00135964 
C 11.6189 11.3463 1.41729 12.011 -0.00243719 -0.00126168 0.00219605 
C 4.52254 35.5499 41.5504 12.011 0.0053808 -0.00525525 -0.00975047 
C 17.9311 42.5 1.95574 12.011 -0.00423781 -0.00355292 0.00271049 
C 49.8514 11.5183 8.11511 12.011 0.00225943 0.00544966 0.000266596 
C 21.0452 43.6922 14.614 12.011 0.00974566 -0.0066135 0.00138406 
C 14.8586 10.5529 23.0374 12.011 -0.00180846 -0.00327514 -0.000607194 
C 36.7986 22.9973 3.08863 12.011 0.00213506 -0.00121513 0.0018061 
C 27.0202 38.7723 45.1661 12.011 0.00278924 0.00180527 0.0015729 
C 8.21211 5.47012 44.7222 12.011 0.00174247 -0.00206153 0.00107827 
C 29.0877 14.0429 3.07473 12.011 0.000980032 -0.000699779 0.000451594 
C 32.886 40.9735 13.0967 12.011 0.000611576 0.00448592 0.00376737 
C 1.80518 44.092 20.6274 12.011 0.000805208 0.00657723 -0.000758218 
C 20.3167 12.2163 14.794 12.011 -0.0033552 -0.00137799 0.00164214 
C 0.0122917 30.3409 33.5263 12.011 -0.00284957 -0.00217435 -0.000461059 
C 40.6186 50.9259 16.9001 12.011 -0.00156832 0.00106472 -0.00334497 
C 28.1633 49.7787 39.9177 12.011 0.00784456 0.0049307 0.00509473 
C 2.33096 49.7721 4.48506 12.011 0.00402826 0.00283828 -0.00483018 
C 31.2296 43.516 4.93395 12.011 0.000429698 0.00484415 0.00497338 
C 44.098 9.02991 43.7071 12.011 0.00445426 -0.000637953 0.00167713 
C 32.6359 41.2658 28.9967 12.011 -0.00598682 -0.00175554 -0.000576132 
C 23.745 40.5229 28.0668 12.011 -0.0250023 0.00523834 0.0019651 
C 50.0316 25.7065 17.9006 12.011 0.00115201 0.00454924 -0.0102073 
C 5.19902 27.6345 49.0535 12.011 -0.00331869 -0.0114074 -0.0029136 
C 35.5562 22.5836 36.9955 12.011 -1.62275e-05 4.80114e-05 0.00211617 
C 6.17272 47.1802 14.4311 12.011 0.00377201 -0.00156673 0.00152719 
C 16.5868 8.56733 0.314092 12.011 0.000975236 0.00280179 0.008577 
C 13.463 34.1367 0.76579 12.011 -0.00575483 0.00101519 0.00213812 
C 40.5279 25.3379 6.48771 12.011 -0.00834679 0.00909363 -0.00110943 
C 27.7304 13.7843 3.39827 12.011 -0.00447544 0.00142569 -0.00623555 
C 21.6439 23.9678 5.64099 12.011 0.00290375 -0.00114468 -0.00210591 
C 24.2848 0.765621 37.7017 12.011 -0.00104783 0.00255004 -0.00621032 
C 35.3795 4.89042 46.3617 12.011 -0.00164063 -0.0013898 0.00126505 
C 34.7989 38.0832 32.7871 12.011 0.00106853 -0.00230443 -0.00294569 
C 35.5647 5.56299 23.3594 12.011 0.00241194 -0.00758749 0.00284234 
C 46.1208 35.2406 32.6629 12.011 -0.00654612 -0.00445077 0.00618717 
C 3.67502 11.1539 13.4786 12.011 -7.2002e-05 0.011673 -0.00325594 
C 29.245 36.0385 17.1536 12.011 -0.0013234 -0.00631026 0.00507353 
C 38.2053 28.5775 19.5802 12.011 0.00300518 0.00485934 0.000551654 
C 1.52629 14.6922 8.40354 12.011 -0.00145476 0.0015193 -8.02829e-05 
C 5.33045 3.79231 20.4901 12.011 -0.00175276 -0.00186294 -0.0026776 
C 23.5903 3.77377 33.6011 12.011 -0.00403003 0.000507567 0.00339418 
C 21.2349 8.3155 31.6651 12.011 -0.00521648 0.00322055 -0.000564076 
C 17.9993 15.9378 44.958 12.011 0.000385161 -0.00514744 0.00211935 
C 38.6868 35.8591 14.4669 12.011 0.0014881 -0.00203764 -9.14842e-05 
C 24.9932 49.9474 29.5268 12.011 0.00161194 -0.00669959 -0.00282398 
C 9.46818 46.8058 16.238 12.011 -0.0034737 -0.00421988 -0.00384144 
C 39.2339 40.5164 40.1407 12.011 0.000497197 0.00817113 -0.00628897 
C 43.3896 36.344 4.27253 12.011 0.0025781 -0.00519989 -2.27008e-05 
C 45.551 49.8648 0.396455 12.011 0.0091513 -0.00635429 0.00130905 
C 41.7526 38.0619 15.0009 12.011 -0.00419013 0.00518285 -0.00144977 
C 31.5377 26.166 6.61895 12.011 0.0034548 0.00760247 0.00375874 
C 32.4698 21.3284 0.692018 12.011 -0.00683431 0.00206421 -0.00332361 
C 17.1881 32.6019 7.13904 12.011 0.00182809 -0.00093305 0.000662141 
C 25.3287 5.78518 50.7871 12.011 0.00361138 0.00438328 -0.00448296 
C 14.73 21.5274 40.4881 12.011 0.00458156 0.0041598 -0.0010571 
C 1.28421 19.6439 13.4609 12.011 0.00120459 -0.00189016 0.00482808 
C 38.4785 7.37944 40.799 12.011 0.00371748 -0.00687656 -0.00416602 
C 35.6529 18.6477 38.5229 12.011 -0.000733139 -0.00571703 0.0066151 
C 47.1623 26.329 24.4658 12.011 -0.000908236 -0.0015891 -0.00297811 
C 8.89101 49.1306 41.8077 12.011 -5.29265e-05 0.0025594 -0.00712736 
C 21.9715 18.6135 49.3762 12.011 -0.00250797 -0.00477053 -0.000411665 
C 13.1348 18.1476 33.4499 12.011 -0.00910887 0.0011385 -0.00102388 
C 25.8694 6.58035 22.8037 12.011 -0.00465785 0.00319878 -0.0021112 
C 28.7939 49.7009 3.06889 12.011 -0.00305422 0.000761781 -0.00195463 
C 31.134 31.3508 10.1564 12.011 0.00440569 0.00127839 -0.00167838 
C 28.8014 7.36782 47.5653 12.011 0.000222159 0.00268484 -0.00545727 
C 10.5983 33.5257 7.7413 12.011 -4.60737e-05 -0.00836336 0.00358867 
C 23.2853 34.9456 21.5799 12.011 -0.00143571 0.00135986 -0.00196659 
C 0.155529 7.54268 0.767177 12.011 -0.00850602 0.00125826 0.00478999 
C 23.4852 22.8227 10.9714 12.011 -0.00481814 -0.0049013 -0.00480314 
C 22.0143 1.38617 43.3402 12.011 -0.00023841 0.00139374 0.00372304 
C 13.8631 29.024 17.8485 12.011 -0.0016774 -0.000837772 -0.0026543 
C 39.8922 4.23355 28.9638 12.011 -0.000201706 0.0022426 0.00182298 
C 41.3165 3.8747 28.9752 12.011 -0.00979548 0.000416135 0.000618137 
C 6.12655 49.1185 21.4208 12.011 0.00976429 0.00128494 0.00458 
C 22.6525 31.511 26.9849 12.011 0.00522783 -0.00585923 0.00588992 
C 45.0068 19.6846 34.7643 12.011 0.00157994 0.00656311 -0.00613031 
C 45.2635 4.09792 12.6035 12.011 0.00384312 -0.000412011 0.000126509 
C 35.8443 38.0568 35.0344 12.011 0.00432223 0.00550051 -0.000730882 
C 15.1432 37.9843 41.6154 12.011 -0.00021375 -0.0080535 -0.000251462 
C 3.6041 28.1635 44.0539 12.011 -0.00653926 0.00628075 -0.00350238 
C 49.2897 36.3819 11.4652 12.011 -4.24396e-05 0.00233424 0.00288165 
C 35.1462 46.0537 6.3321 12.011 -0.00541792 0.000622961 0.00631319 
C 16.5526 30.8474 8.69161 12.011 0.0038931 -0.000103327 -0.00740223 
C 23.8621 17.1806 30.7051 12.011 0.000270878 -0.00378673 -0.00500838 
C 43.4092 26.7691 26.2692 12.011 0.00270742 0.00469108 0.00649125 
C 12.472 6.47884 26.2827 12.011 -0.000338137 -0.00298369 0.00465172 
C 51.0197 10.5981 6.07049 12.011 -0.00639199 -0.00456944 -0.000383418 
C 24.0114 32.2081 12.1583 12.011 -0.00128444 0.00569116 -0.00168763 
C 14.4008 41.862 49.5239 12.011 0.00609445 0.000270249 0.000307356 
C 17.384 21.1806 24.1121 12.011 -0.00927668 0.000375865 0.00749045 
C 17.368 5.51288 4.1469 12.011 -0.00306645 0.00266556 -0.00141749 
C 16.2931 47.4617 43.3291 12.011 0.00721061 -0.000421374 -0.00639485 
C 33.6674 17.3736 0.437691 12.011 0.00505949 -0.00774889 0.00126144 
C 14.3625 25.3629 10.1741 12.011 -7.70459e-05 -0.000471696 0.00184023 
C 30.3397 6.99443 39.4114 12.011 0.00785273 0.00157525 0.00464557 
C 22.7642 20.0907 32.2612 12.011 0.00679866 -0.00548609 -0.00286926 
C 33.4772 34.7149 4.98746 12.011 0.000860873 0.00355125 -0.00952364 
C 10.276 4.62336 14.3977 12.011 -0.00952887 -0.00193248 0.00201026 
C 37.5963 22.5029 47.9115 12.011 8.02714e-05 0.00190538 0.00215568 
C 47.0797 45.3916 4.51801 12.011 -0.00312235 -0.00447396 -0.00519274 
C 40.6315 13.6963 20.2035 12.011 -0.00394064 -0.00235057 -0.0018854 
C 22.8509 16.3322 39.326 12.011 0.00509656 -0.00639683 0.00319979 
C 2.59305 28.6224 22.4412 12.011 0.00236718 -0.00515431 -0.00409881 
C 15.0468 35.9048 12.9203 12.011 -0.00576382 -6.22708e-05 -0.00628927 
C 0.496199 30.8889 24.4966 12.011 -0.00392782 0.00778805 -0.00115732 
C 7.71902 15.4893 27.1478 12.011 -0.00850049 0.00183099 -0.00534206 
C 47.6918 16.5807 3.14515 12.011 -0.00337643 0.00355781 -0.00793473 
C 23.1613 36.1968 25.5057 12.011 0.000965423 -0.00137204 0.00455854 
C 18.9375 47.873 37.4437 12.011 -0.0037503 0.0018148 0.00126746 
C 15.5393 45.1568 25.494 12.011 -0.000308267 -0.00126793 0.00362948 
C 25.5766 0.464204 50.7106 12.011 0.00562572 0.00796343 -0.00181485 
C 13.8944 46.9359 46.1615 12.011 -0.000272469 -0.0025629 0.00209299 
C 29.7397 41.6666 2.05081 12.011 0.00102503 -0.00511382 0.00204533 
C 50.3897 41.1539 48.8986 12.011 -0.000233829 0.00452689 0.00474154 
C 19.7145 50.5231 13.7534 12.011 0.00555843 -0.00891608 -0.00479861 
C 47.0325 43.8611 35.6209 12.011 0.00458378 0.00408041 -0.00074622 
C 28.5754 35.1325 10.9503 12.011 0.000108117 0.00048317 0.00413667 
C 10.2001 15.7458 36.7769 12.011 0.000193155 0.00391012 0.00334399 
C 24.4966 7.75577 10.3767 12.011 -0.00793025 0.0026463 0.0024004 
C 8.61875 6.84867 9.85402 12.011 -0.00635488 -0.00397899 -0.000394327 
C 16.6542 24.9168 11.6467 12.011 0.00129273 0.00182967 -0.00751322 
C 14.4969 39.9493 4.34719 12.011 -0.00522981 -0.00704244 0.00384628 
C 5.72159 25.2717 49.067 12.011 0.00442373 -0.00952702 -0.0121352 
C 13.3715 46.1066 41.2666 12.011 0.00425044 0.00152234 0.00152408 
C 12.1794 48.8104 8.42199 12.011 0.00559583 0.00468976 0.00533073 
C 37.6992 6.52167 35.3161 12.011 0.00327815 0.00266574 0.00164377 
C 25.1669 14.8382 35.0027 12.011 0.0112162 -0.00785267 0.0117283 
C 17.4161 20.2853 21.6857 12.011 -0.00187201 -0.00155929 -0.00361107 
C 28.8562 1.31074 17.9385 12.011 0.00892511 0.00365148 0.00482293 
C 31.1108 44.0391 15.3801 12.011 -0.00552908 0.00266542 0.00228573 
C 22.3501 42.6725 35.1522 12.011 -0.00416882 -0.00244926 -0.00247619 
C 11.8538 27.124 20.5574 12.011 -0.00029154 -0.00122322 -0.00662596 
C 45.5228 30.7038 27.328 12.011 0.0102338 -0.00136365 0.000685584 
C 14.1744 14.53 40.5188 12.011 -0.00255572 -0.00264546 0.000355705 
C 16.2585 42.0995 0.131791 12.011 0.00633172 0.0060963 0.00707799 
C 12.3839 27.1706 2.96162 12.011 0.00376181 0.00157237 0.000612854 
C 47.044 37.5593 32.179 12.011 -0.00655009 0.00365758 0.00266439 
C 10.2953 38.7719 28.2266 12.011 -0.000548584 0.00191906 0.00367702 
C 1.61293 18.3127 25.2758 12.011 0.00664799 0.000140827 -0.0047396 
C 33.2499 12.1706 50.3654 12.011 -0.00315794 -0.00546074 0.00153957 
C 10.973 11.5081 41.7908 12.011 0.00363246 0.000148806 0.00832335 
C 47.786 44.1772 4.59658 12.011 -0.0061762 -0.00118171 -0.012249 
C 14.2312 49.5451 14.3476 12.011 -0.000112175 -0.00616076 -0.00572849 
C 34.7269 2.55675 15.9905 12.011 -0.00565583 0.00191533 0.00415495 
C 4.52804 28.6326 42.9462 12.011 -0.0032292 0.0018327 0.00151977 
C 19.182 29.4696 10.8547 12.011 -0.00116383 0.00118494 0.00410506 
C 41.6123 48.2971 5.83938 12.011 0.000838892 0.000125618 -0.00193437 
C 35.5574 25.0006 44.8428 12.011 -0.000575008 0.00169846 -0.00658851 
C 47.5099 18.2688 6.48181 12.011 0.00231362 0.00862652 -0.00121956 
C 50.4615 46.6384 4.41858 12.011 0.00359047 0.000801202 -2.47927e-05 
C 46.2461 21.3036 12.1307 12.011 0.00420188 -0.00786697 0.00441601 
C 42.3101 23.7207 5.71995 12.011 0.00214652 0.00197604 -0.00799964 
C 35.6481 35.8366 36.069 12.011 -0.00347748 -0.00347878 -0.00508947 
C 8.52986 32.5445 21.1973 12.011 0.00466797 -0.00418727 0.000801469 
C 6.96527 22.1131 11.3503 12.011 0.00171024 0.00408732 0.00445381 
C 41.3539 10.3316 27.2541 12.011 0.000416876 0.00277215 0.00136143 
C 0.973426 14.3466 27.1416 12.011 0.00545482 -0.000112178 -0.00238645 
C 11.6516 47.1625 48.558 12.011 0.000556395 -0.00748194 -0.00113171 
C 11.2475 10.3111 42.5244 12.011 -0.00366977 0.0116476 -0.00141754 
C 36.8579 26.4259 18.3841 12.011 -0.00576626 -0.00382092 0.00568614 
C 50.3015 22.906 39.6082 12.011 6.38513e-05 0.00606499 0.000750216 
C 3.30355 5.64463 22.9928 12.011 0.00167734 -0.00129085 0.00312229 
C 36.5941 14.258 47.3245 12.011 0.00360248 0.00301514 0.00826542 
C 10.118 37.7169 30.7665 12.011 -0.000299205 0.0033329 -0.00491791 
C 15.4083 12.6911 22.5483 12.011 -0.0047755 0.00288973 0.00775796 
C 20.1565 33.7558 16.1849 12.011 -0.00123351 -0.00258748 -0.0021673 
C 26.1618 43.9185 4.21572 12.011 0.00107993 -0.0016431 -0.00460487 
C 19.5341 43.2726 3.68056 12.011 0.00490068 0.0056123 -0.00412053 
C 44.686 41.1655 34.4283 12.011 0.00266129 0.00676623 0.000838647 
C 23.2013 33.54 5.95723 12.011 0.00173769 -0.000912568 0.00683883 
C 17.3336 3.21481 44.4096 12.011 0.00467485 0.00662682 0.00960465 
C 32.9206 27.1147 9.83305 12.011 0.00274827 -0.00787966 0.00452381 
C 10.3143 34.8263 7.26545 12.011 -0.00305966 -9.20623e-05 -0.00221827 
C 46.0786 32.9868 16.7493 12.011 -0.000525315 -0.00840789 -0.00227704 
C 25.5714 45.1594 7.71796 12.011 0.000450159 -0.00206349 0.00694883 
C 32.5092 40.9076 35.6312 12.011 0.000862308 0.00534695 -0.00512044 
C 37.7689 18.2088 43.3999 12.011 0.00250373 0.000157988 6.77196e-06 
C 3.91717 28.3138 22.3445 12.011 0.0025174 0.00121105 0.0005644 
C 3.59623 23.6381 39.3695 12.011 -0.000986564 0.00524786 -0.00390688 
C 28.6161 23.3361 7.40705 12.011 -0.0036472 0.00480892 -0.00135853 
C 0.339388 35.8423 10.3073 12.011 -0.00353201 -0.00124095 -0.0051332 
C 34.6685 20.0364 26.1717 12.011 0.00641049 0.00263115 0.00211632 
C 6.60864 12.0446 1.08904 12.011 0.0040435 -0.00212812 0.000688124 
C 5.15719 21.5592 9.93961 12.011 -0.00590352 0.00244791 -0.00112439 
C 1.35418 5.02739 42.1097 12.011 0.00500911 -0.00336544 -0.00617736 
C 3.75498 7.44288 36.3824 12.011 0.00205287 -0.00217626 0.00162682 
C 37.4889 3.36643 7.23285 12.011 -0.00533705 -0.00626481 0.000562479 
C 18.8522 42.7921 0.966087 12.011 0.00339653 0.00395697 0.000477871 
C 42.2356 40.5096 30.0594 12.011 -0.00117887 -0.00703143 0.0024052 
C 30.9479 24.842 4.78661 12.011 0.00258878 -0.0044481 0.0119293 
C 28.4813 35.0905 17.9229 12.011 -0.00537907 -0.00129829 -0.0014969 
C 25.6944 31.6662 30.7264 12.011 0.00476364 -0.00323879 -0.00233974 
C 39.5805 20.8447 17.8262 12.011 0.000357489 0.00438651 0.00891111 
C 29.4569 33.9501 33.3608 12.011 -0.000765825 0.0145515 0.00152723 
C 6.48026 4.02734 1.57521 12.011 0.00265917 0.00281797 0.00109364 
C 6.64161 3.91229 20.023 12.011 -0.0057626 0.00341198 -0.00290966 
C 15.0833 29.5728 50.3795 12.011 0.00768272 0.00382697 0.000398716 
C 13.7621 42.8418 12.1459 12.011 -0.000881833 -0.00244024 -0.00193117 
C 5.5086 49.3291 1.86739 12.011 0.00371212 -0.00323266 0.00220111 
C 39.5533 27.7977 21.9863 12.011 0.00031366 -0.0021919 -0.00291282 
C 23.1284 22.0009 1.34686 12.011 0.00116194 0.0041505 -0.00556299 
C 20.0431 8.87491 31.3212 12.011 -0.0105412 -0.00134117 3.0065e-05 
C 43.2624 12.8859 14.4681 12.011 0.00229225 0.00460444 0.00451404 
C 0.714375 46.3812 3.87994 12.011 0.000260967 0.0029334 0.000114787 
C 23.3621 18.9184 26.2841 12.011 0.0137823 0.00515338 -0.00349229 
C 5.24998 21.5738 48.6616 12.011 0.000388842 -0.00215136 -0.0101251 
C 30.2067 1.22272 25.3305 12.011 0.0061482 0.000535366 0.000707238 
C 3.82179 39.4217 24.7184 12.011 0.000968039 -0.00735385 0.00156591 
C 31.3239 22.8028 23.6616 12.011 0.00545092 0.00321911 0.00214132 
C 8.86852 13.4843 48.0567 12.011 -0.00197548 0.00171515 0.000552852 
C 30.8616 10.2451 3.10624 12.011 -0.0086184 0.00122425 -0.00122132 
C 1.08253 41.1678 10.4917 12.011 -0.000959925 -0.00538652 -0.000713879 
C 11.1971 35.1368 31.1905 12.011 0.00475663 -0.00634327 -0.00565482 
C 0.951625 26.4185 27.5793 12.011 -0.00774983 0.000633692 -0.00460223 
C 17.6159 17.9345 20.9667 12.011 -0.00672664 -0.00364434 0.00361969 
C 23.1909 19.0855 49.9656 12.011 0.00573572 0.00115488 -0.0045663 
C 26.8289 25.7563 50.5677 12.011 -0.01601 0.00642062 0.00166512 
C 40.135 11.2341 2.86974 12.011 -0.0059584 -0.00447973 -0.00550832 
C 0.16919 15.7253 10.483 12.011 -0.00199298 0.00646837 -0.00148363 
C 10.436 43.7234 31.4419 12.011 -0.0016996 -0.00204755 0.00531524 
C 13.9922 29.3859 15.2919 12.011 -0.00380614 -0.00258486 -0.000522715 
C 26.7189 17.6838 37.8581 12.011 -0.00194797 -0.00695713 0.00471496 
C 11.921 16.5742 18.3153 12.011 0.000387194 -0.00160363 -0.00596547 
C 26.0817 8.86778 23.8464 12.011 -0.00229722 0.00509571 0.000117038 
C 36.1611 22.8959 43.8045 12.011 -0.0035095 -0.00601163 -0.00258925 
C 12.5241 46.2628 35.1764 12.011 -0.000298351 0.00135322 0.000249324 
C 28.0199 26.5383 50.3654 12.011 0.00151532 -0.00333554 -0.0126335 
C 25.8542 0.998481 8.82973 12.011 -0.00126094 -0.00606725 0.000521935 
C 1.44336 21.0842 42.7773 12.011 -0.00254843 0.00157204 -0.000392606 
C 46.1769 46.6905 47.7393 12.011 -0.00598403 -1.93526e-06 -0.00466991 
C 16.6946 37.5412 36.9898 12.011 0.000520574 -0.00295803 0.0010567 
C 9.42267 0.427118 7.73244 12.011 -0.000665376 -0.00893278 0.00227086 
C 49.4753 24.9241 23.6453 12.011 0.00248181 -0.000969356 0.00252361 
C 7.56705 2.97036 19.3833 12.011 -0.0086109 -0.00678957 0.000469738 
C 19.4407 23.2318 35.1274 12.011 0.00280655 0.00868254 -0.00814518 
C 35.2224 48.8972 47.8491 12.011 -0.00191959 0.00903885 -0.00195522 
C 28.8533 14.3124 21.8609 12.011 -0.00132701 -0.00607232 0.000447679 
C 5.71989 4.20292 44.3908 12.011 -0.00114681 -0.0022084 -0.00310763 
C 34.1872 33.5474 13.6462 12.011 0.00579024 0.00187095 0.00528118 
C 39.3268 20.0151 25.8878 12.011 -0.00287891 0.00628195 0.00226324 
C 35.092 41.4952 44.4165 12.011 -0.00255584 0.000874899 -0.00534215 
C 26.5734 23.4481 16.4756 12.011 -0.00429778 0.00585966 -0.00166319 
C 17.6537 22.3512 18.5431 12.011 -0.00528915 0.00299161 -0.00159095 
C 47.1805 28.2766 37.0489 12.011 0.00113409 -0.00468537 -4.15063e-05 
C 44.826 11.4593 27.6095 12.011 0.00609724 -0.00211661 0.00657525 
C 25.8877 40.7363 22.1256 12.011 0.00249079 -0.00198521 0.00455574 
C 43.0988 13.5696 28.1395 12.011 0.00156096 -0.00129088 -0.0087086 
C 5.70991 47.1965 49.0953 12.011 -0.00841552 -0.00485997 -0.00531579 
C 35.2042 35.3057 41.1914 12.011 0.00204848 -0.0062235 0.00647432 
C 30.8532 7.10026 44.2688 12.011 0.00380571 0.00164867 0.00477961 
C 36.7561 19.8844 22.5346 12.011 0.00257903 -0.000240768 -0.00539308 
C 9.67355 37.2822 16.594 12.011 0.0052434 -0.00100419 0.000221874 
C 19.7314 45.1749 34.8568 12.011 -0.00128552 -3.66586e-06 -0.0059789 
C 44.5421 40.3642 25.2065 12.011 0.00294682 -0.000162481 -0.00494338 
C 10.5029 47.5288 5.20729 12.011 -0.00378298 -0.0021118 -0.00418269 
C 3.15121 34.0794 13.7218 12.011 -0.00721766 0.00151797 -0.00121118 
C 30.7686 2.93413 19.3701 12.011 0.00558344 -0.000970705 0.000484504 
C 34.939 5.21664 16.8825 12.011 -0.00232953 0.00397395 -0.00123802 
C 16.0086 34.7596 36.1118 12.011 -0.00178382 0.00389052 0.00149521 
C 39.2097 44.2761 43.3858 12.011 0.00410003 -0.00389504 0.00451153 
C 26.5326 28.2068 42.9366 12.011 -0.00166396 0.00210386 -0.00672635 
C 47.652 39.706 11.7584 12.011 -0.0035416 -0.00525227 -0.00346459 
C 34.1996 42.2472 24.1468 12.011 -0.00255376 0.000134039 -0.00737267 
C 26.4119 11.7245 15.1282 12.011 0.00530238 -0.00193163 -0.00373238 
C 24.135 47.224 50.0136 12.011 0.000466583 -0.00200006 -0.00180962 
C 45.8655 27.7969 7.27746 12.011 -0.00083448 0.00222234 -0.00104019 
C 43.6111 31.6903 20.9774 12.011 0.00445445 0.00193771 -0.002962 
C 44.0699 36.6153 11.9317 12.011 -0.00420748 0.00466472 -0.00286694 
C 40.9384 4.07341 48.5867 12.011 0.00170536 0.00213942 -0.00409878 
C 42.3616 10.0356 21.258 12.011 -0.00384302 -0.00385337 0.00423324 
C 30.359 37.901 45.1262 12.011 0.00236931 0.000107848 -0.00129183 
C 8.605 47.9836 34.507 12.011 0.000710247 -0.000444396 0.000385671 
C 6.07823 2.73072 32.8835 12.011 0.00663838 0.000581174 0.0056377 
C 41.1065 5.51431 20.0508 12.011 -0.000381833 0.000512468 0.0038568 
C 49.224 28.6619 20.7577 12.011 -0.00315859 -0.000785411 -0.00291215 
C 0.980637 29.4798 5.81254 12.011 0.00297621 -0.00537777 -0.00073019 
C 13.7396 17.1236 43.0199 12.011 -0.00674819 0.00126452 -0.00311319 
C 22.0588 23.9933 29.5378 12.011 0.00370736 -0.00744615 0.00653537 
C 10.299 50.957 28.4051 12.011 -0.00434618 0.00114877 -0.00568808 
C 6.48109 6.88752 35.7964 12.011 0.00123721 -0.00530057 -0.000210029 
C 23.7647 36.6592 18.1412 12.011 0.00365852 0.00119098 -3.79588e-05 
C 36.6936 45.0637 20.1122 12.011 -0.00225375 -0.00331607 -0.00252541 
C 10.4193 8.35234 43.6632 12.011 -0.000345542 -0.00464135 -0.000238614 
C 2.76373 11.1472 50.6163 12.011 0.00223197 0.00207468 0.00569941 
C 40.4516 48.6266 7.96891 12.011 0.00350324 -0.0061034 0.0043034 
C 12.7939 30.5292 19.3116 12.011 -0.000765471 -0.0057103 -0.00522084 
C 24.1256 46.511 30.7153 12.011 0.00317061 0.0054442 0.00581694 
C 30.0775 3.55213 14.1821 12.011 -0.00404991 8.35617e-05 -0.00180461 
C 23.7261 34.0944 3.61116 12.011 0.00263815 -0.000817557 0.00315639 
C 44.073 2.34768 17.7606 12.011 -0.00153471 -0.00319914 0.00350496 
C 17.0866 13.4914 12.5469 12.011 -0.00290292 -0.00346429 0.005074 
C 45.5422 23.2034 33.8205 12.011 0.00315961 -0.00417631 -0.000635811 
C 16.6512 20.1281 24.7086 12.011 0.00989545 -0.00252923 0.000781167 
C 1.82006 29.0701 30.0871 12.011 -0.00115412 0.00220804 0.00660956 
C 1.41324 31.6085 28.3979 12.011 -0.00227648 7.05592e-05 -0.0110051 
C 13.7546 15.4546 44.9161 12.011 0.00542481 0.00560358 0.00390225 
C 49.381 12.1691 21.916 12.011 -0.00270441 0.000995913 -0.00578217 
C 49.0269 0.599892 2.53187 12.011 0.00371945 0.00128421 -0.0054103 
C 39.194 13.4173 47.8245 12.011 -0.00635296 -0.00331598 -0.00604849 
C 37.5965 39.9654 30.0343 12.011 0.00599679 0.000571041 0.00482907 
C 25.8314 15.8849 44.9688 12.011 0.00476325 0.00297061 0.00128848 
C 23.6118 10.4515 34.2489 12.011 0.00373344 -0.00455297 -0.00347626 
C 45.2765 27.1131 38.1768 12.011 0.00112276 -0.0062937 -0.000317904 
C 9.48951 1.1281 8.93637 12.011 -0.000788376 -0.00165957 0.0120225 
C 12.1279 39.6946 11.8054 12.011 0.000372829 -0.00163758 0.00648116 
C 28.1037 28.2624 36.9703 12.011 0.00297734 -0.000202994 0.0034147 
C 40.455 29.577 32.8338 12.011 -0.00747791 0.0110387 -0.00399466 
C 24.9688 7.58806 17.6549 12.011 0.00463031 -0.00275743 -0.000471927 
C 43.6249 25.163 20.253 12.011 -0.000662114 -0.00166092 0.00172859 
C 23.2533 2.03845 35.4009 12.011 -0.00301255 0.00581458 0.00412822 
C 46.555 44.3082 38.9654 12.011 -0.00437028 0.00290527 0.000780974 
C 36.5937 39.0266 30.5734 12.011 -0.000841667 0.010156 0.00125979 
C 8.45906 25.6268 39.7359 12.011 -0.0016806 -0.00711254 -0.00117544 
C 19.4551 42.9094 36.289 12.011 0.002632 -0.00315356 -0.00892812 
C 21.2547 24.8092 36.0704 12.011 -0.000743997 0.00389362 -0.00893871 
C 14.1793 30.2377 8.85836 12.011 0.00021411 -0.00234905 -0.00146338 
C 23.9282 25.1258 5.11695 12.011 0.000961879 -0.000389866 -0.00558961 
C 43.2596 39.1951 39.8322 12.011 -0.000748779 -0.00571084 0.00291914 
C 30.0075 4.71078 40.0438 12.011 0.00303194 -0.00318723 0.0029671 
C 6.11407 16.9204 13.5645 12.011 0.00432584 -0.00137507 0.0011102 
C 13.123 23.6588 39.6544 12.011 0.0046743 0.000632044 0.00262202 
C 48.5812 3.67176 26.1347 12.011 0.00809817 -0.00138745 0.000729165 
C 36.3485 47.5085 46.1116 12.011 -0.00273697 0.00890667 0.00443887 
C 31.105 38.0397 41.7859 12.011 -0.00125371 -0.00544678 -0.00212552 
C 27.6214 49.3978 15.8599 12.011 -0.0053934 0.00199981 0.0094297 
C 20.2992 12.6764 49.9747 12.011 -0.000759332 0.00643109 -0.00541717 
C 18.6505 48.85 24.5589 12.011 0.00637097 0.00581569 0.00281081 
C 2.98666 5.30326 35.4493 12.011 -0.00327643 -0.000781798 0.00972528 
C 37.8248 19.5321 36.7686 12.011 -0.00435533 0.00157609 0.000720246 
C 48.1548 49.6985 9.17536 12.011 0.00237709 -0.0013741 -0.00882159 
C 40.3752 49.43 10.2488 12.011 0.00200303 -0.00639779 -0.00455998 
C 20.1737 35.7126 12.9486 12.011 -0.00319861 0.00388192 -0.00102724 
C 9.98489 28.4473 39.9119 12.011 -0.000113817 0.00282375 -0.00660435 
C 15.0017 12.5669 31.6178 12.011 0.00893366 -0.00189526 -0.00415599 
C 12.7731 2.41126 23.2638 12.011 0.000960873 -0.00418225 -0.00654535 
C 25.0508 32.8921 49.5492 12.011 -0.00328907 0.0135633 -0.0018256 
C 21.7101 6.5653 30.0761 12.011 0.00412568 -0.00567882 -0.00470876 
C 22.1132 42.5035 49.4103 12.011 -0.00133918 -0.00584266 -0.00098074 
C 35.5085 48.6312 46.4699 12.011 0.00770988 -0.00378131 -0.0018712 
C 35.6189 19.2562 28.5694 12.011 -0.000518079 0.00618577 -0.00352997 
C 25.78 49.7282 45.1201 12.011 0.00215654 -0.00362227 -0.00372808 
C 23.3771 45.2906 17.8887 12.011 0.00520312 -0.00568013 -0.00395082 
C 42.17 30.0398 31.1046 12.011 0.00328425 0.000794094 -0.00224569 
C 18.4059 20.5746 30.5084 12.011 -0.00386564 -0.00149421 0.00121103 
C 34.7742 12.637 15.4156 12.011 -0.00495735 -0.00469019 -0.00774043 
C 21.217 2.63213 20.8739 12.011 0.0010205 -0.00450535 -0.00138643 
C 26.5913 31.9759 21.3398 12.011 0.00208738 0.00202213 0.00050183 
C 25.5247 49.732 47.5022 12.011 -0.00297161 -0.00587446 0.0018328 
C 8.98696 35.9496 19.6593 12.011 -2.62356e-05 -0.00657847 0.0020477 
C 38.0146 0.900771 31.6895 12.011 -0.00790208 0.00203645 -0.00317467 
C 46.3534 30.789 35.4411 12.011 0.00749168 -0.00663771 0.000341882 
C 25.3859 40.348 19.3373 12.011 -0.00301455 0.0027722 0.00327973 
C 45.3971 1.67798 12.1039 12.011 0.0062214 0.0056633 0.00498335 
C 18.0532 48.6003 36.5802 12.011 0.0059132 0.00660934 -0.00163873 
C 37.662 6.51784 36.7514 12.011 0.00451981 0.00161993 0.000471372 
C 14.8827 18.7028 10.4091 12.011 5.26828e-05 -0.00140705 0.00837283 
C 43.8873 7.27966 13.8265 12.011 -0.000362973 0.0033805 0.00136968 
C 4.73146 8.43037 36.5829 12.011 -0.00228021 0.001707 -0.00533955 
C 48.8488 6.52599 7.90687 12.011 -0.00208768 0.0022407 -0.00668823 
C 21.9165 14.9922 6.90789 12.011 0.00237816 0.0004578 -0.00537808 
C 18.6305 17.3015 36.0125 12.011 0.0029181 -0.000187639 -0.00300259 
C 36.8284 40.0317 39.7763 12.011 0.00130566 -0.00420203 -0.00526088 
C 28.9987 7.42876 26.5797 12.011 0.00356434 -0.00347792 0.00133199 
C 12.1162 25.1763 18.9167 12.011 0.00190054 0.000988123 -0.00616484 
C 47.9182 40.3653 44.0943 12.011 -0.0102783 -0.00147247 -0.00115523 
C 15.3395 13.7393 5.43547 12.011 -0.000558743 0.00412187 -0.00154144 
C 34.1316 2.06042 1.06062 12.011 -0.000922534 0.00289871 0.00273639 
C 30.1924 24.95 8.28149 12.011 0.00528515 -0.00236245 0.0032466 
C 37.1853 0.0695827 25.478 12.011 -0.00857751 -0.00544706 -0.00309964 
C 15.3764 22.6732 39.9556 12.011 0.00285347 -0.00083459 -0.00598199 
C 0.447511 27.8751 48.4139 12.011 0.00456399 -0.00155642 0.0085667 
C 0.181963 23.8555 45.8451 12.011 -0.00413959 -0.00489398 -0.00215765 
C 42.5665 40.0005 21.8684 12.011 0.00157872 0.00382295 0.00315255 
C 47.6319 14.4243 11.7054 12.011 -0.0019846 -0.00182463 -0.0057359 
C 36.2954 39.4282 34.8905 12.011 0.00537674 -0.00199248 0.00248161 
C 43.5672 37.7942 39.7802 12.011 -0.0109882 -0.00770422 0.0125353 
C 39.5184 40.8875 13.1655 12.011 -0.000890324 -0.00616213 0.00385495 
C 24.5732 45.832 47.5659 12.011 -0.00164366 0.00297142 0.00887593 
C 34.6562 29.806 21.4374 12.011 -0.00285001 0.00156068 0.000999157 
C 41.4965 20.6537 16.2448 12.011 0.00431399 0.00538494 -0.00153884 
C 14.9851 21.6835 32.3931 12.011 -0.00519387 -0.00211292 -0.0108071 
C 23.0941 47.1636 49.0243 12.011 0.00557793 -0.00353556 -0.00206143 
C 14.5378 48.7192 36.0558 12.011 0.000226677 0.00720765 -0.00562874 
C 26.0827 20.0577 38.5052 12.011 0.0103381 -0.00369815 0.000530485 
C 12.2825 23.3136 10.2385 12.011 -0.00407449 -0.00533886 0.00727349 
C 30.9463 39.7266 1.04316 12.011 -0.00331456 0.00334332 0.0011033 
C 12.6106 40.9719 6.27969 12.011 -0.000548859 0.00637727 -0.000307804 
C 15.3557 33.9451 6.11017 12.011 0.0019727 -0.00293617 -0.00282446 
C 50.8429 16.5311 50.5202 12.011 -0.00132662 0.00266281 -0.0128647 
C 10.9042 29.7387 20.6792 12.011 -0.00199112 0.00126575 -0.00627143 
C 3.30552 26.7529 43.7843 12.011 -0.000752377 0.00466841 0.00164303 
C 15.6973 49.5302 35.9095 12.011 6.84569e-05 -0.00503652 -0.00361105 
C 35.9104 35.4109 8.52714 12.011 0.00466871 0.00223484 -0.000344222 
C 5.71748 28.252 12.412 12.011 -0.00287502 -0.00624755 0.000400933 
C 44.0774 28.5951 30.8387 12.011 0.00340681 0.00177845 -0.00343354 
C 30.9646 42.8118 3.6748 12.011 -0.00417138 -0.000993245 0.00141374 
C 1.26694 15.6364 26.5099 12.011 -0.00142691 -0.00223566 -0.00570395 
C 47.8377 13.6068 44.6111 12.011 -0.00257781 0.00827839 -0.000915049 
C 31.8435 29.0653 36.8098 12.011 -0.00458327 -0.00587575 0.00266411 
C 39.9863 23.5266 4.97793 12.011 0.00670563 0.0075353 0.0111597 
C 47.7793 19.6731 8.48527 12.011 0.00417461 -0.00029221 -0.00573094 
C 27.3455 10.89 15.8508 12.011 0.000860774 -0.00512257 0.000907759 
C 25.3846 33.185 42.3061 12.011 -0.00312775 -0.000847467 -0.00385826 
C 38.3726 12.7412 20.3276 12.011 0.00654511 0.000217842 -0.00390813 
C 1.23139 39.6269 14.1667 12.011 0.00442081 -0.00202838 0.00691378 
C 25.631 5.98167 11.5188 12.011 -0.00820068 0.00169368 -0.00418292 
C 42.1543 3.48891 33.1184 12.011 0.0102282 0.000258141 0.000633316 
C 15.3331 16.1206 23.9242 12.011 -0.00116634 -0.0025479 0.00352987 
C 36.7835 20.814 42.7418 12.011 -0.00193355 0.00418184 -0.00358605 
C 19.1939 27.6399 15.0451 12.011 -0.000711284 -0.00742331 -0.00383869 
C 36.9596 0.694838 16.3769 12.011 -0.00226706 0.00461915 0.00110332 
C 43.303 3.87924 27.9202 12.011 -0.00129515 0.00114492 0.0010167 
C 18.9984 50.8182 30.9156 12.011 -0.0102703 0.00108574 -0.00217769 
C 14.5181 5.67588 22.8745 12.011 0.00171332 -0.00326487 -0.000494005 
C 1.91361 25.3359 10.7718 12.011 -0.00152814 -0.00354186 0.00342973 
C 21.4436 47.791 50.7814 12.011 -0.00366056 0.000387483 -0.00332853 
C 38.9198 0.296603 10.8387 12.011 -0.00297659 0.00768129 0.00417886 
C 1.00354 4.3069 36.292 12.011 -0.00433449 -4.03205e-05 -0.00055039 
C 43.5972 40.4604 29.6134 12.011 -0.000645234 0.00342829 -0.0126109 
C 8.59531 18.7639 32.7776 12.011 -0.00668417 -0.00198692 -0.00576605 
C 41.9416 24.8633 6.45894 12.011 -0.00962022 -0.00247327 0.00269226 
C 40.8782 43.9861 34.5414 12.011 0.0018736 0.000488814 0.00130486 
C 18.1095 46.145 20.5313 12.011 0.00196574 -0.00229471 -0.000816244 
C 21.2244 15.7455 3.37746 12.011 0.00176148 -0.00451433 0.00473775 
C 11.7441 23.8322 19.0731 12.011 -0.00834322 0.000141961 -0.00380027 
C 1.58213 19.6293 24.8389 12.011 -0.00321746 -0.00876636 -0.00343722 
C 5.26893 31.7946 22.8604 12.011 -0.00895765 -0.000237651 -0.00233729 
C 41.8763 36.2443 45.7855 12.011 0.00141059 0.0087366 0.00381987 
C 17.3634 12.3344 21.1112 12.011 0.00216121 -0.00190118 0.00577257 
C 50.4605 34.0772 0.474077 12.011 -0.00771031 -0.00118772 -0.00153695 
C 13.6349 11.4041 27.8628 12.011 0.000270115 -0.000254245 -0.00148916 
C 31.9236 22.3239 14.2427 12.011 -0.00536979 0.00505028 0.0022054 
C 30.025 40.2156 36.4294 12.011 0.000779039 0.00546957 0.0030249 
C 17.6187 38.2165 41.6816 12.011 0.001323 -0.00130262 -0.00919178 
C 46.3143 39.4195 12.0906 12.011 0.00509737 -0.00621 0.00371773 
C 31.1491 48.6301 37.9776 12.011 0.00363198 -0.000737622 0.00141031 
C 43.4842 35.6458 3.06867 12.011 0.00756284 -0.00563271 0.0044095 
C 39.2078 27.0636 24.3145 12.011 0.00730448 0.00516817 -0.000638704 
C 45.9724 22.9914 5.41911 12.011 0.00031382 0.000297039 -0.00301675 
C 48.0233 38.3473 46.6549 12.011 0.00432379 0.00323716 -0.00701706 
C 42.4937 38.5016 25.7072 12.011 0.00893782 0.00799817 -0.00856052 
C 9.87374 26.4036 26.9302 12.011 0.00212915 -0.00326358 0.00222322 
C 19.3131 48.0549 41.318 12.011 0.0022896 -0.00342007 -0.00147643 
C 8.86706 28.8398 21.7749 12.011 -0.00881388 -0.00392226 -0.00455729 
C 34.7801 7.1427 8.40205 12.011 -0.00065625 -0.00511764 -0.00372229 
C 22.2662 8.78633 17.5947 12.011 0.00557772 0.00456288 -0.00482263 
C 4.10072 26.1278 11.639 12.011 0.00490171 -0.00887126 -8.0363e-05 
C 40.4325 10.1593 0.732802 12.011 -0.00184511 -0.011508 0.00255719 
C 26.9246 12.7934 40.7593 12.011 -0.0116569 -0.000460679 0.00732097 
C 32.7278 24.4801 26.6612 12.011 -0.00143029 0.00380485 0.00590857 
C 41.3396 24.2665 19.6829 12.011 -0.000848686 0.00864745 0.000896633 
C 23.9087 27.4077 46.0277 12.011 -0.00843319 0.00952508 0.00195852 
C 48.0636 5.80269 44.7018 12.011 0.00495775 0.00764687 -0.00410981 
C 7.08713 0.0332628 4.88195 12.011 0.00220992 0.00959777 0.00403814 
C 31.8647 16.4632 34.4379 12.011 0.0042905 -0.00237832 0.00368729 
C 37.3759 4.18355 26.3183 12.011 0.00965953 0.0024032 0.00179668 
C 37.4408 28.4319 11.2417 12.011 0.000557223 -0.00845991 -0.00212267 
C 13.2728 12.0739 16.2464 12.011 0.00436846 0.00427688 -0.00432496 
C 11.6565 36.7973 34.5685 12.011 -0.00331721 -0.00462087 0.00256658 
C 2.13719 41.9971 46.6368 12.011 0.00497073 0.00512667 0.0024685 
C 14.7161 28.9123 39.3231 12.011 -0.00500418 0.00705917 0.00306456 
C 39.903 40.1238 49.4547 12.011 -0.00450996 -0.000438386 -0.00137634 
C 45.2449 42.671 17.2227 12.011 0.00421919 0.00338337 -0.000760635 
C 16.379 48.8262 38.2885 12.011 0.00582606 0.000648303 0.006452 
C 7.99715 18.1194 26.2199 12.011 -0.00117398 -0.010053 0.00541181 
C 5.2595 18.9763 20.5062 12.011 0.0147419 0.00296308 0.0026338 
C 1.60438 29.0729 34.8939 12.011 -0.00372683 -0.00681784 0.001687 
C 10.4947 36.2981 17.3506 12.011 0.00260888 0.0111527 0.00237614 
C 8.0156 41.9245 5.05935 12.011 -0.00597481 0.00854176 0.00260065 
C 12.5835 50.1259 18.4157 12.011 -0.00480992 -0.0045916 0.0077383 
C 30.5474 12.5212 37.4783 12.011 0.000527709 0.00158602 -0.00244265 
C 39.993 36.5056 14.2824 12.011 -0.00353944 0.00427424 8.03749e-06 
C 19.6626 16.0944 5.92924 12.011 -0.00269221 0.00168326 -0.00224862 
C 43.953 37.4996 45.3703 12.011 0.00500923 -0.00780084 -0.000347535 
C 24.5932 45.6925 8.65779 12.011 -0.0023582 -0.00191643 -0.00433547 
C 24.6236 11.2485 34.8618 12.011 -0.000186639 0.00164498 -0.000118859 
C 41.8565 29.6012 4.67 12.011 0.00595776 0.000189975 -0.0022593 
C 24.5018 0.0990198 43.7226 12.011 -0.00708637 0.00367292 0.00397457 
C 48.0048 31.8815 16.0938 12.011 0.00979067 0.00275558 0.00299527 
C 15.4679 20.3514 40.9931 12.011 0.00710064 0.00848516 -0.00597101 
C 36.8867 31.5384 4.68873 12.011 -0.00191681 0.00585478 0.00270897 
C 10.2272 9.6705 43.2838 12.011 0.00413373 -0.0026676 -0.000236761 
C 39.8817 6.74407 0.538876 12.011 -0.00244128 0.00547349 -0.00151065 
C 26.0613 33.4458 11.3214 12.011 0.00142239 -0.00128853 0.00719163 
C 18.0065 11.267 6.56973 12.011 -0.000681161 -0.00122268 -0.000594688 
C 26.9103 34.3368 25.3836 12.011 -0.00233486 -0.00391233 -0.00135588 
C 42.6827 14.6977 15.9307 12.011 0.0110319 -0.00265703 0.00655398 
C 31.7142 49.7418 27.6958 12.011 0.00620318 -0.000706068 -0.00228097 
C 37.992 46.03 49.2303 12.011 0.00224476 -0.00372724 -0.000245816 
C 15.3389 10.0639 49.1879 12.011 -0.00772157 -0.00287898 -0.00517661 
C 31.6742 47.4669 37.4622 12.011 0.000438209 0.00206823 0.00209382 
C 7.7499 34.9025 46.368 12.011 -0.00246736 0.00712702 -0.000136176 
C 13.0555 34.5391 24.0365 12.011 0.0022322 0.00124591 0.000981 
C 27.8311 41.1118 40.8378 12.011 0.000789228 -0.00189559 -0.000421487 
C 18.2976 48.1552 48.0127 12.011 -0.0022599 0.000113587 -0.000985816 
C 10.8316 5.26885 12.0881 12.011 -0.00124752 0.0042588 -0.00108945 
C 47.6688 44.8837 13.0999 12.011 -0.00406706 0.00467392 0.00424738 
C 5.14102 35.545 23.1698 12.011 -0.00192588 0.00227523 -0.00396108 
C 31.3618 31.2796 12.5398 12.011 0.0022472 -0.00645857 -0.00207525 
C 6.47717 3.20063 8.81684 12.011 0.00240029 -0.00396432 -0.00346205 
C 30.364 5.55614 27.5088 12.011 0.0018847 -6.76135e-06 -0.00648912 
C 21.4889 15.4705 45.9243 12.011 0.0101076 0.00702898 -0.00456279 
C 33.1553 12.9976 34.2443 12.011 0.00464825 -0.00380647 0.00321437 
C 8.96181 50.1421 33.4976 12.011 -0.00319276 0.00539981 -0.000859703 
C 24.1084 34.0482 4.96195 12.011 0.00517456 -0.00354879 0.00438807 
C 27.9231 39.5882 29.5541 12.011 -0.00181302 -0.00151526 0.00526868 
C 42.6337 36.7531 11.6019 12.011 0.00562745 -0.00390018 0.00577358 
C 15.5025 10.9484 46.92 12.011 -0.0123965 0.000815191 -0.00244452 
C 40.9811 10.3956 21.7832 12.011 0.00579124 0.00342727 -0.00461872 
C 11.1031 9.68873 36.749 12.011 -0.00386321 0.00270691 0.00460279 
C 12.6225 44.8189 37.2118 12.011 -0.00197439 5.35905e-05 0.00187611 
C 42.9231 35.5829 40.4881 12.011 -0.00776978 0.0020056 -0.00276002 
C 18.8477 27.9682 39.4856 12.011 -0.00242116 -0.0028135 0.00271502 
C 2.68448 0.568535 21.6539 12.011 -0.000190075 -0.00331555 0.000228824 
C 17.3803 48.5952 39.2539 12.011 -0.00180338 -0.00161893 -0.00553163 
C 8.96622 41.0293 5.58589 12.011 -0.000650499 -0.00134624 -0.00402014 
C 0.216707 21.9192 17.1463 12.011 -0.00245523 0.00273912 -0.000622753 
C 48.8272 27.9441 50.9882 12.011 -0.00520485 -0.00537673 -0.00105347 
C 25.274 39.6086 21.7018 12.011 0.00400052 0.00382546 0.000782225 
C 11.6946 7.7062 7.83606 12.011 0.00303612 0.00548864 0.00160836 
C 8.0919 47.7724 27.4361 12.011 0.0057241 -0.00578691 -0.00513304 
C 12.3709 3.66466 35.8734 12.011 -0.00256203 0.00515568 0.00381563 
C 33.8407 35.4858 41.6333 12.011 0.00315704 0.000451747 0.0014441 
C 13.9922 37.2351 41.3127 12.011 -0.012403 0.000677722 0.00461133 
C 11.2319 46.8075 21.0498 12.011 -0.00056199 0.00568994 -0.00529429 
C 37.0149 46.4945 48.3517 12.011 -0.000837441 -0.004876 -0.00145803 
C 14.7437 33.6672 17.5444 12.011 0.0014211 0.00847342 -0.000728471 
C 3.22582 41.7783 36.8696 12.011 0.00352304 0.00573357 0.00577172 
C 20.896 32.6441 6.58018 12.011 0.00244663 0.0014829 -0.003846 
C 13.9824 26.024 24.4492 12.011 0.00170879 -0.00206721 0.00784849 
C 12.732 43.5597 12.8408 12.011 -0.00618412 -0.00106526 -0.00523094 
C 26.8793 3.99719 22.5356 12.011 -0.00342441 0.000755984 -0.00403956 
C 47.8434 42.8557 29.106 12.011 -0.000782926 -0.00209515 0.00052978 
C 36.0575 27.1989 7.95911 12.011 -0.000953063 -0.000617573 -0.00283537 
C 14.6278 1.20099 40.788 12.011 -0.00447075 -0.00366057 -0.00180646 
C 4.48065 18.4875 36.3071 12.011 0.0052027 -0.000356352 0.00139929 
C 32.6321 7.72082 14.2606 12.011 0.00261689 0.00155394 -0.00321533 
C 1.73388 34.8084 45.6331 12.011 0.000115203 -0.00611605 -0.00922801 
C 45.5695 10.3214 27.3375 12.011 -0.00340969 -0.00240544 -0.000826367 
C 18.2928 47.3325 22.675 12.011 -0.00988017 -0.0103404 -0.00156934 
C 11.3868 50.1099 37.496 12.011 -0.00630883 -0.0034042 -0.00501616 
C 49.0185 28.8263 13.4222 12.011 -0.000910592 0.00156373 0.00302869 
C 11.5381 23.4865 20.4124 12.011 0.00735641 -0.000250019 0.00605009 
C 6.39121 49.3991 41.636 12.011 -0.00674997 -0.000982892 0.0024849 
C 19.6355 23.1542 6.91186 12.011 0.00449269 -0.0101017 -0.000149674 
C 30.3086 18.6138 46.8372 12.011 0.00564383 0.0017018 -0.000767473 
C 12.8539 21.2308 31.184 12.011 0.00281843 -0.000982551 -0.00320103 
C 15.9668 15.5646 31.9339 12.011 0.00250497 0.00297994 0.0033729 
C 39.5707 49.161 15.485 12.011 -0.00365794 0.00194817 -0.0031236 
C 6.80256 42.944 44.6533 12.011 0.00261116 0.00356581 -0.00206753 
C 0.14671 17.6722 23.4498 12.011 -0.00147889 -0.00856878 -0.0071612 
C 44.0799 14.8296 2.0427 12.011 0.000352165 -0.00262178 0.00258521 
C 15.5245 33.9526 40.2497 12.011 0.0014983 -0.00243225 0.00212545 
C 10.9045 50.8266 20.4039 12.011 0.00375893 0.00795973 0.00828629 
C 41.799 12.9911 35.1933 12.011 -0.000491702 0.00149702 -0.00845766 
C 11.6314 3.95397 24.6063 12.011 0.00553124 0.00378341 -0.000266508 
C 17.1968 34.6492 3.9575 12.011 0.00304837 -0.00538194 0.00751542 
C 10.5059 43.2753 40.1004 12.011 -0.00366529 0.0146934 0.00265058 
C 1.3732 8.37472 14.2958 12.011 -0.00538797 -0.00798954 -0.00285908 
C 20.458 31.5911 8.78803 12.011 -0.00432955 -0.00118795 0.00291443 
C 23.7165 6.76879 17.6242 12.011 -0.00713671 0.00143391 0.00335323 
C 30.7106 22.5024 1.90266 12.011 -0.00522231 0.00129091 -0.00521913 
C 4.09852 20.6452 7.18225 12.011 -0.000585182 -0.000122847 0.00503491 
C 12.208 44.1398 26.8538 12.011 0.00954603 0.00216416 -0.00259024 
C 23.3362 14.9705 2.51955 12.011 -0.00428408 0.000596086 -0.00909152 
C 21.4742 20.6716 50.4244 12.011 -0.000283944 0.000243303 -0.00714552 
C 43.0647 43.2717 9.57146 12.011 -0.00491509 -0.0066748 -0.00576631 
C 37.0659 43.8219 26.6823 12.011 -0.00804295 -0.000694595 -0.00496418 
C 28.1263 35.9296 23.708 12.011 -0.00865404 0.00163641 -0.00122251 
C 31.1041 23.432 38.0208 12.011 -0.0027285 0.00359498 0.00166501 
C 43.5136 29.2098 37.6258 12.011 -0.00190436 0.00285268 -0.00549745 
C 6.59705 30.3115 49.5644 12.011 0.00473921 0.00543289 0.00201905 
C 27.6296 50.5216 10.0317 12.011 0.00321635 -0.00256307 -0.000842067 
C 39.0405 19.1573 27.038 12.011 -0.00619684 -0.00128289 0.00427735 
C 8.94114 6.4832 18.8538 12.011 -0.00402781 0.00704684 0.00323212 
C 11.6721 45.143 42.6445 12.011 -0.00349964 0.00223076 0.00124462 
C 33.6259 35.3501 46.0603 12.011 0.00663979 -0.000675618 0.00114533 
C 19.5065 40.9575 28.8905 12.011 0.0031029 -0.00881546 -0.00142283 
C 34.7501 28.2389 43.195 12.011 -0.00198396 -0.00591764 0.00130134 
C 12.4548 41.889 43.4266 12.011 -0.000734046 0.0014446 3.19748e-05 
C 22.7393 30.7809 41.0738 12.011 -0.00226897 0.00277802 0.01067 
C 5.60427 17.851 30.4266 12.011 -0.00243898 -0.005941 0.00194773 
C 18.0603 8.06108 47.3711 12.011 0.00193091 -0.00519997 -0.0110717 
C 22.0636 0.568254 38.5946 12.011 0.00147622 -0.00143715 0.000704708 
C 0.500893 44.3008 18.2484 12.011 0.0064047 0.00165713 0.000492561 
C 25.3081 32.1071 48.3691 12.011 -0.00231835 0.00260456 -0.00316937 
C 44.3611 1.32631 36.649 12.011 0.000367087 0.000552287 -0.000237295 
C 33.5299 21.3747 15.9073 12.011 0.00175152 0.00369286 0.0056917 
C 0.472166 40.6337 27.6087 12.011 0.00180499 0.00342968 -0.00367482 
C 47.8473 40.397 15.0017 12.011 0.00452296 -0.0048949 0.00778679 
C 47.4191 33.3545 2.8177 12.011 0.00274753 0.00090141 -0.000768796 
C 31.7423 32.6467 37.2285 12.011 -0.00434947 0.0026054 0.00629429 
C 13.8152 1.01667 31.9821 12.011 -0.00650994 0.000706894 -0.00533431 
C 36.1147 5.57959 43.9296 12.011 0.00264934 0.00348427 0.00267256 
C 32.3892 47.8161 31.4147 12.011 0.00501872 0.00794961 0.00408739 
C 22.5024 30.2197 26.4836 12.011 -0.00383857 -0.00344083 0.000157308 
C 49.7572 6.1693 46.4671 12.011 0.00727508 -0.00562396 -0.00504424 
C 6.62737 39.5416 19.8025 12.011 -0.000317835 -0.000980038 -0.00146949 
C 13.6575 10.5621 35.8123 12.011 -0.00785976 -0.00507847 0.00196667 
C 6.91756 48.1644 16.5061 12.011 0.00613554 -0.00681197 -0.00111827 
C 8.49376 1.47408 33.0155 12.011 0.000257019 0.00314714 -0.00191245 
C 10.735 14.153 24.6746 12.011 -0.00985758 -0.000841453 -0.00473136 
C 9.01112 47.4394 17.4772 12.011 -6.05488e-05 -0.000602858 0.00424358 
C 27.5473 5.34487 46.9909 12.011 -0.00200764 -0.00469804 -0.0037261 
C 7.78553 31.978 2.76076 12.011 0.00841512 -0.000822601 -0.00584833 
C 36.9068 50.1532 34.7329 12.011 -0.00269288 -0.00493838 0.000993135 
C 29.0696 5.17329 43.3937 12.011 0.00216153 0.00116878 0.00384818 
C 21.8509 31.3148 47.3578 12.011 -0.00190911 -0.0078634 -0.00286105 
C 5.41903 35.6584 2.36035 12.011 -0.00355726 0.00892043 0.00504004 
C 6.32702 1.75188 31.8383 12.011 -0.00405514 0.00215188 -0.0103566 
C 26.9042 25.7794 12.8776 12.011 0.00228035 0.00454259 -0.00384148 
C 5.59245 11.487 1.86267 12.011 -0.00675673 -0.00646571 0.00583624 
C 4.35125 10.6584 12.36 12.011 -0.00215382 -0.00259497 0.00477189 
C 17.1128 18.394 42.3326 12.011 -0.0017352 0.00323736 -0.000616327 
C 2.29247 48.5649 49.0611 12.011 0.000949945 -0.00249507 -0.00217001 
C 41.8497 15.9432 19.422 12.011 -0.00212454 -0.000962934 0.00522111 
C 36.5161 42.0912 37.5799 12.011 -0.00321737 0.00147547 -0.00802012 
C 24.4434 12.2002 49.6583 12.011 -0.000228926 -0.000650061 0.00431138 
C 3.31018 48.9908 28.7356 12.011 -0.00578377 -0.00269015 -0.00109178 
C 4.28247 50.1078 22.685 12.011 -0.00286281 -0.00283922 0.00729981 
C 2.82439 39.1735 49.8195 12.011 -0.0011828 -0.000203517 0.00293165 
C 50.3143 37.5474 46.4843 12.011 -0.00040509 0.0026814 0.00913715 
C 32.6534 4.38086 20.5031 12.011 -0.00601354 0.00594375 0.00143294 
C 3.26503 25.8013 29.3766 12.011 0.0153914 0.00272232 0.00128397 
C 29.0593 40.6932 50.8197 12.011 0.00471379 0.00809179 0.00276748 
C 35.7631 40.1633 44.3507 12.011 -0.00184514 0.00240826 0.00599258 
C 5.72805 9.5909 44.8838 12.011 0.00267266 -0.00153859 -0.00241698 
C 7.70329 21.3886 24.1724 12.011 0.00122337 -0.00108815 -0.00112522 
C 18.4304 41.0889 44.0345 12.011 0.00210781 0.000440286 -0.00324236 
C 22.0298 7.14442 31.3187 12.011 -0.00228628 0.00673405 -0.00277694 
C 0.276717 19.6068 5.06377 12.011 -0.00672996 -0.000760077 0.00263541 
C 15.7214 42.5657 39.593 12.011 0.00169949 -0.00159076 -0.00483533 
C 30.991 47.3507 24.2703 12.011 0.00017476 -0.0102012 0.000821794 
C 22.421 2.90574 45.2955 12.011 -0.00264373 0.00430099 0.000330173 
C 25.9565 50.2967 41.3119 12.011 -0.000913163 -0.00289758 0.00836763 
C 6.37251 12.436 50.7599 12.011 0.000992456 -0.000474413 0.0019853 
C 15.5061 11.6521 40.2034 12.011 -0.00549629 -0.00214672 -0.00459343 
C 8.09702 38.0037 18.5069 12.011 -0.00390453 -0.00641003 0.00265684 
C 9.68989 3.07797 12.7008 12.011 -0.00385083 -0.00731214 -0.00447749 
C 40.956 50.6655 12.0942 12.011 0.00026906 -0.00139497 0.00585992 
C 32.2011 50.7014 31.3191 12.011 -0.000754284 0.00488411 -0.00307817 
C 22.4092 46.2574 41.6278 12.011 -0.00538254 0.00277057 0.00145839 
C 33.5539 40.8791 5.13756 12.011 -0.00264321 0.00161962 -8.17466e-05 
C 2.97628 22.6385 27.4786 12.011 -0.00069901 0.00804033 0.00309662 
C 0.981638 43.8708 33.2384 12.011 -0.000213079 -0.0073164 -0.0032308 
C 40.9341 49.1363 32.6145 12.011 -0.00231355 6.78038e-05 0.00566795 
C 10.1297 22.2959 28.165 12.011 -0.00903255 0.00495837 -0.001384 
C 48.9934 44.4861 12.6982 12.011 0.000207073 0.00414926 0.00411871 
C 30.3239 36.3284 8.41226 12.011 -0.00125361 0.00075223 0.00356557 
C 8.69423 16.7402 6.40237 12.011 -0.000988169 -0.00385826 0.012418 
C 2.9181 32.6795 45.6003 12.011 0.0039286 0.00478589 -0.000918749 
C 16.9031 36.6184 11.4057 12.011 0.00571616 0.00177395 -0.000603335 
C 3.63515 44.1372 3.34512 12.011 -0.00610581 -0.00545388 -0.00245292 
C 22.8127 20.3535 50.6135 12.011 -0.0026986 -0.000425151 0.00432918 
C 32.8597 43.9674 38.146 12.011 0.00347468 -0.00599286 -0.00238334 
C 27.0668 11.8679 2.19522 12.011 0.0083404 -0.00116513 0.00663804 
C 17.6902 17.7908 49.8976 12.011 0.00261922 0.000634371 -0.00542679 
C 34.0014 19.5062 25.0169 12.011 -0.0031908 -0.00211058 0.00176227 
C 0.218316 38.7541 4.27044 12.011 0.004784 -0.00663785 -0.000263667 
C 14.8029 9.40649 1.83076 12.011 -0.000379206 -0.00259007 -0.0134369 
C 11.8094 6.32887 43.7678 12.011 2.90687e-05 -0.0013516 -0.00225251 
C 10.7601 37.9019 34.4983 12.011 0.0121608 -0.0121446 0.000230956 
C 40.7182 16.853 19.7747 12.011 -0.00175764 0.00279364 -0.00625581 
C 6.51633 36.3923 8.57291 12.011 0.00272071 -0.000570946 -0.0015696 
C 17.3583 15.1782 45.9603 12.011 0.000131156 0.00216314 -0.00499263 
C 47.6665 24.7819 13.8724 12.011 -0.00282024 0.00950622 -0.000731589 
C 45.2108 3.33094 17.8179 12.011 0.000153128 0.00534167 0.0039674 
C 29.9147 28.5499 45.5247 12.011 -0.00182585 0.00570359 0.00703375 
C 10.3197 41.5167 5.52567 12.011 0.00157068 0.000289896 0.00234322 
C 3.19764 22.9358 10.0408 12.011 -0.00176725 0.00885259 0.000845476 
C 12.0493 46.2151 24.7023 12.011 -0.00103099 -0.000103295 0.00122788 
C 19.7597 43.9075 32.7584 12.011 0.000998966 0.00693508 -0.00140422 
C 24.4422 20.6168 17.6618 12.011 -0.00483478 0.00613576 -0.00527065 
C 11.0183 35.5896 29.8309 12.011 -0.00776233 0.00908649 0.00390168 
C 29.4811 38.2112 24.2074 12.011 0.00163633 -0.00591623 0.0096436 
C 19.1009 42.2516 29.4623 12.011 -0.000275845 0.0064293 -0.00121441 
C 42.444 25.5898 33.3673 12.011 0.000286822 -0.00681659 -0.0015083 
C 31.3308 30.3909 0.51879 12.011 -0.000264859 -0.000804804 0.00676196 
C 16.1758 26.0455 33.7405 12.011 0.00265636 0.00151007 0.00845532 
C 27.3547 38.4928 27.4396 12.011 0.00150759 0.000615445 0.0024238 
C 43.0429 38.6926 28.0796 12.011 0.00366132 0.00226213 -0.000655367 
C 39.2792 9.74028 36.62 12.011 0.00643998 -0.00030738 -0.00122371 
C 16.4742 37.4432 41.3596 12.011 -0.00139886 -0.00205989 -0.00249457 
C 29.8879 18.4708 34.9153 12.011 0.012077 0.00394556 0.0039768 
C 24.7898 2.72888 5.29714 12.011 0.00211306 0.000313202 -0.00282261 
C 13.8077 26.8561 31.0962 12.011 -0.00590125 0.00338376 0.00148769 
C 22.7435 14.2487 9.0674 12.011 0.00555092 0.00381741 0.000559193 
C 3.07696 18.9009 27.1525 12.011 0.00174135 0.00931318 0.00159436 
C 31.8445 40.5102 16.1159 12.011 -0.00676737 -0.00399916 -0.00704843 
C 26.2607 24.8717 23.515 12.011 -0.00360098 0.00490404 0.00373258 
C 13.7682 3.30249 35.8819 12.011 -0.00243369 -0.00534943 -0.000836851 
C 2.02613 43.9457 22.045 12.011 -0.00417885 0.00241839 -0.00581522 
C 36.9209 6.55787 38.953 12.011 -0.000560793 0.0105035 0.00102711 
C 34.0179 26.926 23.8962 12.011 -0.000568392 -0.00266101 -0.00319187 
C 44.9801 10.9558 35.3215 12.011 -0.00129635 -0.00362697 0.0075642 
C 18.9905 15.2777 37.4666 12.011 -0.006696 -0.00721717 -0.00260795 
C 41.1879 36.2414 2.04213 12.011 -0.00801479 0.000874233 -0.00376899 
C 23.2833 27.0017 41.4912 12.011 -0.000950134 -0.000484784 -0.00129332 
C 20.6053 1.59686 34.6397 12.011 0.0070998 -0.0027537 -0.00502219 
C 25.4197 34.5183 5.41137 12.011 0.00642211 -0.00603075 -0.00312211 
C 0.284477 39.2465 50.2335 12.011 -0.000808798 0.00246346 -0.00502049 
C 44.924 40.0286 27.6618 12.011 0.0084807 0.004617 -0.00626397 
C 27.4749 36.7605 43.5064 12.011 -0.00903155 0.00165862 -0.00753395 
C 34.4403 11.4938 50.7007 12.011 -0.00184256 -0.00367567 0.00543604 
C 25.1055 21.0363 38.0786 12.011 -0.0122204 0.00162035 0.00344399 
C 12.3944 45.7677 43.7732 12.011 -0.00210865 -0.002807 -0.00434532 
C 14.8436 10.9689 48.1811 12.011 -0.0017452 -0.00157217 -0.0115677 
C 40.912 20.9069 24.325 12.011 -0.00227472 0.00551429 -0.0016403 
C 28.3325 10.7847 41.0798 12.011 -0.00341057 -0.00162287 0.012058 
C 43.423 25.7498 39.0116 12.011 -0.00932211 0.00162684 0.00356639 
C 34.408 0.572253 50.1837 12.011 -0.00451603 0.00245006 -0.000106936 
C 4.88043 47.7416 14.587 12.011 -4.54036e-05 -0.00653952 -0.000283365 
C 6.93025 2.1906 43.5113 12.011 -0.00132863 -6.85737e-05 -0.0047273 
C 10.3485 50.3369 7.51602 12.011 0.00684231 -0.00132803 -0.00372394 
C 29.4622 46.9291 22.3413 12.011 -0.0026055 0.00476947 0.00640202 
C 12.1383 49.9311 13.3546 12.011 0.00248409 0.00143497 -0.00446744 
C 21.1842 48.9268 3.86255 12.011 -0.00336924 -0.00014519 -0.000640307 
C 17.1922 11.2532 41.8479 12.011 0.00391963 0.00444809 0.0020495 
C 35.7765 2.84818 16.8661 12.011 -7.60302e-05 -0.00379966 0.00431011 
C 13.1348 6.01138 11.8273 12.011 0.00213867 0.000321433 0.00680004 
C 31.611 7.8711 11.2306 12.011 0.00347267 -0.00411646 -0.00651938 
C 17.5397 13.5228 9.79762 12.011 -0.00530308 0.000361573 -0.00289534 
C 25.0191 10.3636 5.89695 12.011 0.00349849 -0.00253554 -0.0121977 
C 3.15138 22.8812 42.3236 12.011 0.00669309 0.0113446 -0.00614287 
C 21.4482 42.8437 12.3525 12.011 -0.00300268 -0.00105016 0.00445073 
C 10.4116 26.2243 9.06764 12.011 -0.00122807 -0.0061747 -0.00261176 
C 26.0578 33.1072 34.1994 12.011 -0.00367216 -0.00199989 -0.00551208 
C 19.2499 18.4265 36.6467 12.011 0.00810222 -0.00223274 -0.00200162 
C 29.3701 40.3069 34.1004 12.011 -0.00400256 -0.00242972 0.00932108 
C 6.42962 19.3769 22.572 12.011 0.00439361 0.00654991 0.00560458 
C 12.999 16.5204 50.0469 12.011 0.00617842 0.00239686 -0.00299599 
C 41.4234 17.6827 12.2278 12.011 -0.0082531 0.00133023 0.00533683 
C 36.8574 10.0975 21.3262 12.011 -0.000688178 -0.00368634 -0.00505727 
C 5.45896 15.8378 42.5484 12.011 -0.0029723 -0.00307454 -0.011276 
C 38.9167 15.3366 29.1979 12.011 -0.0050777 -0.00127335 -0.010321 
C 33.9901 41.8385 26.9794 12.011 -0.00618725 0.00127782 -0.00196261 
C 30.2896 38.87 49.8789 12.011 0.00781078 0.000392927 0.00146472 
C 48.5685 12.4775 44.3223 12.011 -0.00489526 -0.000294313 0.00146898 
C 42.8492 8.74409 20.9332 12.011 0.00156537 -0.00681709 -0.00129161 
C 13.4262 48.3381 3.61207 12.011 0.00211353 -0.00072749 0.00468395 
C 10.4413 47.2211 49.3464 12.011 -0.00231196 0.00665719 0.000203547 
C 32.4841 43.0448 5.45684 12.011 -0.00340094 0.00295245 -0.0049396 
C 49.0085 9.40156 44.6715 12.011 -0.000897081 -0.00591405 -0.00440218 
C 0.764737 50.5628 15.9582 12.011 5.03348e-05 0.00317559 -0.0024617 
C 0.562564 30.218 49.4257 12.011 0.00770404 0.00408969 -0.000866149 
C 4.88363 16.3587 16.9952 12.011 0.000922766 0.00700741 -0.00137178 
C 34.9867 48.8545 12.9027 12.011 0.00182039 0.00426443 0.00468233 
C 38.889 29.8377 13.091 12.011 -7.3192e-05 -0.000150864 -0.00669045 
C 34.5746 38.4299 40.3523 12.011 0.00851109 0.0107028 0.00461381 
C 40.4647 31.4689 37.8665 12.011 -0.00447723 0.00355327 -7.56361e-05 
C 10.5101 36.8838 29.6415 12.011 -0.000144568 0.00649948 -0.00568925 
C 39.3233 43.1109 4.82907 12.011 0.00303533 0.0025173 0.000593631 
C 9.90472 26.8897 47.6162 12.011 -0.0042748 -0.00420376 0.00345268 
C 0.809007 25.0915 46.1084 12.011 0.00264395 -0.000921015 0.00311967 
C 19.4066 47.9997 22.1072 12.011 -0.000566037 0.00250903 -0.00833825 
C 23.7165 21.0123 0.494751 12.011 -0.00239781 0.00638386 -0.00446108 
C 20.3982 18.6599 15.7411 12.011 -0.00686217 0.00268497 -0.00063907 
C 37.4502 29.1885 15.0869 12.011 0.00469158 0.00411299 -0.0110728 
C 30.8357 28.3824 17.3677 12.011 -0.0012496 0.00466563 -0.000165557 
C 31.4405 20.3924 0.267878 12.011 0.00321519 -0.00984542 -0.00355683 
C 15.0915 41.219 4.67891 12.011 -0.0013308 0.00282793 -0.00309674 
C 26.9377 49.5235 50.8508 12.011 0.000425402 0.00514178 0.0014558 
C 3.74044 28.5704 33.9423 12.011 0.000898773 -0.00139672 -0.00212812 
C 20.3433 34.3378 1.94621 12.011 -0.00289676 0.000493793 0.00376251 
C 44.8532 43.2834 49.8163 12.011 0.00263071 -0.000521827 0.00544814 
C 2.30608 28.5909 46.2165 12.011 0.011645 -0.00163591 -0.0013346 
C 26.7313 12.2815 13.8732 12.011 0.00217121 -0.0075178 0.00233894 
C 23.3921 38.4039 13.6371 12.011 -0.00494568 -0.000429516 -0.00233838 
C 24.4449 18.4799 50.1558 12.011 0.000799746 0.00573101 0.000161234 
C 4.91524 16.2032 15.5796 12.011 -0.000494401 0.00194322 0.00131242 
C 48.8371 4.06256 7.38843 12.011 0.00862718 0.000657505 -0.000307333 
C 8.76933 23.6492 25.0318 12.011 0.00493948 0.00399505 -0.0027564 
C 34.69 42.0736 30.6578 12.011 -6.13554e-05 -0.00394767 0.00204192 
C 27.3414 45.5161 9.52141 12.011 -0.00479972 -0.00114987 0.000536296 
C 32.1911 24.6171 28.0919 12.011 0.00606169 -0.00434614 -0.00402953 
C 20.3477 47.5411 47.0546 12.011 -0.00434214 0.00770122 -0.00869499 
C 25.9128 50.2529 50.1389 12.011 0.00931486 0.000172551 0.000383575 
C 36.4241 25.2941 30.4575 12.011 0.00203964 -0.00683771 -0.00634022 
C 36.9654 13.5852 18.4189 12.011 0.00267463 -0.00139589 -0.00522388 
C 19.5543 9.33901 6.69421 12.011 0.00420159 -0.00625155 0.00339586 
C 25.1848 50.4043 46.2334 12.011 -0.00151228 0.00133863 -0.0065497 
C 32.3567 41.4001 30.3544 12.011 -0.00669847 0.00374708 -0.00289083 
C 39.3302 0.655575 4.48481 12.011 0.001876 0.0087556 -0.00505775 
C 11.4201 39.0221 12.8492 12.011 0.00107038 0.00160244 -0.00667066 
C 1.67478 27.8828 21.7275 12.011 0.0054416 0.00739864 0.00109212 
C 36.7684 46.703 38.44 12.011 -0.00407757 -0.00173615 -0.0023275 
C 20.4992 38.7412 33.5168 12.011 0.00371642 0.00358452 -0.00441027 
C 17.6735 13.7707 21.2254 12.011 0.00101083 -0.00534944 -0.00570256 
C 25.3117 20.4886 20.7851 12.011 -0.00202259 -0.00467126 -0.00771358 
C 5.86873 13.0453 37.3233 12.011 -0.000385846 0.00115651 0.00350642 
C 15.5406 36.4753 11.7271 12.011 -0.000597729 0.00387754 -0.00925224 
C 23.8708 48.5456 12.7699 12.011 0.00422408 0.00671212 -0.00244859 
C 49.3241 3.94064 5.96873 12.011 0.0050442 0.00445392 -0.00679188 
C 8.54074 19.2009 6.85297 12.011 0.00113042 -0.00904862 -0.00451024 
C 48.749 1.19672 46.9005 12.011 0.00226296 0.000195567 0.00252101 
C 25.1532 22.002 5.01898 12.011 0.00281254 0.0060349 0.000185921 
C 38.1198 47.9559 34.9086 12.011 0.00314951 -0.000269264 0.0114093 
C 2.2963 4.34826 42.8397 12.011 -0.00278881 0.0020047 -0.000618999 
C 25.6237 36.4327 31.8415 12.011 -0.000406915 0.00467921 0.00778285 
C 35.8011 7.27677 12.4546 12.011 -0.0022212 0.00351829 0.00302638 
C 6.74419 17.4858 7.58867 12.011 0.000111023 0.0012015 -0.000859347 
C 43.7604 30.3985 29.1787 12.011 -0.00187154 0.00747768 -0.00235429 
C 41.1442 42.5327 34.762 12.011 -0.00365487 0.000671155 -0.0023848 
C 31.9934 40.5301 26.7245 12.011 -0.00200037 -0.000962149 0.000888877 
C 48.7157 2.73234 7.87987 12.011 -0.00518258 0.00172166 -0.00229831 
C 13.4109 13.3513 15.6197 12.011 -0.00280632 -0.0111424 0.00501134 
C 3.26124 48.6658 50.007 12.011 -0.00744414 0.00235228 -0.00196279 
C 22.3729 43.8986 4.22572 12.011 -0.00285873 -0.00618597 0.00321877 
C 33.4257 12.252 41.9033 12.011 -0.00300962 0.00299649 0.00408966 
C 18.2195 11.2222 20.7125 12.011 0.00358613 0.00360308 0.000121001 
C 48.4772 0.181677 44.5312 12.011 0.0106899 0.00639777 0.000691983 
C 35.3232 4.75422 39.6611 12.011 -0.000946226 -0.00433087 -0.00584254 
C 30.6871 14.9166 1.42045 12.011 -0.00538744 -0.00341685 -0.00369656 
C 43.6578 8.63135 13.9306 12.011 -0.00249388 -0.00359815 -0.0016861 
C 35.2656 26.3726 44.7535 12.011 -0.00255609 -0.00121528 -0.00493157 
C 31.3095 17.6599 16.0802 12.011 0.00286647 0.00209645 0.00499857 
C 13.6601 49.7072 15.6625 12.011 0.004698 -0.00358871 0.000189411 
C 7.92222 12.1569 4.62311 12.011 -0.00769894 -0.00295429 0.00742474 
C 42.7697 35.6331 34.6237 12.011 0.00879138 0.000234634 -0.0104562 
C 7.93384 37.4517 40.6885 12.011 0.0105287 -0.00242894 -0.0102389 
C 45.9347 10.5789 11.9346 12.011 0.00254475 0.00190541 0.00285664 
C 7.07638 32.4543 37.085 12.011 -0.00384129 -0.00551763 0.00386884 
C 29.6367 24.9598 18.5412 12.011 0.00272978 -0.00441989 -0.00247776 
C 25.3096 36.7118 30.4615 12.011 0.00145847 0.00160644 0.00132793 
C 14.3568 30.6537 51.0012 12.011 0.000512163 0.000965075 0.0033518 
C 24.0172 31.3439 15.791 12.011 -0.00815953 0.00299747 -0.00372445 
C 24.3074 25.9785 22.73 12.011 -0.00450218 0.000550145 -0.00799922 
C 14.54 49.9095 16.8424 12.011 0.00277547 -0.00263467 -0.00151787 
C 34.7611 50.3206 49.6103 12.011 0.000187373 0.00894645 -0.00305097 
C 48.3714 16.6637 28.6347 12.011 -0.0016159 -0.00671799 -0.00291397 
C 20.3455 1.5227 21.0498 12.011 -0.0106884 0.0014421 0.00150033 
C 22.9505 34.4001 23.9628 12.011 -0.00100665 0.00217833 0.00586559 
C 3.77996 50.6912 21.5716 12.011 0.00040199 0.00148485 -0.00402386 
C 26.0565 14.1022 5.21746 12.011 -0.000402806 0.00295116 -0.00550365 
C 41.0916 49.7927 4.08315 12.011 0.000708927 0.00141774 -0.00429657 
C 12.9411 49.7588 32.6746 12.011 -0.00617162 -0.00227506 -0.00124764 
C 45.0566 44.7037 5.6091 12.011 0.00195724 -0.00441772 0.00390235 
C 15.2026 17.618 49.9026 12.011 0.00255321 0.00135074 -0.00231295 
C 36.453 46.4176 2.83704 12.011 0.00546721 -0.00648232 0.00168646 
C 16.0012 22.5637 32.7691 12.011 0.00046664 0.00241353 0.00434336 
C 40.3256 45.1774 11.3509 12.011 0.00599242 0.00197522 -0.00199881 
C 1.82871 50.7991 16.9798 12.011 -0.00198432 -0.000588691 -0.00141947 
C 23.745 14.3736 26.3849 12.011 -0.000492479 0.00147871 -0.00130378 
C 14.2063 16.3038 38.186 12.011 0.0057262 -0.00281942 0.00334141 
C 14.8655 17.3379 38.0816 12.011 -0.00210979 -1.80286e-05 -0.003161 
C 0.704561 38.7383 9.63338 12.011 0.00293551 -0.000758685 0.00501793 
C 30.8108 40.7821 2.0013 12.011 -0.000641725 0.000780982 -0.00501471 
C 26.3837 19.3782 34.9938 12.011 -0.00672911 0.00353049 -0.000661723 
C 27.0305 17.8978 45.0053 12.011 7.78631e-05 0.00244653 -0.000135822 
C 12.6101 32.8515 27.9342 12.011 0.00748653 -0.00477347 0.000283898 
C 24.1228 46.9621 10.8101 12.011 0.00148035 0.00050958 -0.00171491 
C 14.3627 13.522 14.5352 12.011 0.00179445 -0.00319287 0.00308013 
C 10.1977 9.00494 18.5677 12.011 0.000888577 0.00263949 -0.00144553 
C 35.1393 6.65765 16.9548 12.011 0.00295287 0.00327819 0.00289774 
C 22.7102 47.0632 10.3992 12.011 -0.00441369 -0.0015785 0.00668197 
C 23.621 20.4441 16.517 12.011 -0.00206251 -0.00329602 -0.00270551 
C 37.062 6.44757 25.507 12.011 -0.0029317 0.00232495 -0.00837936 
C 27.001 30.5954 24.9396 12.011 0.00720874 0.004187 -0.00264157 
C 8.734 41.0985 12.7794 12.011 0.00568722 0.00236063 0.00502596 
C 42.7763 13.5116 48.6161 12.011 -0.00712419 0.00220446 0.00109325 
C 42.6285 33.4836 35.4355 12.011 0.00564348 -0.00140119 0.00453603 
C 14.2094 19.0095 7.60458 12.011 -0.00397833 -0.000182046 -0.00818088 
C 44.9594 26.537 22.8471 12.011 -0.0023587 0.00703196 -0.00637192 
C 33.2437 41.8573 21.9336 12.011 0.000169846 -0.00157607 0.00370426 
C 30.5573 1.59875 41.6872 12.011 0.000647674 0.00768094 -0.00282819 
C 18.2486 42.773 3.30999 12.011 -0.00339721 -0.00719852 0.0010849 
C 31.9614 34.7922 36.0896 12.011 -0.00124933 -0.00413466 -0.000767998 
C 48.1816 35.7833 31.0775 12.011 0.00207218 0.006938 0.00451921 
C 42.6259 10.1783 35.1206 12.011 0.0070648 0.00862628 0.00638727 
C 2.6539 45.1506 3.02387 12.011 -0.00392431 -0.00522723 0.000827196 
C 2.43674 12.0178 15.9068 12.011 -0.00180019 -7.20479e-05 -0.00790927 
C 15.6996 14.0287 22.7323 12.011 0.00457062 0.00186451 0.00273568 
C 41.8787 29.1667 9.47421 12.011 -0.00693677 0.00912324 0.00225228 
C 25.2616 18.6642 34.4662 12.011 -0.00394841 0.00808085 -0.00421839 
C 40.0979 10.1676 15.0579 12.011 0.00297679 0.0010523 0.0116035 
C 11.7469 12.8545 17.8846 12.011 0.00267321 0.00263662 0.00428018 
C 27.1073 31.8639 25.6401 12.011 -0.00120464 -0.00145683 0.00362864 
C 32.0766 37.9899 8.69991 12.011 0.00465507 -0.0016611 0.00180183 
C 50.84 41.9248 47.8062 12.011 -0.00143127 0.00612415 0.00161924 
C 11.2368 14.9769 32.7166 12.011 0.00450627 -0.00270564 -0.00373701 
C 5.23832 39.4964 49.4358 12.011 0.00406027 0.00465862 -0.000574756 
C 28.406 47.2971 47.4591 12.011 0.00340749 -0.000754121 -0.00194283 
C 31.6423 31.1227 14.9409 12.011 0.00420904 -0.00313309 0.00769495 
C 42.7826 29.4274 1.21596 12.011 -0.00350983 -0.00378984 0.00271708 
C 24.5793 26.919 42.1857 12.011 -0.000619086 0.00648248 0.00105578 
C 48.8651 1.41654 45.4297 12.011 0.00490273 0.00369673 0.00429845 
C 2.50226 31.2774 5.74323 12.011 0.000884258 -0.00516643 -0.00652268 
C 10.3857 2.36581 34.9929 12.011 0.00967969 -0.00768924 -0.00517978 
C 17.7843 42.4028 46.425 12.011 0.0038023 -0.00788816 0.00681781 
C 35.121 49.5783 22.23 12.011 0.00189551 -8.2268e-05 0.00691384 
C 36.5651 32.5081 24.7637 12.011 -0.00048055 -0.00302247 0.00199025 
C 1.59968 32.1551 38.0042 12.011 6.04308e-05 0.00750219 -0.00128723 
C 8.91041 12.8455 1.66078 12.011 0.00165682 0.000941465 0.00224475 
C 5.4325 48.5955 27.5171 12.011 -0.000297728 -0.00179582 -0.00141395 
C 37.334 4.74347 11.8613 12.011 0.000777016 -0.0052832 0.00292581 
C 34.3885 0.813529 38.4786 12.011 0.000187064 0.000723784 -0.00133794 
C 46.9356 30.7169 22.8795 12.011 -0.000234498 -0.00213921 0.003107 
C 24.402 39.8616 29.1967 12.011 0.00084125 0.0147523 -0.00563816 
C 45.7207 50.2203 36.4808 12.011 0.00561441 -0.00213712 0.00249682 
C 47.1123 31.0226 2.28691 12.011 -0.00490005 -0.00679504 -0.00465018 
C 34.473 27.9533 24.7563 12.011 0.00363067 0.000638872 -0.00131386 
C 20.1751 18.2502 37.6713 12.011 0.00134589 -0.00195216 -0.00498096 
C 32.9465 31.9028 17.1924 12.011 -0.00683026 -0.00112645 -0.00450303 
C 34.5954 26.8054 15.0159 12.011 -0.00752253 -0.00316617 -0.0038685 
C 33.3183 10.8962 42.2319 12.011 0.00717708 -0.00246685 0.00199051 
C 32.4337 14.5141 41.9009 12.011 0.00152528 0.00193883 0.00938471 
C 41.2577 16.2866 44.5482 12.011 0.00142878 -0.00199003 0.00662505 
C 32.695 18.7173 46.9823 12.011 0.000590255 -0.00102785 -0.00595151 
C 16.897 5.22501 6.71141 12.011 -0.00450271 0.00147595 -0.00346607 
C 21.7597 35.3902 15.2147 12.011 -0.00373162 0.000282224 -0.00231323 
C 31.8066 19.0648 51.0227 12.011 0.00593536 -0.00784713 -0.00613704 
C 9.45472 47.3411 27.2674 12.011 0.00232809 0.00422724 -0.00457706 
C 40.0158 27.5115 33.8409 12.011 0.0055539 0.00098871 0.00538773 
C 15.2787 40.4851 24.7476 12.011 0.0002554 -0.00249634 0.00157852 
C 14.56 23.799 39.578 12.011 0.00244309 0.00124596 -0.000804685 
C 27.7696 35.4879 6.14256 12.011 -0.00329701 0.00233835 0.00152551 
C 21.0063 33.5548 17.2965 12.011 -0.00616149 -0.00157434 0.00181005 
C 36.3771 20.4021 18.3383 12.011 -0.00253465 -0.000627415 -0.00255369 
C 12.9529 35.05 40.8163 12.011 0.00465916 0.00434306 -0.00322774 
C 0.452844 5.15723 41.1282 12.011 0.00438488 -0.0037372 0.000388786 
C 6.48782 36.2217 34.0632 12.011 0.00326411 0.000245488 -0.00478777 
C 32.9256 30.8087 49.1394 12.011 -0.000529344 0.00915972 0.00133726 
C 19.9083 28.3362 35.9399 12.011 0.00325211 0.00174831 0.00958043 
C 46.0211 47.6732 3.4867 12.011 0.00800572 0.00688569 -0.002576 
C 2.51398 25.7262 44.4165 12.011 0.00668843 -0.00533443 -0.00347655 
C 39.8709 17.7591 36.0125 12.011 -0.000812149 -0.00388702 -0.00425871 
C 22.9926 24.582 7.41601 12.011 0.00242463 -0.00368008 0.00426306 
C 50.2671 16.4103 44.1338 12.011 -0.000427031 -0.000547613 -0.00145714 
C 17.1605 24.6079 14.1565 12.011 -0.000753338 -0.000949506 0.000522691 
C 27.4402 31.921 42.7361 12.011 -0.000340656 -0.00725775 -0.00336176 
C 12.6851 21.8858 24.9057 12.011 0.00424997 -0.00329855 -0.00149922 
C 18.91 22.5907 8.05096 12.011 0.00487594 0.00175313 0.00149697 
C 44.7974 37.1082 33.402 12.011 0.00629031 0.00919527 -0.00519393 
C 11.6531 46.3246 17.2945 12.011 0.00828426 0.00169089 -0.00439039 
C 28.8039 6.27953 35.7367 12.011 0.0106701 0.000491626 -0.0069429 
C 26.2838 4.72545 47.2467 12.011 0.00405203 -0.00316314 0.000242659 
C 30.3674 40.366 35.055 12.011 0.00453144 -0.00157971 -0.0084644 
C 22.7472 25.0864 29.1693 12.011 -0.000781186 -0.000536528 -0.00161814 
C 16.8039 22.5835 39.7415 12.011 0.00464232 -0.00542365 -0.00258298 
C 1.80984 13.9452 28.2068 12.011 -0.000129351 -0.00529498 0.00256722 
C 46.5337 25.6196 6.32228 12.011 -0.00586711 -0.00148111 -0.00162579 
C 7.71597 45.697 13.1659 12.011 -0.00127913 0.00848979 -0.00137711 
C 32.384 46.3345 35.3794 12.011 0.00377638 -0.000802129 0.00877332 
C 26.7685 20.763 22.8614 12.011 -0.00791601 0.00355353 0.00176195 
C 32.3809 32.3431 1.49432 12.011 -0.00375149 -0.00395645 -0.00587873 
C 0.971529 49.1521 29.6191 12.011 0.000773893 -0.003548 0.00063218 
C 12.1356 26.3892 35.6182 12.011 0.00283358 0.00111909 0.00151892 
C 12.9229 42.2842 44.7445 12.011 0.002887 0.000414785 0.00633058 
C 18.5733 23.7401 23.2241 12.011 -0.00369925 0.00393237 -0.00226217 
C 48.4716 9.62644 19.3501 12.011 -0.00156009 0.00406121 0.00844313 
C 3.72425 42.2478 22.2153 12.011 0.00353409 -0.000113993 0.00288732 
C 1.18804 41.5922 47.5452 12.011 0.0045754 -0.0003673 -0.00468714 
C 34.8166 0.0633482 40.791 12.011 0.00159456 0.00925846 -0.00347998 
C 42.5691 49.0885 11.2443 12.011 -0.00841877 0.000969834 0.00042159 
C 41.8904 39.598 40.0248 12.011 0.0036073 -0.00533887 0.00307831 
C 34.8089 1.23401 15.4151 12.011 -0.000554296 -0.00175723 0.00698827 
C 19.1452 5.18194 46.8206 12.011 0.00175401 0.00177859 -0.00111996 
C 17.9375 30.3948 35.7493 12.011 0.0093996 0.00246734 0.00181214 
C 46.0752 27.712 0.854212 12.011 0.00173923 -0.000613613 -0.00309417 
C 35.3736 8.33826 33.2037 12.011 -0.00118665 -0.00232829 0.00833912 
C 16.6554 5.1088 11.6022 12.011 0.00760596 -0.000504485 -0.00786065 
C 16.4158 5.90015 21.2782 12.011 0.00837046 0.00494379 0.00212657 
C 28.5414 10.5312 3.35962 12.011 -0.00432991 -0.00267683 0.000284753 
C 36.0946 7.44558 48.9469 12.011 0.000727144 -0.00301944 0.00309162 
C 29.0837 5.87588 13.2973 12.011 0.00705247 -0.00509791 -0.000394016 
C 16.8707 27.0264 34.4731 12.011 0.00269604 0.00211798 -0.00304615 
C 35.8624 4.22645 17.4357 12.011 -0.00395419 -0.00290142 -0.00078131 
C 14.909 1.61512 48.5711 12.011 -0.00190126 -0.00129666 -0.00118127 
C 8.47398 30.3133 40.6391 12.011 0.000523727 0.00579417 0.00624289 
C 27.6969 39.7499 47.3488 12.011 0.000809351 0.00847618 0.00223359 
C 42.0293 26.6101 24.2992 12.011 -0.00167415 -0.00845372 7.60575e-07 
C 6.84934 20.8068 47.0039 12.011 0.00593899 0.00708512 -0.00335224 
C 14.4823 31.0721 23.6505 12.011 0.000447647 -0.00101966 0.00736795 
C 3.82131 25.9548 38.0837 12.011 -0.00476667 0.00528715 -0.00158445 
C 25.5149 11.5661 28.0307 12.011 0.00505888 -0.00109788 -0.0101372 
C 38.9247 11.6239 21.0701 12.011 0.00191403 0.00354695 -0.00451309 
C 37.31 23.0348 41.6382 12.011 0.00450418 -0.00419509 0.00675855 
C 31.2371 48.149 25.3538 12.011 0.00735646 0.00533111 0.00853814 
C 35.7865 50.9452 35.1431 12.011 0.00137263 0.00246718 -0.00419442 
C 39.8687 14.2832 5.99654 12.011 0.00615041 -0.002127 0.00569572 
C 20.1121 43.0817 12.0714 12.011 -0.00692262 -0.00243869 0.00661875 
C 20.4919 12.4134 21.1461 12.011 -0.00431928 0.00357491 0.00423213 
C 7.71128 42.6103 38.1947 12.011 -0.00327581 1.93071e-05 -0.00526405 
C 48.5574 25.1408 38.7735 12.011 0.00218259 0.000410054 0.00422604 
C 24.5138 0.973925 20.7381 12.011 0.00089825 -0.0052665 -0.0015772 
C 10.0963 27.6736 26.3991 12.011 -0.00471115 -0.00433219 -0.00676293 
C 14.6397 31.9572 50.7044 12.011 0.00951693 -0.00257018 -0.000976361 
C 42.7471 2.80836 30.8057 12.011 -0.00606493 -0.00228198 -0.00619471 
C 27.0048 31.8062 27.0991 12.011 0.0103915 0.00300312 0.008309 
C 8.52509 44.7091 37.274 12.011 0.00553882 -0.00344086 -0.00234803 
C 2.56057 7.90967 24.2726 12.011 0.00244973 -0.00124272 0.00764989 
C 40.5139 34.6019 35.641 12.011 -0.00380226 0.00296725 -0.00128365 
C 17.6122 42.4913 37.9949 12.011 -0.00487935 0.00610147 -0.00591058 
C 9.97918 26.0954 14.5321 12.011 -0.000972494 0.00383783 0.0021433 
C 48.2134 42.1294 34.4267 12.011 -0.00279312 -0.00227287 0.00356469 
C 22.5811 30.7976 14.0426 12.011 -0.00139186 0.00216535 0.0055218 
C 27.8937 50.5492 3.91677 12.011 0.000962252 -0.0078577 -0.000627138 
C 18.4643 1.32326 2.09349 12.011 0.00104435 -0.00162339 0.0100074 
C 49.8064 24.6232 4.93438 12.011 -0.00761867 0.000245625 0.0113306 
C 5.62993 34.6797 41.8321 12.011 0.00429523 0.00283648 0.00615175 
C 43.9396 12.6081 46.4887 12.011 -0.00503237 -0.000628019 0.0027622 
C 18.1342 47.5671 45.5141 12.011 -0.000997033 0.00397888 -0.00196686 
C 21.9592 45.4834 17.7231 12.011 0.00576298 -0.00131998 -0.0077102 
C 41.9578 49.9305 1.62016 12.011 0.000826803 0.00818024 0.00974347 
C 37.1859 45.3817 38.8208 12.011 -0.00317603 1.29079e-05 -0.00881615 
C 42.4105 23.2851 39.9466 12.011 -8.60435e-05 0.00459061 0.00854886 
C 50.1744 34.0611 11.6925 12.011 0.00877279 -0.00112749 -0.0045068 
C 49.9329 8.36463 17.2876 12.011 0.000802963 -0.000433958 0.00162542 
C 47.7314 3.57825 9.90503 12.011 0.00171635 -0.0038068 0.00196448 
C 25.8035 41.6439 19.8299 12.011 0.00024676 -0.000906838 0.00546088 
C 19.359 1.31112 15.2503 12.011 -0.000670932 0.00402434 0.00453356 
C 20.1812 11.0133 0.67155 12.011 -0.00269265 -0.00439411 0.00701073 
C 43.913 15.1281 47.03 12.011 -0.0030649 0.00230471 0.00108056 
C 16.6868 1.40837 36.4945 12.011 0.00954549 0.00471872 0.0013854 
C 38.7354 35.9993 18.2344 12.011 -0.00853016 -0.000763358 -0.000807058 
C 11.1036 19.1947 29.8468 12.011 0.00322693 -0.0075077 -0.00168623 
C 5.55915 25.1833 39.6439 12.011 -0.00516756 -0.0001825 0.00444743 
C 43.4755 6.24959 19.5862 12.011 -0.001902 0.0045994 0.00265768 
C 41.27 30.2666 37.9119 12.011 -0.00138244 0.00180716 -0.00353045 
C 43.5506 34.1654 12.1689 12.011 0.000713103 0.000712106 0.00013524 
C 28.1558 33.4652 33.1989 12.011 0.00568155 0.00430935 0.0060686 
C 47.398 5.29245 17.6972 12.011 0.00089371 -0.00391455 -0.00302034 
C 0.545519 12.7907 48.6074 12.011 -0.00371762 8.85625e-05 0.000303024 
C 35.2491 42.2717 35.5488 12.011 -0.00115979 0.000663203 0.00686231 
C 40.1229 48.7044 27.6676 12.011 -0.00415406 -0.00551542 0.00300495 
C 10.4429 47.5594 50.6991 12.011 -0.00162746 0.00337511 0.00394938 
C 47.3819 15.4987 0.255534 12.011 -0.00304318 -0.00244646 -0.0053997 
C 39.0086 14.5095 46.9053 12.011 -0.00214749 0.00238954 0.000540924 
C 14.2736 29.0178 25.0326 12.011 0.0015467 -0.00149524 0.0015029 
C 0.25283 34.458 10.7486 12.011 0.000620965 0.00133951 -0.00236079 
C 12.2174 31.0577 1.22285 12.011 0.00346476 0.00274668 0.0044397 
C 23.3491 34.4403 41.8674 12.011 -0.000277015 -0.00571208 0.00424545 
C 40.3584 17.2841 28.1679 12.011 -0.0032334 0.000447191 0.000830947 
C 45.0621 21.9663 34.2847 12.011 0.000604762 0.00983268 -0.00120165 
C 42.2633 39.0069 15.9412 12.011 -0.00142032 0.00596582 0.00278002 
C 40.9654 32.1975 15.0205 12.011 -0.00410265 0.00641077 -0.00138705 
C 4.20679 19.2006 41.4627 12.011 0.00197074 -0.00106124 0.00329964 
C 38.7677 32.622 39.608 12.011 -0.0087526 -0.00218909 0.00267417 
C 22.2133 43.8725 37.3577 12.011 0.00160427 0.000337926 -0.000162253 
C 27.0941 20.5695 24.2364 12.011 0.00231127 0.00300483 -0.00450432 
C 10.884 41.2943 41.5905 12.011 0.000383219 0.00612757 -0.00569903 
C 5.33213 38.0336 22.9864 12.011 0.00300517 0.00119809 -0.00402086 
C 5.44394 14.4512 37.274 12.011 -0.00432332 -0.000807623 0.00448181 
C 34.393 2.15464 38.9555 12.011 -0.00508657 0.000715797 -3.72556e-05 
C 8.41283 3.81736 18.6534 12.011 0.00233198 0.00799566 -0.00444675 
C 38.9799 36.3136 16.8705 12.011 -0.00345447 -0.000626383 0.000982598 
C 46.7934 20.8215 10.8946 12.011 -0.00835525 -0.0032934 0.00180741 
C 28.8977 39.9998 30.4164 12.011 0.00145874 -0.000161245 0.00159737 
C 3.84219 35.4791 4.0981 12.011 -0.00382514 0.00245085 -0.00393791 
C 42.2041 14.6353 28.3397 12.011 -0.00295874 0.00254134 0.00109718 
C 34.7182 7.52134 21.4518 12.011 0.00154492 -0.00603006 -0.00302461 
C 25.9711 5.53079 49.5492 12.011 0.00062688 -0.00773016 -0.00477668 
C 2.44003 20.7281 5.23247 12.011 -0.00340068 0.00652302 -0.000525742 
C 7.51949 26.6886 39.9228 12.011 -0.00015788 -0.00219481 0.00160283 
C 39.2411 41.6615 43.8531 12.011 1.58936e-05 0.0001087 0.00625435 
C 35.747 15.9177 31.1065 12.011 -0.00244121 0.000970059 -0.00597344 
C 37.0455 32.8467 4.69277 12.011 -0.0040743 -0.000205062 0.00168152 
C 45.4676 34.5404 3.81573 12.011 -0.00547759 -0.00224188 -0.0027295 
C 22.4742 50.5894 14.0087 12.011 0.00545993 -0.00317491 0.00311116 
C 36.0255 17.9705 45.194 12.011 0.0104081 -0.0034013 -0.00327885 
C 11.2501 23.1035 17.941 12.011 0.000468448 0.00251762 -0.0037869 
C 26.5509 43.0911 43.7865 12.011 -0.00611899 -0.0069117 0.00458799 
C 9.12765 20.8619 11.8771 12.011 0.00214506 0.0010743 0.00243647 
C 37.7322 35.3147 10.8602 12.011 -0.000567007 -0.0042685 0.0032347 
C 32.0258 50.5006 28.8536 12.011 0.00747416 -0.00113789 -0.000287904 
C 5.78982 11.6891 3.27122 12.011 -0.00616362 -0.000824159 0.000991305 
C 18.7919 3.03476 9.29738 12.011 0.000143743 -0.00625879 -0.00683755 
C 23.8804 44.2954 40.759 12.011 0.000711407 0.0114233 0.000910223 
C 47.4372 4.83801 43.9332 12.011 -0.000800948 -0.00572007 0.00147782 
C 37.8417 18.7051 27.6917 12.011 -0.00147311 -0.000933056 -0.00281058 
C 46.5826 43.2601 17.1218 12.011 0.000281479 -0.00139747 0.00349894 
C 45.3647 15.1398 41.9408 12.011 -0.00294583 0.00187801 -0.00180497 
C 40.8034 25.1218 20.7409 12.011 0.00380258 -0.00597897 0.0103743 
C 5.96563 26.0316 34.886 12.011 8.794e-05 -0.00533425 -0.00188175 
C 9.48386 0.0707782 18.2567 12.011 -0.00152801 0.000439551 0.00572446 
C 33.4896 50.0063 20.4038 12.011 -0.00861752 0.00171172 0.00783629 
C 39.2151 21.6295 3.5672 12.011 -0.00144746 -0.00347241 -0.00186903 
C 19.1966 29.8294 21.2255 12.011 0.00535993 0.00459151 -0.00181481 
C 31.1392 8.71644 7.01083 12.011 0.00264858 0.00534981 -0.00365385 
C 40.3541 41.4743 40.2707 12.011 0.00738083 0.00177216 0.00262685 
C 1.26168 34.2807 48.3814 12.011 -0.00408292 0.00210767 0.00490859 
C 4.2152 25.5894 30.3289 12.011 0.00500613 0.00263378 0.000350847 
C 40.3437 45.3925 49.5752 12.011 0.00334871 -0.00121594 0.000276571 
C 35.8816 0.332766 15.5144 12.011 -0.00611846 0.000249822 0.00248695 
C 37.4623 15.1393 15.8304 12.011 0.00895795 -0.0170084 -0.00036153 
C 19.4797 14.6783 46.975 12.011 -0.00116921 -0.00514667 0.00438814 
C 16.4087 20.0872 26.0976 12.011 0.001914 0.0012207 -0.00117994 
C 24.9544 1.35297 49.7961 12.011 0.00321909 -0.00201725 -0.004737 
C 23.8239 7.70692 0.870771 12.011 0.00242572 -0.000802819 -0.00473155 
C 6.07466 15.5179 13.11 12.011 -0.00385869 -0.00618019 -0.0010766 
C 46.7763 12.8759 27.6748 12.011 0.0068471 -0.00196872 0.00285346 
C 44.8184 6.54017 13.0636 12.011 -0.00067659 0.00242101 0.00122534 
C 24.7183 31.9209 42.0378 12.011 -0.000834192 0.00103118 -0.00222038 
C 44.7287 4.06557 39.8446 12.011 0.0020546 -0.00403167 0.00450407 
C 2.05213 37.1596 4.38896 12.011 -0.0021588 -0.00442777 -0.00154927 
C 4.54221 31.7525 9.62167 12.011 -0.00133473 -0.000721924 0.00384135 
C 36.9804 6.77921 44.1843 12.011 -0.00376694 0.00561951 0.00647346 
C 44.9129 37.3774 39.6289 12.011 0.00106066 -0.0055726 0.00279793 
C 8.04884 9.69851 44.2095 12.011 0.00571728 -0.00575091 0.00233882 
C 8.51287 25.017 8.98554 12.011 0.00559346 -0.00964812 0.00235304 
C 31.4288 47.5057 0.411458 12.011 -0.00376988 -0.00588382 -0.00578175 
C 9.60216 3.24037 25.8812 12.011 -0.00362546 -0.00350441 -0.000997013 
C 18.087 40.8778 10.1077 12.011 0.00184796 0.00164958 0.00570504 
C 30.3367 3.4002 26.3922 12.011 -0.00313824 -0.001257 -0.00371718 
C 10.599 49.0966 36.841 12.011 0.00264864 -0.000102627 0.00201516 
C 37.3904 45.3105 40.253 12.011 -0.00307245 -1.55626e-06 0.00313297 
C 49.2171 0.854172 3.89622 12.011 -0.000881977 -0.00361971 0.00284388 
C 2.65057 14.5142 48.98 12.011 -0.00530179 -6.22194e-05 0.00418373 
C 29.2851 44.4262 7.92731 12.011 -0.00186066 -0.00343097 0.00191663 
C 39.2947 5.9504 14.6483 12.011 -0.00411813 -0.00074768 -0.000914749 
C 49.301 13.5139 10.0847 12.011 0.00667287 -0.00657034 0.00545021 
C 43.455 47.5626 14.6988 12.011 -0.00349416 0.00652875 -0.00172842 
C 42.6847 13.1503 50.111 12.011 0.00206966 0.0034531 0.00623789 
C 9.89661 45.5463 38.9256 12.011 0.00305649 -0.00222949 0.00494298 
C 21.7837 41.006 45.8619 12.011 -0.00639171 -0.000286999 0.00537996 
C 18.5181 2.6912 2.04525 12.011 0.00850433 0.00090838 0.0043415 
C 39.0307 16.923 14.9309 12.011 0.00376568 0.0040387 -0.00629847 
C 49.9402 45.0064 44.1348 12.011 0.00362686 9.33169e-05 0.00255412 
C 11.0412 22.339 40.0354 12.011 -0.00447594 0.00277614 0.00199832 
C 22.725 36.7471 26.6957 12.011 0.00236023 0.00241732 -0.00384909 
C 24.5301 30.4633 46.6356 12.011 0.00171707 -0.00416201 -0.00442985 
C 21.1043 2.33943 25.7102 12.011 -0.000407995 0.00496837 -0.00287063 
C 18.9665 25.2801 21.4212 12.011 0.00493043 0.000354624 -0.00584037 
C 23.5282 4.60709 4.71029 12.011 -0.00359674 0.00161128 -0.00345473 
C 35.2088 46.5677 0.520713 12.011 -0.00279265 -0.000886526 0.00299097 
C 12.2078 20.3789 6.78842 12.011 0.00306267 -0.00402319 -0.00837653 
C 9.28024 11.1522 20.117 12.011 -0.00574378 -0.0028479 -0.00419101 
C 38.4875 16.8223 17.2269 12.011 0.00519089 0.00325045 0.00120714 
C 27.5968 18.6081 41.3517 12.011 0.00116469 -0.00154737 0.00258577 
C 11.5321 17.8108 42.152 12.011 -0.00658487 0.0087371 0.00487855 
C 41.9346 48.9121 29.4644 12.011 -0.00125977 0.000110792 -0.00246646 
C 44.4219 41.6272 29.8316 12.011 -0.00711349 -0.0104989 -0.000582248 
C 47.1049 41.493 15.4722 12.011 -0.00194487 -0.00158455 -0.00353389 
C 20.8145 40.7071 44.8662 12.011 0.000867 0.00237106 -0.00190552 
C 26.9728 42.2995 25.3083 12.011 -0.00184735 0.0019309 0.00404495 
C 0.661516 20.5561 43.8269 12.011 0.00187471 0.00306997 -0.00766894 
C 27.6209 42.3011 0.961404 12.011 0.0077706 -0.00397196 -0.00672139 
C 41.3523 30.9265 21.472 12.011 -0.00468531 -0.0098492 0.00344714 
C 15.3636 46.0443 20.8765 12.011 0.00718047 0.00970024 -0.00094725 
C 18.1904 0.599819 0.955608 12.011 0.0017988 0.00129536 0.0107725 
C 20.5848 48.0075 11.0504 12.011 0.00942786 0.00584614 -0.00484573 
C 26.1388 38.124 28.0812 12.011 0.00555339 -0.00221426 -0.00400921 
C 32.9463 33.1858 49.8582 12.011 -0.00595555 0.0018519 -0.00600832 
C 4.33317 23.2903 29.4344 12.011 0.00275981 -0.00414917 0.000466469 
C 40.0627 1.81952 0.498306 12.011 0.000565652 -0.00302977 0.000418643 
C 44.6802 24.2588 33.3577 12.011 -0.000752239 0.00483028 -0.00126011 
C 7.92771 48.1499 20.0667 12.011 0.00162432 0.0060427 -0.00419378 
C 38.5118 35.6412 12.0209 12.011 0.00313509 0.00306258 -0.00575542 
C 43.5985 40.0021 24.1458 12.011 0.00746352 0.0026823 0.00199463 
C 48.1813 33.6454 32.2596 12.011 -0.00430366 0.011921 -0.000736167 
C 3.19246 47.6835 40.1467 12.011 -0.00327491 0.00516798 7.51916e-05 
C 27.5875 27.3281 26.5699 12.011 0.00180915 -0.00392931 0.00274821 
C 19.3428 32.2141 40.0311 12.011 -0.00284016 -0.000149041 0.00982831 
C 37.7278 18.1782 37.1989 12.011 0.00581801 -0.00199352 0.00162577 
C 10.3548 37.2165 32.0661 12.011 0.00352865 -0.00179791 0.00132328 
C 4.53689 46.9815 0.332433 12.011 -0.00512307 -0.0137987 0.00164568 
C 11.8626 3.48939 43.5641 12.011 -0.00127251 0.00268692 -0.00581566 
C 28.8142 14.7708 20.4293 12.011 0.00566337 -0.00587409 0.00280717 
C 19.3766 46.5284 20.1193 12.011 0.000445074 -0.00382245 -0.0019419 
C 39.1583 17.5425 16.1534 12.011 0.00694807 0.00476799 -0.00107612 
C 42.0657 16.7099 35.0614 12.011 0.00370509 0.00632885 -0.00514517 
C 17.9118 22.2358 25.04 12.011 -0.0130063 0.00468624 -0.000835435 
C 26.6647 31.6884 22.8487 12.011 -0.00507598 -0.00153155 0.00305137 
C 8.56952 41.4599 47.6512 12.011 -0.00966696 0.00241989 0.00236969 
C 31.7476 37.4126 45.3987 12.011 0.00183704 -0.000484541 -0.00290784 
C 4.48066 47.6923 40.8215 12.011 -0.00170936 0.00410728 0.00576189 
C 38.4356 25.1976 19.761 12.011 -0.00265655 0.000778851 0.00572864 
C 8.24143 19.9799 11.2455 12.011 -0.00186757 0.00427233 -0.000426181 
C 14.8416 13.5093 42.7337 12.011 0.010106 0.0057598 0.00218782 
C 9.22097 13.2332 38.69 12.011 -4.02252e-05 0.0047763 0.00582923 
C 42.3978 10.6287 14.9808 12.011 0.00101329 0.00206403 0.00759149 
C 10.8853 15.2722 22.1568 12.011 -0.000100985 0.00562889 -0.000751974 
C 46.6674 38.1962 46.0942 12.011 0.00214147 0.00445757 0.0052073 
C 31.4721 23.3653 13.3664 12.011 0.00521035 -0.00688397 0.00638276 
C 2.83343 19.135 41.8353 12.011 0.00571003 0.0013507 -0.00746304 
C 44.2757 26.5215 32.2049 12.011 0.00797492 0.00809691 -0.00297734 
C 20.1149 28.6607 14.4449 12.011 0.00667418 0.00462485 -0.00122918 
C 18.2472 5.45284 1.76502 12.011 0.0049204 -0.00230369 -0.00420618 
C 7.08964 15.8647 25.8905 12.011 0.00255843 -0.00289954 0.00041948 
C 18.5516 22.0554 10.4731 12.011 -0.010733 -0.00330752 -0.000218273 
C 40.7619 29.0479 38.4792 12.011 0.00576668 -0.00255397 0.0063359 
C 28.8041 20.4712 34.0216 12.011 -0.00270514 -0.00197331 -0.00684722 
C 46.6351 9.15371 43.9963 12.011 0.00456003 -0.00281188 -0.00809829 
C 43.8225 33.8529 9.58588 12.011 -0.00229537 0.0026211 -0.00369604 
C 50.2559 3.88202 1.05766 12.011 -0.00337477 -0.00615302 0.00156099 
C 45.6123 13.9848 41.4657 12.011 -0.00284556 0.00517896 -0.00877428 
C 7.88196 11.9698 21.9757 12.011 0.00646798 0.000576387 0.000315774 
C 49.3566 2.48745 5.65547 12.011 0.00289398 0.00159651 0.00048956 
C 11.9999 8.73153 36.0735 12.011 0.00324173 0.0042515 0.00126171 
C 4.20678 39.0851 39.4533 12.011 -0.00568911 0.00160982 0.00129345 
C 32.0848 41.6097 18.2299 12.011 -0.00116737 0.00236679 -0.0011962 
C 35.1743 22.8919 46.022 12.011 -0.00576389 0.00423926 -0.00465822 
C 44.5188 42.7734 18.4247 12.011 0.00181847 -0.000809711 0.000695077 
C 12.1321 33.8504 12.008 12.011 -0.00729196 -0.00309819 -0.000811161 
C 36.8407 45.0461 9.96194 12.011 0.00985392 -0.000485039 0.00104903 
C 45.6851 7.85296 27.1509 12.011 -0.000215467 0.00705274 0.00146819 
C 2.30396 40.7695 25.8809 12.011 -0.00331058 0.00513629 -0.00761518 
C 48.4711 23.1951 18.9436 12.011 0.00513848 0.00106654 -0.000761693 
C 19.1657 19.639 41.6915 12.011 -0.00199824 -0.00849741 -0.0033939 
C 28.7679 17.0578 36.6428 12.011 -0.00777323 0.00415137 -0.00179288 
C 6.65524 42.8367 37.3175 12.011 0.00936357 -0.00607659 -0.00586055 
C 25.0765 11.8645 15.7023 12.011 -0.00199313 -0.00149358 0.0030737 
C 2.77792 14.916 28.6797 12.011 0.00547951 -0.000622634 -0.00672088 
C 47.5406 30.2759 21.663 12.011 0.00281914 -0.00102938 0.00648367 
C 34.5506 14.0021 40.6156 12.011 0.00181725 0.000579334 0.00661236 
C 38.9696 15.2207 3.85493 12.011 -0.000718351 0.000411094 -0.00266393 
C 36.9611 6.94831 18.744 12.011 0.00554571 0.00174789 -0.00741481 
C 48.2682 21.5066 34.6166 12.011 0.00157535 -0.005528 0.00637174 
C 27.4319 35.681 4.7974 12.011 -0.00256826 0.000476075 -0.000303544 
C 12.2151 24.8571 39.4936 12.011 0.000938232 0.00600215 -0.00384101 
C 10.4648 28.4068 3.38251 12.011 -6.47047e-05 -0.00647981 -0.00454046 
C 40.007 27.0394 23.1649 12.011 -0.00200576 -0.00899569 -0.00302975 
C 29.5291 7.52837 46.2671 12.011 -0.0121293 0.000186356 -0.00129118 
C 32.2698 13.7845 5.79253 12.011 -0.00109575 -0.00529382 -0.00135765 
C 29.9674 4.75026 26.3534 12.011 -0.00274976 -0.00520239 -0.00373292 
C 43.2691 8.44473 7.73131 12.011 0.00362787 0.00831338 -9.18327e-05 
C 39.4672 1.07955 3.16915 12.011 -0.00691418 -0.0060435 -0.00145642 
C 7.70764 17.4246 11.7388 12.011 0.000217751 -0.00449752 -0.00415482 
C 45.5251 3.09612 28.3431 12.011 0.00579515 0.0127183 0.00346019 
C 31.4964 13.9884 35.6935 12.011 0.00802018 -0.00286725 0.0070212 
C 39.9592 6.94738 36.0235 12.011 -0.00179072 0.00343866 -0.00475762 
C 25.5065 45.4813 19.5079 12.011 -0.00522736 -0.00398238 -0.00144208 
C 48.7037 18.8567 20.261 12.011 0.000963881 0.00893636 0.00212193 
C 43.7635 14.6352 48.5003 12.011 0.00204176 0.00241604 0.00245234 
C 43.748 32.8652 17.4015 12.011 0.00135407 -0.00332324 0.00610053 
C 22.5102 48.4798 4.35765 12.011 -0.00323045 0.00192504 0.000983887 
C 48.1487 27.311 37.7165 12.011 0.0031325 -0.000435739 -0.00100826 
C 15.1379 31.459 34.1819 12.011 -0.00335173 0.00492728 -0.00497467 
C 0.2334 47.4076 31.0722 12.011 0.00819404 0.00125451 0.00206751 
C 20.9433 30.0039 12.3284 12.011 0.00205619 -0.00815881 0.00489868 
C 9.75468 13.2264 2.77831 12.011 -0.000997294 -0.00663248 0.00248955 
C 36.6268 19.5934 19.5111 12.011 0.00846348 -0.000363741 -0.00951467 
C 6.1246 9.42931 10.5623 12.011 -0.00250316 0.0026444 -0.00227829 
C 34.2918 3.9399 35.6059 12.011 -0.00382597 0.00130342 -0.000972805 
C 5.02409 7.26482 10.9069 12.011 -0.00307372 -0.00600349 0.00492944 
C 17.5092 21.7779 16.1654 12.011 -0.00612738 0.00644792 0.00184398 
C 17.5785 20.7005 20.3172 12.011 0.00354162 0.000308703 0.00885175 
C 46.1434 25.9927 22.1787 12.011 -0.003385 -0.00529675 -0.00394529 
C 12.0128 27.2438 15.3809 12.011 -0.00396415 -0.00762261 -0.00452769 
C 25.6375 4.58382 48.4992 12.011 -0.00578595 -0.00193131 0.00631477 
C 9.49097 39.9602 31.6462 12.011 0.00147396 -0.00176429 0.00516653 
C 8.96483 30.0058 12.9612 12.011 0.00231321 -0.00274314 -0.00103897 
C 33.415 41.3567 11.6799 12.011 0.000718037 -0.00817678 -0.00308206 
C 42.0779 39.9606 18.1998 12.011 0.000368408 -0.00212672 0.00197756 
C 16.9629 24.1177 1.96478 12.011 -0.00112156 0.00386961 0.00787836 
C 37.4849 45.9069 42.9088 12.011 0.000891386 -0.000361653 0.00694687 
C 32.6996 11.8927 14.5624 12.011 -0.00155632 0.00259242 -0.00638988 
C 24.9766 44.6009 42.9648 12.011 -0.000385671 -0.01041 0.000364162 
C 10.0151 6.63179 17.962 12.011 -0.00209126 -0.00163127 0.00289311 
C 5.64372 22.3529 10.9749 12.011 -0.00175919 0.00302158 0.00546277 
C 38.867 14.0824 4.88679 12.011 -0.00219504 -0.00346628 0.00446089 
C 48.3464 22.6755 4.70794 12.011 -0.00536931 0.000494929 0.00285898 
C 47.9214 47.3314 37.1013 12.011 -0.000207957 0.0051777 -0.000319927 
C 45.4592 2.81501 39.7956 12.011 -0.00218559 -0.000387375 -0.000430252 
C 10.5649 43.9465 32.8376 12.011 0.0042135 0.00732841 3.2398e-05 
C 7.88836 34.4026 8.12193 12.011 -0.00184718 -0.0048253 -0.00366086 
C 30.782 12.2378 50.2325 12.011 0.00294282 -0.00598601 -0.0052908 
C 12.0638 16.979 15.8318 12.011 0.000780215 0.00145957 0.00974918 
C 48.2767 42.6196 27.8226 12.011 -0.0119669 0.00600171 0.00567609 
C 5.19519 11.3079 25.2437 12.011 -0.00278964 -0.00018678 -0.00235505 
C 31.8697 0.842408 28.7832 12.011 0.00375927 -0.00241668 0.0028659 
C 47.3215 17.0197 4.43485 12.011 0.00446274 0.00293143 -0.00518822 
C 42.7495 47.7283 29.4001 12.011 0.00216345 -0.00141851 -0.000443021 
C 20.572 45.7867 37.6523 12.011 -0.00544312 0.00302641 0.0017592 
C 43.6365 16.4774 42.8546 12.011 0.00105703 0.00469174 -0.00353144 
C 31.429 3.83792 14.7572 12.011 0.00230861 0.00521344 0.00507016 
C 34.1961 41.8241 37.9834 12.011 0.00389134 -0.00549475 -0.00146371 
C 0.00897794 19.5103 14.1856 12.011 6.29802e-05 0.00493364 0.00094893 
C 39.4654 25.5777 20.6983 12.011 -0.00665557 -0.00632219 -0.00537558 
C 30.8162 16.2304 26.7199 12.011 -0.00290422 0.00119982 0.00186236 
C 33.4635 30.2455 19.3505 12.011 0.00380442 0.00909066 0.00654072 
C 11.951 48.422 1.61162 12.011 -0.00667995 0.00499157 0.00497145 
C 5.6861 18.5379 21.7815 12.011 -0.00343078 -0.000230366 0.00614777 
C 9.8602 22.8172 9.96618 12.011 0.00780164 0.0039325 -0.00195823 
C 37.5216 26.2094 19.5476 12.011 -0.000755901 0.00323363 -0.00139165 
C 23.8913 5.96792 32.5727 12.011 0.00225003 0.00433094 0.000509708 
C 48.8045 47.8207 37.9955 12.011 8.03597e-05 -0.00183952 -0.000415097 
C 12.6945 3.2582 29.0944 12.011 0.00474489 -0.00352507 0.000274137 
C 11.8187 29.6074 8.88342 12.011 0.00798222 -0.00655952 -0.00290482 
C 33.0326 43.6637 31.5051 12.011 -0.00721881 0.0029271 -0.0015145 
C 46.4987 44.0744 12.7578 12.011 -0.00459475 0.00294954 0.00128784 
C 7.90326 29.078 13.11 12.011 0.00268093 0.000992131 -0.00149837 
C 38.6706 14.9165 9.92362 12.011 -0.000309542 0.00122474 -0.000734771 
C 7.90202 9.97851 28.2209 12.011 0.00725228 0.00281288 0.00250917 
C 49.5377 30.1303 13.1263 12.011 -0.00267581 -0.00277009 2.57768e-05 
C 17.5578 22.2399 7.81112 12.011 0.00057748 -0.00334786 -0.00367086 
C 6.88713 35.7019 35.2129 12.011 0.00133024 0.00493158 0.00404314 
C 23.0584 46.4034 42.8873 12.011 -0.00298188 -0.000456717 -0.00327614 
C 39.1716 16.6901 28.6438 12.011 0.00224782 0.00291828 -0.00731368 
C 10.1157 45.1743 13.9863 12.011 0.00344753 -0.000402484 0.0030541 
C 21.7281 15.6088 20.4793 12.011 -0.00180863 0.00725698 -0.00153758 
C 45.8688 38.4071 39.1865 12.011 -0.00389044 0.00585774 -0.00219534 
C 30.2982 13.6368 43.4842 12.011 0.00386149 -0.00301607 -0.00245846 
C 16.5943 9.5363 21.5461 12.011 0.000967748 -0.00467348 0.00697458 
C 25.1818 9.83868 42.5492 12.011 -0.001409 0.00398821 -0.00640729 
C 23.3451 23.6373 3.19878 12.011 -0.00288247 -0.00142853 0.00257177 
C 33.1333 23.2071 2.25276 12.011 0.00875878 0.0072206 0.00112594 
C 48.4169 24.5395 21.4277 12.011 0.000765489 0.0024055 -0.00558542 
C 24.5254 12.4632 41.2592 12.011 0.00281207 0.00406068 0.00331127 
C 37.4675 7.50031 14.1876 12.011 0.00287529 -0.00317912 -0.00256124 
C 4.55202 28.0011 36.8295 12.011 -0.000257917 -0.00125267 0.00144695 
C 16.4077 18.2325 23.0146 12.011 0.0033088 0.00536915 -0.00409614 
C 13.184 1.58112 37.5247 12.011 0.00149829 -0.00212273 -0.0132939 
C 4.49272 37.9324 0.217998 12.011 0.00940491 -0.0151072 -0.00422968 
C 11.3491 29.2071 2.60394 12.011 0.00930588 0.00990079 -0.000778055 
C 8.10091 48.0796 22.4584 12.011 0.00325337 -0.000573411 -0.0010685 
C 35.1402 4.12122 42.1601 12.011 0.0022331 0.00140253 0.00225822 
C 42.4251 4.21376 36.8382 12.011 -0.00368998 -0.0091766 -0.0084851 
C 22.1771 46.2547 9.25502 12.011 0.00362298 -0.00289176 -0.0034148 
C 3.16259 21.8685 0.747755 12.011 0.00347605 0.000200467 -0.0015997 
C 30.0765 26.5356 37.0314 12.011 -0.00130778 -0.00853063 -0.00606066 
C 15.0041 50.3002 19.2077 12.011 -0.000671829 0.00118559 0.00311991 
C 15.333 26.3872 10.2209 12.011 0.00110466 0.00422839 0.000479073 
C 5.98413 49.1473 18.9764 12.011 -0.00651169 0.00197189 -8.82397e-05 
C 3.02752 8.57541 12.6242 12.011 -0.00958793 -0.00126189 0.00135527 
C 29.1503 17.8507 46.4772 12.011 0.00128278 -0.00214138 0.00196665 
C 0.0920501 43.1655 16.1228 12.011 0.00413286 0.00446706 0.00225372 
C 36.8676 32.9813 21.9028 12.011 -6.97242e-05 -0.000238347 -0.00658643 
C 11.9011 33.9887 31.4152 12.011 0.0106674 0.00345372 -0.000130264 
C 42.5691 19.2347 34.997 12.011 -0.00222047 0.0068376 -0.00302018 
C 13.2742 12.3517 26.8969 12.011 0.000202835 -0.000877176 -0.00622675 
C 1.52315 41.8203 14.9871 12.011 0.0054934 0.000508633 -0.0026414 
C 13.5751 7.41129 6.22645 12.011 -0.00795755 0.0103321 -0.000997589 
C 11.733 16.5442 49.3926 12.011 0.00657546 0.00547548 0.00137576 
C 11.7369 10.3329 3.6958 12.011 -0.00470098 0.012607 0.00590124 
C 21.4353 7.47812 3.91791 12.011 -0.00391598 -0.00768785 -0.00681375 
C 41.3168 22.9893 5.02114 12.011 0.0016521 0.00533682 0.00310245 
C 27.258 28.1229 29.0918 12.011 -0.00627561 0.00307782 -0.000679942 
C 38.8391 39.3641 35.2695 12.011 -0.00793356 0.00363991 -0.00138264 
C 44.7672 33.2279 16.442 12.011 -0.00134152 -0.00204789 0.000233623 
C 47.7837 30.1884 17.9269 12.011 -0.00605103 0.00178386 -0.00449236 
C 37.3292 40.1983 16.1818 12.011 -0.00514843 0.00513617 -0.000986093 
C 36.1324 31.7317 22.4121 12.011 -0.00539579 0.00483914 0.00864267 
C 34.2178 29.2355 28.0537 12.011 -0.00195673 0.00975948 0.000254687 
C 16.0938 41.1761 43.3817 12.011 -0.000734364 -0.00528027 -0.000936381 
C 39.9206 16.2399 3.60814 12.011 0.00564281 0.00155076 0.00211474 
C 37.0371 41.3064 30.0383 12.011 0.00173386 -0.00132427 -0.00238614 
C 16.9268 48.2935 48.1307 12.011 -0.00215178 0.00271871 -0.00668326 
C 38.5928 20.975 41.1432 12.011 -0.00319146 0.00135115 -0.00566099 
C 12.9499 8.41494 5.44993 12.011 -0.00275516 0.005334 -0.000593221 
C 24.4932 46.0276 44.706 12.011 -0.00497633 0.00190802 0.0031094 
C 17.7417 41.1045 37.6951 12.011 -0.000922216 -0.00818519 -0.00592859 
C 26.7207 1.05968 16.7396 12.011 -0.00513478 0.00517298 -0.00102083 
C 29.1815 35.6145 21.5556 12.011 -0.000682571 -0.00394566 0.000281066 
C 6.87206 15.9803 42.4083 12.011 0.000843882 0.000710648 0.00561386 
C 39.1952 29.4228 20.2394 12.011 -0.00621457 -0.00620941 -0.000144944 
C 32.7597 47.1976 0.848169 12.011 0.00528877 -0.00223491 0.00444776 
C 35.2627 11.9444 18.388 12.011 -0.00487223 -0.00418483 0.00839794 
C 39.5023 29.0404 39.0893 12.011 -0.00191026 -0.00349801 0.00177084 
C 1.59187 0.988539 31.3507 12.011 0.00407753 0.00326505 -0.00175953 
C 3.58858 50.1812 23.9647 12.011 -0.00036906 0.000929681 0.00593265 
C 10.8144 16.4792 30.8277 12.011 -0.00563379 -0.00149557 -0.00301608 
C 32.774 33.6884 1.26495 12.011 -0.00756348 -0.00318748 -0.0074369 
C 40.7857 7.50222 21.7835 12.011 -0.00454908 -0.00223215 -0.00144208 
C 16.7326 26.3891 48.0411 12.011 0.000704028 -0.00275793 -0.00424083 
C 2.28296 3.01766 42.2366 12.011 -0.00312744 -0.00546655 -0.00516919 
C 3.8524 15.5429 19.2275 12.011 -0.00135424 -0.00204779 0.00100803 
C 33.3071 22.8069 37.9354 12.011 0.00286694 -0.000791427 0.00651223 
C 2.66353 4.5463 11.564 12.011 0.00623256 0.00160194 -0.00637003 
C 42.1068 42.0116 43.9227 12.011 -0.00101943 0.00179406 -0.00786044 
C 19.916 27.4837 21.8031 12.011 0.000999415 -0.00238956 -0.00297814 
C 46.8079 17.6792 40.9862 12.011 -0.00191151 0.000437695 -0.0025749 
C 9.00551 45.2118 42.6081 12.011 0.00313478 -0.00764591 0.00272474 
C 14.2502 15.4137 28.6714 12.011 -0.00362952 0.00132529 -0.00886913 
C 20.4502 31.4137 47.7933 12.011 0.00123656 0.00439088 0.00227212 
C 17.9796 7.38433 49.6524 12.011 0.00339451 0.00136966 -0.00195385 
C 11.4817 19.455 21.3796 12.011 0.00431328 0.000519396 -0.00414497 
C 16.0724 6.12143 9.11815 12.011 0.00646556 -0.00503337 -0.000264498 
C 20.7359 46.9491 39.9633 12.011 -0.00401908 0.00303178 -0.00156133 
C 31.5195 26.5519 19.2596 12.011 0.00492181 -0.0110356 -0.00287618 
C 12.5046 45.0951 14.9278 12.011 -0.00429422 -0.00373209 0.00213463 
C 24.6818 36.8356 43.0879 12.011 -0.00318438 0.0030967 0.0057026 
C 36.4006 37.0632 35.7889 12.011 -0.0054359 0.00249075 0.00167686 
C 1.4424 44.6425 43.4112 12.011 -0.00160562 -0.0110027 0.00652581 
C 44.4892 14.6163 50.7271 12.011 -0.00164118 0.00196446 -0.000705392 
C 43.2217 48.2234 3.88719 12.011 -0.00173094 0.00712945 0.000648501 
C 33.0252 27.0033 28.007 12.011 -0.00034283 -0.000184806 0.0019059 
C 30.1331 7.6535 28.8061 12.011 0.00328281 -0.00244486 0.000172819 
C 2.41982 16.4687 36.6461 12.011 -0.00100711 -0.00359336 -0.00262038 
C 16.0264 5.10672 13.9956 12.011 0.00731903 0.00170713 0.00401498 
C 16.5202 36.0907 40.9365 12.011 -0.00357034 -0.00201802 -0.000248929 
C 2.73544 48.848 39.4699 12.011 0.00480016 -0.00733464 -7.21584e-05 
C 3.61768 38.976 14.4648 12.011 0.00330286 0.00549857 -0.000207996 
C 37.8575 8.96411 23.1087 12.011 -0.00575703 -0.00887598 0.00268978 
C 32.156 30.8123 17.311 12.011 -0.00780203 0.000563916 -0.000741197 
C 15.0765 14.697 23.7708 12.011 -0.00728271 -0.000760357 0.0146205 
C 3.82698 21.835 9.42353 12.011 -0.000954418 -0.0131317 0.00373752 
C 10.6909 46.1348 5.13824 12.011 -0.00293853 -0.00245186 -0.0075623 
C 37.1055 2.79661 26.1432 12.011 0.0036739 0.00802425 0.00100771 
C 45.9501 34.4652 6.1176 12.011 -0.00367606 -0.00493864 -0.0011356 
C 19.9269 34.0053 0.612937 12.011 0.00831766 0.00490537 -7.02758e-05 
C 40.768 32.4769 49.0609 12.011 0.000776826 0.000557208 0.00841285 
C 22.8995 9.49109 43.2517 12.011 0.00213797 0.00384823 0.00166482 
C 9.62009 37.4135 6.57011 12.011 0.00392846 0.00430312 0.00572091 
C 39.9681 11.6648 28.7042 12.011 0.00339773 0.0092317 0.00124021 
C 40.3868 30.177 22.2862 12.011 -0.00218727 -0.00469207 -0.00356683 
C 18.7 32.2895 49.3023 12.011 0.00440828 0.00411431 0.00867007 
C 26.3967 36.0808 26.9358 12.011 0.0114082 -0.00463808 0.00167369 
C 39.6507 38.3176 6.68958 12.011 -0.0030335 0.00173746 0.00270114 
C 23.9086 23.4986 31.316 12.011 0.00386016 0.00212852 -0.00465338 
C 16.4516 19.4177 28.7796 12.011 -0.0128125 0.00813724 -0.00428322 
C 49.6502 13.0638 23.0545 12.011 0.00716431 -0.00544939 0.00124379 
C 6.58007 39.1777 49.9204 12.011 0.00010282 -0.00313826 0.00546914 
C 21.0433 7.80469 20.7935 12.011 -0.00232697 -0.00832093 -0.0030761 
C 47.2018 0.902386 10.6472 12.011 0.00143832 0.00106065 -0.00207031 
C 30.2976 38.0459 20.0372 12.011 -0.00172386 0.00275882 0.00075085 
C 2.47914 40.8332 5.65387 12.011 0.00220674 -0.000589962 -0.00446468 
C 44.0649 50.3428 45.9635 12.011 0.00700111 -0.00465127 0.000406406 
C 40.3695 12.0419 12.2027 12.011 0.00843567 -0.00842322 0.00340363 
C 28.0756 35.1019 22.5219 12.011 -0.00557945 -0.002174 -0.00291057 
C 31.9989 43.4807 43.5951 12.011 0.00184536 -0.000272428 0.00233469 
C 24.6984 2.78803 10.0679 12.011 0.00252564 0.00514987 -0.00324134 
C 32.8583 8.20985 32.8186 12.011 -0.00268328 -0.00344886 0.000941352 
C 48.0289 39.186 37.7888 12.011 -0.00486992 0.000574647 -0.00248751 
C 1.05602 39.7376 38.9019 12.011 -0.0061936 -0.00154888 -0.00792786 
C 19.2699 44.1371 6.16087 12.011 -6.86598e-05 0.00913426 0.00800758 
C 14.7094 23.7283 46.1388 12.011 -0.000216165 0.00147705 -0.00522404 
C 7.87319 38.8403 40.292 12.011 0.00325407 0.00236383 0.00073005 
C 21.1528 13.8942 11.0283 12.011 -0.00568941 -0.00316134 0.00460711 
C 38.7019 39.3897 6.66392 12.011 -0.00427828 0.00509053 -0.00729584 
C 46.7301 40.8601 5.92918 12.011 -0.00288024 0.00361683 -0.000646705 
C 21.0876 33.4975 50.867 12.011 -0.00922879 -0.000797067 0.00278166 
C 31.6316 24.0939 21.6654 12.011 0.00358967 -0.00266177 0.00428922 
C 1.86979 45.8627 32.1831 12.011 -0.00540845 0.00619257 -0.00308952 
C 39.3595 29.73 33.8453 12.011 -0.00665838 0.00788754 0.00265532 
C 44.9573 35.7293 33.4435 12.011 -0.0116621 -0.00046877 0.00360054 
C 36.4406 47.0607 11.9406 12.011 -0.000603409 -0.0064758 -0.00663201 
C 17.0669 50.0379 49.8258 12.011 0.00653566 0.00614458 -0.00152908 
C 40.7359 6.35746 49.1965 12.011 0.00111649 0.00693573 0.00366123 
C 7.79694 30.8507 33.2949 12.011 -0.000622302 -0.00445172 0.00503321 
C 3.71344 25.0739 20.3985 12.011 -0.00422696 0.00762363 -0.00500166 
C 40.9906 28.2729 33.0456 12.011 -0.00483035 0.00467607 0.0041644 
C 31.0766 10.2819 35.9576 12.011 -0.00386289 -0.00275367 -0.00531103 
C 36.6479 33.6816 26.8985 12.011 -0.000280529 0.000558479 0.00400927 
C 16.9234 44.0916 13.8391 12.011 -0.00386294 -0.00221842 0.00594767 
C 25.8133 47.9244 20.3146 12.011 0.00342113 0.0051134 0.0015653 
C 21.6427 9.9835 43.4202 12.011 0.00381264 -0.00942793 -5.17395e-05 
C 7.53906 2.44718 8.2729 12.011 0.00455738 0.00471138 0.00155645 
C 22.5072 47.0347 44.1206 12.011 0.00162078 0.0102394 -0.00435478 
C 16.0176 33.393 17.0153 12.011 -0.000128136 0.00131783 -0.00136482 
C 48.696 16.0098 0.382282 12.011 0.00397165 0.0118922 0.000538204 
C 35.3622 14.8053 47.0817 12.011 0.00156806 -0.00466962 -0.00167429 
C 19.2766 30.5739 36.1378 12.011 -0.00113425 0.00420094 -0.00158156 
C 36.9501 38.6975 40.2744 12.011 0.00707674 -0.00223206 -0.000579607 
C 38.7571 16.4045 44.8498 12.011 0.00299444 -0.00546791 0.00622609 
C 13.2199 48.6208 9.45697 12.011 0.00747781 0.00236228 -0.00572034 
C 5.09356 18.1351 41.787 12.011 0.00448761 -0.00930304 0.00586129 
C 32.6444 35.6887 46.9523 12.011 0.00030752 -0.00164923 0.00816226 
C 9.62316 12.8483 49.0806 12.011 -0.000236365 -0.000432028 -0.000346135 
C 23.0439 33.2672 31.7313 12.011 0.00285693 0.00345791 0.00237562 
C 3.99431 18.9043 48.7902 12.011 0.000934935 -0.0146461 -0.00869637 
C 41.6936 8.08664 23.9684 12.011 0.0013483 -0.00166349 -0.00313523 
C 24.4757 42.4354 50.1556 12.011 -0.00544636 -0.00322976 0.0034427 
C 18.7021 2.93517 6.82433 12.011 0.00618672 0.00424815 -0.00305973 
C 11.768 17.972 14.8779 12.011 -0.00298748 -0.0112241 0.00624037 
C 4.83426 1.98294 7.34337 12.011 -0.000823018 -0.00561068 0.0115365 
C 34.4811 1.44172 47.7895 12.011 0.00853569 -0.00599271 0.00508956 
C 32.2236 48.6814 35.0466 12.011 0.00168191 -0.00304627 -0.000656051 
C 10.9558 27.271 27.3873 12.011 0.00219949 -0.00398222 0.00184458 
C 29.5223 29.586 4.11556 12.011 -0.00485812 -0.00159249 -0.00185467 
C 10.0065 42.4701 30.8667 12.011 -0.00584764 -0.00577481 -0.00791564 
C 32.7521 31.8387 50.1324 12.011 -0.00104504 0.00713763 -3.96446e-05 
C 41.5048 8.22234 15.062 12.011 -0.00305136 0.00663149 0.00191619 
C 6.16428 16.2555 7.32127 12.011 -0.00375611 -0.00616178 0.00288917 
C 42.8961 5.55653 39.2443 12.011 -0.00438393 -0.00738892 -0.0016303 
C 30.3344 45.2058 42.1064 12.011 0.00873412 0.000635353 0.00384758 
C 5.00134 39.6185 10.266 12.011 -0.000662384 -0.000723706 0.00185363 
C 43.0807 12.3139 47.5273 12.011 0.00255887 0.00550846 0.00118191 
C 44.0702 34.9885 34.2959 12.011 0.0010212 0.000460999 0.00271348 
C 40.6499 11.2542 1.55379 12.011 0.00215458 0.00335202 -0.000647102 
C 28.1682 50.4667 5.35115 12.011 -0.00134437 -0.00267421 0.00659937 
C 17.5174 19.646 31.0555 12.011 -0.0077464 -0.00907841 0.0129856 
C 48.6976 29.0427 28.5664 12.011 -0.00956045 -0.000861119 -0.000279516 
C 50.4872 5.97317 37.9346 12.011 -0.00434335 -0.00840571 -0.00504184 
C 45.4555 24.9767 18.6914 12.011 -0.00223932 0.000271417 -0.00556297 
C 10.7006 24.9987 22.1577 12.011 0.00205562 0.00276146 0.0107156 
C 42.9937 5.29092 27.9862 12.011 0.00111759 -0.00566067 -0.00228001 
C 28.3688 40.2123 38.3044 12.011 -0.00211938 -0.00518847 -0.00166369 
C 8.42359 2.78048 33.6874 12.011 0.00538691 -0.000844509 -0.00520975 
C 4.34113 27.0285 21.7897 12.011 0.00485111 -0.0029967 0.00236979 
C 6.29604 22.5085 21.0258 12.011 0.00330242 -0.00229603 -0.00575235 
C 43.3761 20.0096 48.0645 12.011 -0.00212806 0.00587898 -0.00333882 
C 16.5503 25.6146 39.3228 12.011 -0.00031067 0.00982123 0.00720783 
C 34.771 1.74208 42.6371 12.011 0.00856803 -0.000482151 -0.0061906 
C 38.3137 43.0833 6.01483 12.011 0.00492899 -0.00191986 0.00348167 
C 13.7565 6.72766 15.7823 12.011 0.00583001 0.00567031 0.00649885 
C 13.8888 9.69578 16.2186 12.011 0.00711245 0.00987634 -0.00309383 
C 27.0128 5.07752 34.578 12.011 0.00476966 0.00371096 -0.00777805 
C 30.9735 35.5935 42.5432 12.011 -0.00146851 0.000864511 0.00560426 
C 28.8194 13.4992 24.6347 12.011 0.00147155 -0.00386999 -0.000475233 
C 10.9555 16.7207 42.8327 12.011 -0.00153554 -0.00166886 -0.00438462 
C 43.8985 42.3095 21.0993 12.011 -0.00054179 -0.00167534 -0.004809 
C 0.602631 11.8089 19.1307 12.011 5.02603e-05 -0.001327 -0.00683013 
C 25.5131 1.55003 7.55261 12.011 -0.00364954 0.000365137 -0.00146059 
C 34.0866 2.96359 36.6849 12.011 0.00625985 0.00832086 0.00708915 
C 29.2843 33.9273 35.8469 12.011 1.88783e-05 -0.00430649 -0.00361032 
C 11.1522 30.3807 1.92177 12.011 -0.00882113 0.00197709 0.00389751 
C 40.7695 21.292 17.2758 12.011 -0.00421297 -0.00759435 -0.00552419 
C 11.5801 4.23884 27.0479 12.011 0.00571016 -0.00443386 -0.00924455 
C 2.07452 6.23921 45.1988 12.011 0.00205473 0.00251002 0.00176389 
C 6.08967 24.8692 32.3818 12.011 -0.00191481 0.00213436 0.000473708 
C 46.2447 39.3343 7.60301 12.011 -0.011122 -0.00218899 -0.00456801 
C 16.6286 33.2039 50.3341 12.011 0.00255051 -0.00328226 0.00294969 
C 41.9274 31.8443 19.2585 12.011 0.000532108 -0.00438764 0.000747658 
C 36.2575 35.3716 45.4237 12.011 0.00221428 -0.0031052 0.000581799 
C 19.0525 45.5767 17.8215 12.011 0.00898664 0.00922151 0.00173522 
C 48.0468 23.9226 39.2872 12.011 -0.000597894 -0.00241134 -0.00685517 
C 44.6146 48.3235 15.1362 12.011 -0.00591052 -0.0131743 0.000684207 
C 14.9686 6.81035 5.81244 12.011 -0.00606679 -0.00156129 0.00434099 
C 8.78818 0.813878 20.3579 12.011 0.00527432 -0.005349 -0.00837167 
C 32.0987 47.543 36.0642 12.011 0.0021017 -0.000170919 0.00528017 
C 30.2906 45.0041 13.3952 12.011 -0.00340758 -0.00429633 0.00261668 
C 41.2215 21.2953 35.015 12.011 0.0105068 -0.002878 0.00383118 
C 46.1311 5.40026 27.0135 12.011 0.000265439 0.000106108 -0.00248567 
C 31.0928 44.3913 44.2323 12.011 0.00406317 -0.000768275 -0.00410033 
C 10.9481 36.9026 6.23559 12.011 -0.00554866 0.00399198 0.00151527 
C 38.4797 33.348 36.2577 12.011 0.00295376 0.00213512 0.00538665 
C 19.0912 50.399 28.0407 12.011 0.00830062 0.00152377 -0.00214061 
C 27.6519 9.87716 32.2369 12.011 0.00320921 -0.00487821 -0.00429811 
C 1.58138 13.6539 7.37416 12.011 0.00128944 -0.00189863 0.0031525 
C 34.0991 0.800675 0.517938 12.011 0.000135742 -0.00415454 -0.00458011 
C 29.457 10.3106 40.4233 12.011 0.010849 -0.00324498 -0.000680291 
C 25.0059 33.7268 7.7242 12.011 0.00516031 -0.00501589 -0.00292638 
C 24.7889 13.1796 29.6812 12.011 0.00390229 0.00970482 0.00312791 
C 49.4277 10.9916 25.8638 12.011 0.00840416 -0.00625109 -0.00411166 
C 49.3506 22.1343 46.2949 12.011 0.00195843 -0.00888562 -0.00127308 
C 25.096 22.8946 14.1764 12.011 -0.00124441 0.000624423 0.00355169 
C 18.6768 48.1266 38.8775 12.011 -0.000374354 0.00205776 -0.00116513 
C 0.883136 11.6348 6.26119 12.011 0.00805786 0.00345561 -0.00463195 
C 12.7153 15.6989 15.3823 12.011 0.00692013 0.00268981 0.00999864 
C 5.6894 6.38075 22.9959 12.011 0.000277911 -0.00546024 -0.00262511 
C 17.175 42.5293 4.3314 12.011 -0.000120764 -0.00878306 -0.00351194 
C 1.86458 27.249 46.3894 12.011 0.000786884 -0.00295435 0.00101104 
C 10.708 18.0406 6.58452 12.011 0.000990899 -0.00671941 0.00173443 
C 49.6143 21.1246 35.034 12.011 -0.00227175 0.00136399 -0.00320903 
C 43.0903 13.9791 1.43725 12.011 -0.00532115 -0.00358872 0.0002245 
C 9.6274 2.12076 13.7056 12.011 0.00681501 -0.00251239 0.00361972 
C 10.3653 0.139457 42.3128 12.011 0.000407369 -0.000938554 0.00420778 
C 43.6363 36.8119 1.33599 12.011 -0.00647626 0.00284458 -0.00721341 
C 33.5006 8.10922 6.60098 12.011 -0.004805 0.00431415 0.00427435 
C 47.0691 45.2373 36.071 12.011 -0.00329882 0.00878924 0.00054628 
C 35.9988 42.9082 28.6265 12.011 -0.000673261 -0.006596 0.00442727 
C 11.3215 5.94626 16.1884 12.011 -0.000800991 -0.00130527 0.00459436 
C 22.4899 47.5703 0.763075 12.011 0.00157836 0.0035008 0.00515295 
C 7.48399 9.85207 20.9901 12.011 -0.00123819 -0.00238986 0.00728262 
C 28.998 28.9257 2.97992 12.011 0.00337417 0.00721711 -0.00212438 
C 26.6244 32.3732 29.5592 12.011 -0.00115881 0.0121627 0.00244064 
C 25.1172 12.5972 32.0478 12.011 -0.00407974 0.00521287 -0.00278263 
C 46.4209 15.6955 45.7904 12.011 -0.00877726 0.00311503 -0.00768723 
C 5.63597 50.1309 3.03878 12.011 0.00258835 0.00259996 0.00717196 
C 26.4796 13.6998 8.93824 12.011 -0.00389837 -0.00543568 -0.00460344 
C 16.6095 10.0683 46.6779 12.011 -0.002793 -0.00598104 0.000184031 
C 37.5555 9.43643 4.62971 12.011 -0.000635394 -0.00727897 0.00181794 
C 30.9777 10.6754 15.9817 12.011 -0.00262509 -0.00057942 -0.00709711 
C 48.313 39.0935 5.87199 12.011 -0.00464832 -2.3118e-05 0.00115461 
C 21.1456 23.1096 2.1001 12.011 0.00046614 0.000339539 0.00337164 
C 9.05281 14.0813 45.5576 12.011 0.00923643 -0.00213928 -0.00409368 
C 25.0911 1.14813 36.6033 12.011 0.010142 0.00272581 0.00496572 
C 16.0226 13.3645 35.1017 12.011 0.00906788 -0.00110027 -0.00254813 
C 15.3273 37.1264 36.8416 12.011 -0.00194168 0.00378748 -0.00445845 
C 13.44 46.0455 7.45532 12.011 -0.00103433 -0.00620338 0.000483498 
C 50.6621 21.9882 34.7593 12.011 -0.000757065 0.00327225 -0.0016164 
C 4.20011 49.6512 25.1014 12.011 0.000573018 0.00789491 0.00956723 
C 32.5529 42.8774 6.83855 12.011 -0.00381459 0.00174241 -0.00135169 
C 31.299 37.7957 13.6759 12.011 -0.00224137 0.0013365 -0.00296131 
C 27.2581 14.1102 1.01735 12.011 0.00669405 -0.00275982 0.00219609 
C 10.8129 44.8479 30.655 12.011 0.00585134 -0.0059085 -0.000770497 
C 17.2795 10.1115 45.4703 12.011 0.000493017 0.00181171 0.00445098 
C 46.0213 22.466 39.896 12.011 -0.000730506 -0.00746794 0.000575637 
C 40.335 35.9411 3.04097 12.011 -0.00394296 0.0017775 0.00187997 
C 43.7948 26.5827 22.2134 12.011 0.00381454 -0.00297387 -0.000768257 
C 35.0546 17.5686 0.778284 12.011 -0.00234938 -0.00663919 -0.00502897 
C 0.933021 41.5457 37.294 12.011 0.00727029 -0.00327812 -0.000427435 
C 13.3806 43.882 26.1575 12.011 -0.000165836 0.0104964 -0.00451139 
C 13.679 41.2747 38.7884 12.011 -0.00626708 -0.00137903 0.00846067 
C 7.29759 37.4462 20.7391 12.011 -0.00102767 -0.00240924 -0.000971913 
C 15.0988 8.79102 16.2603 12.011 -0.00105714 -0.0035706 -0.00526021 
C 26.7794 42.1515 50.8225 12.011 0.00019538 -0.00420149 0.000717732 
C 33.2275 10.6185 1.54314 12.011 -0.0023255 -0.000165418 0.00093329 
C 1.36883 27.3683 28.591 12.011 0.00141405 0.00370325 -0.00315545 
C 48.2482 28.7251 0.983261 12.011 0.00280534 0.0056547 0.00481699 
C 43.6651 4.42913 38.931 12.011 0.000922576 -0.000179695 -0.00645288 
C 3.33422 34.5244 24.4707 12.011 -0.000135134 -0.00669165 -0.00596105 
C 48.0724 33.6458 13.5985 12.011 0.00188047 0.00313977 0.00616079 
C 46.4098 45.4981 20.0849 12.011 -0.0014166 0.00205736 -0.000197873 
C 36.2207 20.0123 23.8924 12.011 -0.00620944 -0.00205052 -0.00930972 
C 34.5812 47.2809 4.01207 12.011 -0.00249188 0.00144398 0.00646995 
C 24.1226 38.7705 16.2474 12.011 0.0032115 0.00382373 0.0111901 
C 46.5355 50.7453 29.5995 12.011 -0.0049793 0.00181852 -0.00192466 
C 6.59328 41.6227 5.11696 12.011 -0.0104841 -0.00723039 -0.000617513 
C 41.4446 13.336 3.27959 12.011 -0.0105081 0.0045349 0.00353151 
C 50.1235 37.4822 43.7857 12.011 -0.00634239 -0.00484761 -0.00508694 
C 10.2659 6.74692 35.9658 12.011 0.000694668 -0.00196068 0.00129236 
C 38.3491 27.5915 8.70362 12.011 0.00212436 0.00129552 0.00309321 
C 36.9252 37.7604 6.89296 12.011 0.0035604 -0.00939118 -0.0106002 
C 8.84927 22.0673 12.5505 12.011 -0.0073576 -0.00586663 -0.00760116 
C 13.3891 45.7795 24.5455 12.011 0.0101869 0.00284718 0.000270824 
C 23.5553 18.9003 43.9041 12.011 -0.00227043 -0.00530856 0.00320419 
C 48.2786 26.2919 25.3505 12.011 0.00290355 0.00137851 -0.00361302 
C 44.9939 4.6699 18.3169 12.011 0.00200371 -0.006345 -0.000307214 
C 2.18813 16.6213 27.0476 12.011 0.00144087 -0.0029037 0.000275891 
C 22.4865 42.0619 11.578 12.011 -0.00345034 -0.00109082 -0.00569366 
C 43.664 23.2556 5.63195 12.011 -0.00183397 -0.00275361 -0.00240156 
C 38.6005 47.6931 13.7035 12.011 0.00215475 0.00177311 0.000555743 
C 44.0807 47.7384 29.9476 12.011 0.001647 0.0129318 0.00567251 
C 40.1485 15.1644 46.3931 12.011 0.00374512 -0.00213334 -0.00154939 
C 24.2271 24.707 9.54215 12.011 0.0074715 -0.00174279 -0.00222821 
C 13.8345 13.7108 27.1031 12.011 0.00331534 -0.00168635 -0.00119961 
C 36.5723 16.3912 38.4348 12.011 0.00504145 0.00152669 -0.000997718 
C 35.7023 34.1462 46.0676 12.011 0.00459897 0.00583237 -0.000772179 
C 45.3695 21.8099 4.94047 12.011 0.00121075 -0.00278048 -0.00170648 
C 25.7531 5.03114 33.9133 12.011 0.00330381 0.00411011 -0.00163713 
C 3.63549 2.3772 32.6023 12.011 -0.00150327 -0.00139451 -0.000150239 
C 10.6027 50.9954 35.5007 12.011 0.0018257 -0.00162632 0.00376144 
C 43.2556 20.7128 14.4866 12.011 0.00235866 -0.000110204 0.00347457 
C 18.5782 40.4058 28.0479 12.011 -0.00191924 0.00386569 -0.00128318 
C 50.9338 29.3315 28.2053 12.011 -0.0142226 0.00513993 -0.000101329 
C 28.56 24.7711 17.5599 12.011 0.00154397 0.00552634 0.00302237 
C 34.5369 19.2466 22.5835 12.011 0.00644862 0.00479281 0.00570672 
C 13.3694 26.4496 29.7992 12.011 -0.00152121 0.00296532 0.00293418 
C 17.0812 41.5968 44.3237 12.011 0.00132493 0.00150375 0.00964157 
C 44.4789 18.6659 41.2587 12.011 -0.00059555 0.0104605 0.0025948 
C 5.17372 47.9427 29.9133 12.011 0.00702105 -0.00230527 -0.00424752 
C 21.244 32.855 49.6187 12.011 -0.00303792 0.00650608 0.00569613 
C 3.87549 21.3591 40.3549 12.011 -0.00160514 -0.0021786 0.000912557 
C 25.314 28.1655 42.2358 12.011 -0.00606162 0.00204559 0.000187437 
C 19.9318 46.0565 18.8834 12.011 -0.00488724 0.0043041 0.000869324 
C 35.5874 26.0245 5.8188 12.011 0.00452658 -0.00138379 -0.000550301 
C 14.2592 3.5091 44.122 12.011 -0.00093371 -0.00227606 -0.00596072 
C 18.4342 2.94877 21.076 12.011 0.00596874 -0.00360523 0.00276914 
C 37.0681 34.8341 16.0956 12.011 0.00551932 -0.00315828 -0.0112644 
C 50.0515 23.3553 46.5572 12.011 -0.00162617 -0.00133059 0.00510273 
C 11.3815 20.4325 22.4137 12.011 0.00421074 -0.0050908 0.000309457 
C 26.9866 9.94773 16.8874 12.011 -0.00568531 0.00216076 0.00266112 
C 23.7277 33.1213 50.0288 12.011 0.00192705 0.00246004 0.00654781 
C 22.3252 1.54442 15.3507 12.011 -0.00056943 0.00204415 -0.000767771 
C 10.31 32.424 1.48261 12.011 -0.00692325 0.00322357 -0.000545045 
C 5.4437 16.7768 47.6759 12.011 -0.00374455 4.11704e-05 0.00200567 
C 6.05304 43.6088 3.72954 12.011 -0.00437393 0.0114195 0.00203275 
C 20.0449 8.84925 20.5733 12.011 -0.00147981 -0.00681682 -0.0012559 
C 31.1746 40.9099 30.8627 12.011 -0.00251811 -0.00200827 0.00141905 
C 15.9446 28.6448 9.56899 12.011 -0.00149245 -0.00188484 -0.00125833 
C 40.1328 34.9871 39.6234 12.011 0.00393809 -0.00204276 -0.00187619 
C 17.6572 45.5014 18.0497 12.011 -0.00240542 -0.00435252 -0.00339943 
C 30.5386 9.46696 34.9245 12.011 -0.00298084 -0.00400612 -0.00423894 
C 18.2928 32.5735 17.3806 12.011 -0.00384874 0.00484084 -0.00228341 
C 38.731 39.4495 29.4023 12.011 0.00342144 0.0040292 -0.00363142 
C 31.7459 14.8663 2.2565 12.011 0.000648269 0.00855148 -0.00956698 
C 37.6838 45.7461 2.83005 12.011 -0.0038872 0.00966168 0.00435139 
C 22.8983 30.203 17.5519 12.011 0.00108034 0.0042089 0.00270018 
C 28.3845 46.6547 43.3592 12.011 0.000387359 -0.00179347 -0.000967437 
C 24.2431 13.5536 27.3917 12.011 0.00537508 -0.000894966 -0.000625698 
C 38.9315 30.8216 34.4739 12.011 0.00382787 -0.000597195 -0.00255544 
C 27.9425 36.3909 2.58447 12.011 0.00159328 0.00160832 -0.00220663 
C 25.303 22.0369 2.50384 12.011 -0.000237366 0.000376982 -0.00562508 
C 11.6853 35.8328 16.6932 12.011 0.00559525 0.0056659 0.000612239 
C 17.9978 47.6575 24.0561 12.011 0.00498213 -0.00130195 -0.00384232 
C 38.7774 3.66099 13.3594 12.011 0.000108065 0.00289109 0.00160516 
C 23.0586 24.5425 41.7343 12.011 0.00957921 0.0101329 0.0039132 
C 45.4325 9.62829 35.384 12.011 -0.000121348 0.00190344 -0.00478809 
C 37.9413 30.9361 35.4223 12.011 0.00264953 0.00148837 -0.00736192 
C 29.2337 15.8707 43.3085 12.011 0.00131148 0.000972508 0.0017559 
C 50.7535 6.91584 3.14604 12.011 -0.00176517 -0.00589464 0.00476498 
C 49.399 17.4597 35.8193 12.011 -0.00348989 0.000647528 0.00231161 
C 28.9483 29.4568 10.3337 12.011 -0.00628735 0.00312221 -0.00210538 
C 15.7925 25.9013 50.8158 12.011 0.00276518 -0.00663497 -0.0011129 
C 45.9692 47.7969 14.826 12.011 0.00444121 0.00364416 -0.00952771 
C 43.8316 15.023 35.0488 12.011 0.00296202 -0.0013128 -0.00200818 
C 13.5333 10.7829 50.8338 12.011 -0.00148899 0.000124816 0.00362491 
C 10.3012 42.2573 29.5104 12.011 -0.0047658 -0.00322338 0.0023896 
C 0.693356 24.0967 18.2219 12.011 -0.00459888 -0.00173699 -0.00196207 
C 43.6224 35.9536 6.71379 12.011 -0.0142751 -0.00629253 -0.0080512 
C 43.6974 39.0791 34.1643 12.011 0.000489919 -0.00391704 -0.00197329 
C 49.6427 18.1165 40.8118 12.011 0.00182943 0.00161438 -0.00325563 
C 9.37475 7.63458 44.2351 12.011 0.00190985 0.00154859 0.00254815 
C 0.244102 10.6866 36.8379 12.011 -0.00240898 -0.0036522 0.00185144 
C 49.3585 5.91962 25.2256 12.011 0.0033129 0.00587769 -0.010095 
C 23.9081 30.5815 18.4399 12.011 -0.0102774 0.0016128 0.00267641 
C 7.17433 8.7929 9.85672 12.011 -0.00516256 -0.0138178 0.00111951 
C 12.2855 41.016 50.5287 12.011 -0.000423061 -0.00493706 0.00456277 
C 43.6829 40.7922 16.5578 12.011 -0.00358547 0.000861051 0.00430402 
C 19.476 40.4682 9.73343 12.011 -0.00274376 -0.00205099 0.00480137 
C 50.3567 24.3813 17.9442 12.011 -0.0030474 -0.0052804 0.00142268 
C 8.90095 16.0578 37.0028 12.011 0.00222089 -0.00155721 0.00467404 
C 49.6182 40.349 30.4768 12.011 -0.00231416 0.00143113 -0.00495505 
C 45.8743 26.8134 26.5132 12.011 -0.00546142 0.000440674 0.00481566 
C 12.0124 20.7577 24.8814 12.011 0.00545193 -0.00129907 -0.00162475 
C 12.4185 5.61282 14.0494 12.011 -0.00291733 -0.00777681 -0.00644434 
C 49.9646 3.18921 3.40627 12.011 0.00259603 -0.00372182 -0.00148846 
C 7.47233 48.3377 23.7377 12.011 -0.00176791 0.00303033 -0.00107924 
C 22.1627 18.472 43.616 12.011 -0.00121596 -0.00167842 -0.00809642 
C 19.6289 45.0874 16.6102 12.011 6.28474e-05 0.00780584 0.00134849 
C 49.6879 41.7121 32.4068 12.011 0.0039559 0.00446232 0.007142 
C 24.5316 39.802 11.6015 12.011 -0.00152264 0.00940399 -0.0061902 
C 0.685692 1.54929 9.42929 12.011 0.00595032 -0.00399496 0.00255903 
C 15.466 48.9689 11.8082 12.011 0.00360117 0.00912294 -0.00790932 
C 7.73386 45.1705 3.02285 12.011 -0.00297358 0.00343528 0.00476939 
C 16.2671 15.0263 33.273 12.011 0.00319766 -0.0064388 -0.000206427 
C 31.8328 32.3007 5.21005 12.011 -0.00660838 0.00567554 -0.00432228 
C 47.5143 18.3219 45.8569 12.011 0.000548215 -0.00429001 -0.0023876 
C 7.89747 24.3165 39.7237 12.011 0.000814164 -0.00505037 -0.00230361 
C 27.996 44.5947 7.35831 12.011 -0.0076415 0.00694552 0.00379878 
C 26.6363 5.53107 12.4211 12.011 -0.00348667 0.000880168 0.00141846 
C 10.3113 2.07232 23.6322 12.011 -0.000877293 -0.00271267 -0.00562024 
C 48.0552 21.3347 10.3974 12.011 -0.00114434 0.0003616 -0.00409543 
C 50.6536 20.6614 40.3904 12.011 0.00204084 -0.00474871 -0.00196597 
C 32.0833 28.8875 29.2017 12.011 0.00405574 0.00286563 -0.00461899 
C 26.4977 30.4966 23.6076 12.011 -0.00269996 -0.00170973 0.00388551 
C 32.5179 32.8474 8.84923 12.011 -0.00198718 -0.00130589 0.00321958 
C 9.00247 24.414 23.8562 12.011 7.70217e-05 -0.00465813 0.00621239 
C 28.3355 8.52942 34.1569 12.011 -0.000569968 0.00204775 -0.00749242 
C 43.1468 29.0997 8.76366 12.011 -0.0108651 -0.00485917 -0.006388 
C 5.32525 44.3398 43.3202 12.011 -0.00358436 0.00523718 0.0058778 
C 19.1494 28.5634 12.0546 12.011 0.00479404 -0.000434214 -0.0104931 
C 29.0973 17.0492 42.4872 12.011 -0.000814412 -0.00163411 0.00225849 
C 4.91531 35.5669 12.8677 12.011 0.00625173 0.007246 0.00237373 
C 17.1866 23.7377 50.4728 12.011 0.0194757 0.000171174 -0.0102255 
C 36.8826 4.38375 18.4305 12.011 0.00104033 0.00179494 0.00867844 
C 36.2244 38.549 49.0887 12.011 -0.00458826 -0.0048547 0.00110227 
C 37.8717 3.49333 12.2608 12.011 0.00840674 0.00199717 -0.000387313 
C 12.115 25.4118 28.2711 12.011 -0.00226707 -0.00351401 -0.00296531 
C 2.12364 9.20232 24.4179 12.011 0.00854391 0.000309863 0.00417421 
C 48.141 1.10277 9.57804 12.011 0.000343874 -0.00103192 -0.00732878 
C 5.83775 38.579 14.5041 12.011 0.00514381 -0.0026418 -0.0126412 
C 31.6948 40.3848 17.4854 12.011 0.00232396 0.000973825 0.00033829 
C 8.84595 20.2855 32.8752 12.011 0.00588417 -0.00177321 -0.00277668 
C 15.8801 20.4591 8.78803 12.011 0.00232178 0.00434628 -0.00172668 
C 12.3045 11.7932 17.1683 12.011 0.00123789 -0.00752269 -0.00257472 
C 37.6011 6.8806 41.722 12.011 0.00330128 0.00269448 0.00462838 
C 31.4815 46.0249 24.2311 12.011 0.00777059 -0.00645337 0.00094835 
C 46.6899 9.35075 35.8392 12.011 0.000530345 0.000947736 -0.00361304 
C 2.47897 22.5347 18.04 12.011 -0.00119094 -0.0017552 -0.000156906 
C 44.7999 19.2359 10.6359 12.011 0.00240052 0.00158345 0.007359 
C 15.2479 14.4087 47.1069 12.011 -0.00154978 0.000625948 0.00420004 
C 38.8405 46.6999 12.7289 12.011 -0.0011396 0.000798393 0.00091457 
C 32.3258 32.928 6.38075 12.011 0.00534731 0.00668226 -0.00491254 
C 41.1486 5.00128 35.0606 12.011 -0.00678205 -0.00240171 0.00395874 
C 18.2104 24.7495 19.1194 12.011 0.00189702 0.0110441 -0.00104899 
C 45.1935 36.8172 50.4974 12.011 0.0039248 0.00276459 0.00457759 
C 28.9828 40.2591 40.6655 12.011 -0.015245 -0.00272996 0.0109835 
C 38.7714 15.0431 19.2092 12.011 0.000985765 0.00500767 -0.00397603 
C 13.6877 11.7767 48.5333 12.011 0.00906206 -0.00277471 -0.0033339 
C 0.624903 8.79295 15.4903 12.011 0.00231435 -0.000273761 0.00456337 
C 43.6338 39.8277 10.353 12.011 0.000965333 0.00111619 0.00460144 
C 17.7035 23.7657 18.2773 12.011 -0.00658453 0.00162988 0.00567647 
C 16.9663 2.62976 48.7716 12.011 -0.00153811 -0.0003771 -0.00394918 
C 41.1793 11.2489 49.8698 12.011 -0.00834332 -0.00152437 0.00397223 
C 19.5697 10.4791 1.85493 12.011 -0.000394406 0.00191987 0.00177749 
C 47.4497 22.7661 47.8634 12.011 -0.000511844 0.000331381 0.00109353 
C 50.9238 29.2225 22.7184 12.011 0.000753043 -0.00428507 -0.00605864 
C 33.4107 47.5656 9.78162 12.011 0.00167689 -0.00126347 -0.00178512 
C 9.62191 31.2162 40.5794 12.011 0.00477356 -0.00154505 0.00575968 
C 38.3547 34.9386 22.3723 12.011 0.00444447 -0.00388376 0.00119325 
C 24.2839 37.4675 22.2732 12.011 -0.00188259 -0.00441752 0.00250374 
C 31.899 41.0789 33.155 12.011 -0.00311671 0.00857237 0.00565662 
C 4.47554 36.6842 40.6998 12.011 0.00342822 0.00771851 0.00858713 
C 2.03984 1.99747 9.10622 12.011 -0.00280325 0.00100988 -0.00619904 
C 21.8736 37.2731 12.0048 12.011 -0.00331745 0.00314499 0.00577917 
C 28.8668 44.5933 22.0869 12.011 0.00177369 -0.00235584 0.000536998 
C 24.4672 4.70698 2.03719 12.011 0.00634479 0.0024886 0.007993 
C 48.8188 26.5191 12.8539 12.011 -2.06781e-05 0.00323621 0.00641723 
C 44.0227 43.9831 12.3668 12.011 -0.00981265 0.00355431 0.00464686 
C 38.9766 26.8748 21.1368 12.011 -0.00138773 -0.0018625 0.00535202 
C 2.11677 42.0662 10.8258 12.011 -0.00133365 0.00366302 0.00675031 
C 8.5152 46.796 15.1919 12.011 -0.00432448 0.00507188 0.00139925 
C 22.1244 15.5236 2.38693 12.011 -0.00318919 -0.00851109 0.0059977 
C 9.33759 11.671 4.46566 12.011 -0.00428339 -0.00154103 -0.00240854 
C 36.3037 26.1851 47.6418 12.011 -0.00359448 0.00713064 -0.00254729 
C 22.724 32.5562 8.15139 12.011 -0.00604392 0.00036175 -0.00167618 
C 49.5248 12.3669 36.3908 12.011 -0.011612 -0.00467065 -0.00424723 
C 13.6691 35.7838 35.614 12.011 -0.00374554 0.00707397 -0.00379292 
C 6.54573 29.3856 12.8555 12.011 0.00208446 0.000984251 -0.00117059 
C 21.1491 43.0672 0.379435 12.011 0.00400858 0.00472751 -0.00088613 
C 2.5648 43.6047 19.4621 12.011 0.00601934 -0.00199908 -0.000455602 
C 8.7578 40.2456 50.0384 12.011 -0.00208924 0.00312141 -0.005522 
C 38.5752 10.3145 30.1611 12.011 0.00607986 -0.00383106 -0.00173698 
C 18.3848 2.13236 42.6686 12.011 -0.00577637 -0.00109228 0.00223831 
C 11.698 18.8471 18.9836 12.011 -0.00655569 0.00272852 -0.00773817 
C 0.901565 49.2917 15.2297 12.011 -0.000714142 2.88801e-05 0.00128959 
C 38.5389 34.5422 46.0322 12.011 0.000370188 -0.000891328 0.00413726 
C 25.633 4.33971 21.8801 12.011 0.000555989 -0.00308495 -0.00633647 
C 49.1884 32.1352 1.8961 12.011 -0.00777715 0.00160436 0.0122448 
C 5.79352 24.0057 31.3043 12.011 0.00285061 0.000950209 0.000692127 
C 27.5785 1.39095 12.7918 12.011 -0.00378401 -0.00553661 0.00779144 
C 31.6688 13.3796 8.54799 12.011 0.00024831 0.00102534 0.00657526 
C 43.6453 50.5128 48.8017 12.011 -0.00537009 -0.000981522 0.000688021 
C 48.7791 29.5134 21.7199 12.011 -0.0011852 -0.00187799 -0.0065859 
C 31.4963 8.15964 9.80603 12.011 0.00706064 -0.00305036 -0.00372341 
C 37.9724 17.5565 28.6029 12.011 0.00160838 -8.61466e-05 0.00486379 
C 10.2635 11.3563 19.1534 12.011 -0.00251919 0.0107252 0.00322441 
C 43.0766 7.64634 27.8003 12.011 0.00312324 0.00251974 0.00167386 
C 19.181 38.0227 29.4977 12.011 -0.00110796 -0.0164675 0.00465606 
C 35.1669 31.6052 28.1049 12.011 -0.00367643 0.00110954 0.00109295 
C 36.911 44.5359 25.3935 12.011 -0.00899765 0.000659171 0.000350928 
C 49.2386 38.942 42.2373 12.011 0.00151106 0.00143635 0.000150692 
C 19.9495 8.69647 17.0137 12.011 0.00533598 -0.00550506 0.00399818 
C 3.45497 10.8145 3.57017 12.011 0.00242754 -0.00662435 0.0036234 
C 35.9667 24.2866 43.6903 12.011 -0.0062288 -0.00528035 -0.00274945 
C 34.9016 3.82715 47.3815 12.011 -0.00642324 0.00277933 0.0102188 
C 24.6732 38.0761 19.9363 12.011 -0.00368394 0.0060114 0.000671246 
C 42.4254 15.3562 34.8792 12.011 0.000910085 -0.00107241 0.00591461 
C 37.8465 34.6829 40.3097 12.011 0.00565051 0.0063049 0.000532345 
C 25.5839 20.287 22.2117 12.011 0.00319946 -0.00153401 0.00541689 
C 9.42838 2.07364 43.3806 12.011 -0.00114072 0.00456444 0.0010953 
C 37.33 26.2081 48.7431 12.011 0.00214337 0.00588548 -0.00159828 
C 8.55538 37.9581 17.1373 12.011 -0.00040165 -0.0016202 0.000598297 
C 9.83182 12.1129 42.0714 12.011 0.00144113 -0.00662415 -0.000471222 
C 23.3158 36.8331 42.7179 12.011 0.00214429 -0.00143311 -0.000744198 
C 33.43 18.5018 22.3163 12.011 -0.00679638 0.00928233 -0.00412764 
C 39.6931 5.96786 20.4015 12.011 -0.00815627 0.00405378 -0.00282724 
C 31.0586 39.1373 19.4799 12.011 0.000458202 0.0101403 -0.000573239 
C 16.1105 47.6728 47.0294 12.011 0.00307972 -0.00562421 -0.00103467 
C 30.5752 21.8664 24.3814 12.011 0.000869551 0.00833814 0.000672089 
C 28.6731 19.1184 12.3767 12.011 -0.0021979 0.000749055 0.00436989 
C 35.6974 39.8598 31.3613 12.011 0.0057808 0.0103736 -7.29718e-05 
C 4.54774 42.336 11.2455 12.011 0.00120612 0.0030321 0.00160681 
C 2.12392 9.88345 1.69553 12.011 -0.00631581 -0.0029456 0.000610972 
C 49.3686 6.10728 40.432 12.011 -0.00678522 -0.00303328 0.00657293 
C 19.691 23.4974 4.44516 12.011 -0.00303898 -0.00667186 -0.000494595 
C 40.3151 11.5385 21.2913 12.011 -0.00324795 -0.00201281 -0.00396841 
C 38.7086 43.1812 40.4302 12.011 0.00954915 -0.00294037 0.00257049 
C 37.3506 18.9167 1.84179 12.011 0.00477078 -0.00530027 -0.0131966 
C 48.8607 47.2891 44.4096 12.011 0.000819357 0.0026527 -0.00642629 
C 29.7368 23.9361 48.3212 12.011 -0.009429 0.0025234 -0.00415511 
C 10.0672 1.20295 22.4314 12.011 -0.00276903 -0.0058555 -0.0027651 
C 41.7165 6.80341 14.9551 12.011 -0.00435512 0.000119273 -0.0037387 
C 1.67556 0.647771 18.0202 12.011 -0.00331193 -0.000177023 0.00407866 
C 16.8859 7.20993 21.3105 12.011 -0.000984483 -0.00174836 0.00424326 
C 42.3158 50.2874 12.0005 12.011 -0.00590644 0.00279801 -0.00789694 
C 32.2745 44.1818 18.0464 12.011 0.00576183 -0.00655114 0.0015788 
C 20.5678 34.6425 15.1383 12.011 0.00606204 -0.00672087 0.000800416 
C 19.4663 12.1823 41.5248 12.011 0.00235959 -0.000973014 0.00239467 
C 9.77817 39.1232 30.5618 12.011 -0.00357664 -0.0094207 0.000400534 
C 1.98673 26.5464 4.55784 12.011 -0.00113493 0.0032855 -0.000560828 
C 8.64585 27.5388 47.9863 12.011 -0.00194103 0.00483433 0.00247445 
C 2.45067 50.9662 24.0045 12.011 0.000387255 -0.00188751 -0.00184209 
C 6.92789 50.3094 3.62554 12.011 0.0111081 -0.000610497 0.00122445 
C 37.8335 45.226 10.9953 12.011 -3.83869e-06 0.000976707 -0.0045677 
C 23.1627 28.4511 45.6979 12.011 0.00424793 0.0113985 -0.00428664 
C 37.6467 8.92167 15.946 12.011 -0.000567759 -0.00228836 0.0070457 
C 0.094402 21.5557 44.7018 12.011 0.000399322 0.00685234 -0.00138105 
C 47.822 4.91446 9.45298 12.011 0.00256559 0.00161408 0.000216625 
C 3.38976 12.8451 15.1913 12.011 -0.000577988 -0.00721864 0.00604035 
C 27.4492 33.3121 34.3943 12.011 0.000849573 0.00407751 -0.0037191 
C 3.51615 41.5633 10.7123 12.011 0.0107029 0.00263513 -0.00676386 
C 22.888 0.836289 37.5084 12.011 0.0051842 0.00418834 0.00118461 
C 38.9831 28.3534 34.2452 12.011 -0.00562965 0.00157368 0.00322219 
C 15.0149 28.2006 50.8034 12.011 -0.00499116 0.00368106 -0.000170425 
C 4.56625 31.5372 4.65324 12.011 0.00184389 -0.00400668 0.00568207 
C 5.03577 49.0226 41.0903 12.011 -0.000573475 -0.00940173 -0.00304241 
C 25.3827 15.8085 39.198 12.011 -0.00202186 0.000170933 0.000464508 
C 50.4954 47.2234 39.6234 12.011 -0.00104689 -0.00594518 -0.000954947 
C 39.0261 44.483 10.9899 12.011 0.00111261 -0.00110631 0.000404799 
C 28.6673 11.2007 49.7572 12.011 0.00110774 0.0037458 0.00591878 
C 25.8913 34.3428 0.353355 12.011 0.000687279 0.00534376 -0.00285765 
C 21.9738 4.01863 31.8781 12.011 -0.00258286 0.00823457 -0.00168221 
C 50.7728 28.7816 5.86937 12.011 -0.00263719 0.000730448 0.00242605 
C 49.0602 7.99923 44.9487 12.011 -0.00144607 0.00537711 0.00097328 
C 12.9611 50.8713 31.7163 12.011 0.00810931 0.000676603 -0.0023265 
C 7.56597 6.73533 26.1442 12.011 -0.00200395 0.00269978 0.00172801 
C 50.3325 15.4328 23.3281 12.011 -0.00153752 -0.000482387 -0.000839625 
C 10.0591 26.3187 22.0929 12.011 7.1369e-05 -0.000119977 -0.000113976 
C 45.334 40.4867 12.04 12.011 -0.00128701 0.00220345 0.000130575 
C 32.4918 32.2743 14.8922 12.011 -0.00346834 0.0017695 -0.000633357 
C 12.6804 36.8041 35.6167 12.011 0.0070965 0.00379278 0.00329457 
C 49.9361 37.6074 42.316 12.011 -0.00283158 -0.00624521 0.00411815 
C 35.4436 14.468 39.6642 12.011 -0.00140006 -0.00251859 0.00779882 
C 0.874126 3.02091 39.9406 12.011 -0.0104572 0.00143893 3.45733e-05 
C 50.851 11.5172 44.3542 12.011 -0.00397592 0.00287701 -0.00155668 
C 38.7932 43.1665 10.4769 12.011 -0.00841078 -0.00659375 -0.00376742 
C 4.81384 26.3673 4.26058 12.011 -0.000251868 -0.000785487 -0.00623911 
C 29.7947 6.66453 45.1307 12.011 -0.00258163 0.00138276 0.00154602 
C 40.2772 45.0537 28.088 12.011 0.00486985 0.000197741 -0.00345776 
C 30.5047 11.2919 38.1496 12.011 -0.00356547 0.00820484 -0.00463382 
C 38.1855 40.5472 15.2973 12.011 -0.00194304 0.000417629 -0.00468209 
C 18.6772 3.31469 11.9178 12.011 -0.00366908 0.00542262 -0.000723496 
C 5.89624 37.474 0.477121 12.011 0.00642991 -0.00226625 0.00300849 
C 42.5428 35.5829 46.8626 12.011 0.00591759 0.00339793 5.39524e-05 
C 18.071 23.0305 20.8994 12.011 0.00523035 -0.00187426 -0.000574128 
C 16.6967 33.5342 6.12515 12.011 0.00753381 -0.00482033 -0.00268659 
C 41.0566 30.9179 24.515 12.011 -0.00105711 0.00451243 -0.00183153 
C 33.4794 7.86074 13.0706 12.011 -0.00186285 -0.00323066 0.0027858 
C 50.5229 27.3319 5.67373 12.011 -0.00107374 -0.00458886 0.00159219 
C 45.4525 43.6833 22.053 12.011 0.000829449 -0.00104222 -0.0051841 
C 7.19657 20.7944 10.785 12.011 -0.00475646 -0.00149142 0.00255116 
C 7.91143 48.6797 2.04824 12.011 0.00153703 0.0116974 0.00693957 
C 43.419 26.65 24.8293 12.011 0.00729937 5.9065e-05 -0.000966464 
C 12.3942 31.9129 8.27906 12.011 0.00598395 -0.00336797 -0.00762194 
C 32.361 48.5612 10.1 12.011 0.00272147 0.00272899 0.00279589 
C 34.2689 6.24567 33.6416 12.011 -0.00595216 0.00570457 0.00292795 
C 43.4564 40.5645 22.8185 12.011 0.00200916 0.00273878 -0.00554558 
C 20.5801 43.2448 2.73187 12.011 -0.00316368 -0.0101732 0.0067605 
C 34.4765 7.62886 15.9403 12.011 -0.00932106 -0.0011803 7.7052e-05 
C 33.0121 13.3988 8.10008 12.011 0.00166495 -0.00272635 -0.00310525 
C 5.92812 36.6891 33.0715 12.011 -0.00237539 -0.00694658 -0.0010482 
C 19.0529 36.2346 41.1296 12.011 -0.00221243 -0.0038893 0.00659327 
C 15.9987 35.1334 13.71 12.011 -0.00310449 0.0022161 -0.00559166 
C 7.02671 24.4615 22.3404 12.011 -0.000248777 -0.00290235 0.0106582 
C 33.6965 45.7928 19.3266 12.011 0.000110916 0.00271256 -0.000300025 
C 26.9351 45.0324 8.19574 12.011 -0.00426668 0.000981394 -0.00209781 
C 32.6717 24.8147 22.265 12.011 -0.000535041 0.00059038 -0.00378108 
C 13.9622 46.1889 20.892 12.011 -0.000710758 0.0037243 0.00745591 
C 11.3663 0.213097 36.6189 12.011 -0.000289428 -0.00197179 0.000538246 
C 29.2884 48.619 0.789735 12.011 -0.00473409 -0.00151256 -0.00456457 
C 34.2053 27.9393 26.0773 12.011 -0.000306043 -0.00564406 0.00118916 
C 32.7169 20.1226 47.1352 12.011 -0.00468753 0.00289161 -0.00958129 
C 30.0983 0.821435 18.522 12.011 -6.07989e-05 0.0025358 0.00551489 
C 39.5474 18.8223 3.04247 12.011 0.00770379 -0.0014539 0.00133072 
C 4.14462 23.6543 50.2221 12.011 -0.00419559 -0.00772822 -0.00312775 
C 5.849 34.4785 12.7001 12.011 -0.00661049 0.00329096 -0.00480733 
C 37.6922 35.511 45.3639 12.011 0.00432725 0.0050213 -0.00272258 
C 35.433 36.8082 30.566 12.011 0.00470276 0.000673191 -0.00453485 
C 35.5328 28.7378 47.7276 12.011 -0.00473783 -0.00543608 -0.00363042 
C 4.64939 21.1438 19.2325 12.011 -0.00218544 0.000712097 -0.00204135 
C 48.9702 3.91391 46.0806 12.011 -0.00206254 -0.00450185 0.00438438 
C 30.4963 23.1661 12.2693 12.011 -0.000622091 -0.000879084 0.00559813 
C 17.3913 14.2058 48.2085 12.011 -0.00408531 0.00168412 0.00485986 
C 13.0205 19.4347 11.8341 12.011 0.00747137 0.00691862 -0.00343778 
C 28.8964 48.0748 50.5243 12.011 -0.00435647 -0.00404568 -0.00175784 
C 37.768 20.1794 41.9783 12.011 0.000204069 -0.000294635 -0.012343 
C 5.92349 40.1824 11.2725 12.011 -0.000226616 0.000359487 -0.00638508 
C 14.3066 26.6547 1.62894 12.011 0.0031108 0.0025333 0.00559981 
C 6.39182 46.2715 13.3479 12.011 -0.00184307 0.00724001 -0.00537776 
C 39.5551 23.0559 49.1414 12.011 -0.000593838 0.00031422 0.00394782 
C 23.7289 11.9837 23.3413 12.011 -0.000707616 0.00258572 0.00563091 
C 4.52162 19.5988 28.9792 12.011 0.00853565 0.0042354 0.00231145 
C 41.7221 5.37455 28.5992 12.011 0.00165603 0.00450776 0.00384578 
C 13.5648 15.1816 1.2964 12.011 0.00406424 0.00511743 -0.00361645 
C 35.8179 18.2804 29.5242 12.011 0.00293805 0.00671086 -0.0023608 
C 43.3452 23.8754 18.1997 12.011 -0.00590423 0.00298679 0.00547586 
C 11.7026 15.9678 43.7838 12.011 0.00770584 0.00250107 0.00718444 
C 50.0759 25.3841 47.9123 12.011 0.00476401 0.00017282 -0.0142518 
C 26.1613 41.7291 21.1637 12.011 0.00217758 0.00938446 0.00516093 
C 25.0441 25.8159 7.31243 12.011 -0.000553281 -0.00102952 -0.00238235 
C 27.2841 12.6733 46.1544 12.011 0.0026694 0.00344061 0.00507681 
C 1.59319 2.49072 41.0715 12.011 0.00679101 -0.00577091 0.000368581 
C 40.6727 20.4241 25.616 12.011 -0.00688356 -0.00194237 -0.000497931 
C 35.2279 26.4587 16.2406 12.011 -0.00479588 0.00480265 0.00627075 
C 28.36 11.8137 46.0721 12.011 0.011411 -0.00494155 0.00671779 
C 21.709 2.68872 15.9243 12.011 0.00858741 0.00147351 -0.00328645 
C 13.0674 26.1587 25.488 12.011 0.00334501 -0.00187561 -0.00251169 
C 16.4599 46.8311 9.01176 12.011 0.00938843 0.00610595 -0.00273663 
C 24.0326 15.8051 30.3097 12.011 -0.00201078 -0.00221738 0.00162404 
C 35.2965 8.06989 14.7001 12.011 -0.00224467 0.00124951 -0.00687179 
C 25.3696 32.6295 35.3554 12.011 -0.00110605 0.00100197 0.00383286 
C 12.8886 18.0371 42.3302 12.011 0.00730914 0.00426568 0.00400972 
C 46.9316 47.7587 47.5064 12.011 0.00517942 0.00519794 -0.00278989 
C 21.584 20.3935 14.4883 12.011 0.00200789 -0.000850436 -0.00525306 
C 19.4622 26.8737 19.4475 12.011 -0.000603357 -0.00504516 -0.00824621 
C 31.9826 38.8903 14.0747 12.011 -0.0020311 -5.0522e-05 -0.00353412 
C 34.8591 21.6761 1.41126 12.011 -0.00106501 0.00160591 0.00550029 
C 19.6487 42.3186 10.9679 12.011 0.0058285 0.000356315 0.00343806 
C 9.55685 42.4383 45.5682 12.011 -0.00232076 -0.00161805 -0.00155725 
C 11.8856 12.256 39.3746 12.011 0.00155585 0.00488844 -0.00901677 
C 47.217 31.1688 7.12011 12.011 -0.00509524 0.00133302 0.000982768 
C 9.31826 47.0162 36.8397 12.011 -0.00692376 -0.00370039 -0.00380921 
C 39.2103 7.87779 30.3528 12.011 0.000297801 0.00452297 -0.00278769 
C 14.9683 34.8827 5.15088 12.011 -0.0009277 -0.00447627 -0.00637179 
C 13.2143 44.3349 13.8919 12.011 -0.00594742 -0.00201479 0.00180723 
C 3.80859 22.3098 50.5071 12.011 0.00854274 0.00661909 -0.000329551 
C 20.9118 7.19755 6.64404 12.011 -0.00275833 -0.000933876 -0.000484589 
C 27.1558 17.4484 50.6832 12.011 0.00845741 0.00117944 -0.0107072 
C 30.9679 20.4177 39.4924 12.011 0.00206519 0.00581233 -0.00583284 
C 30.9407 22.2116 31.1327 12.011 0.00388182 0.00711641 -0.00491478 
C 41.6779 44.1934 11.4631 12.011 -0.00652979 0.0061762 0.00322844 
C 19.0473 33.521 5.23177 12.011 0.00383173 0.00895765 0.00849884 
C 0.453071 3.94191 37.5554 12.011 0.0026255 -0.00285543 -0.00483731 
C 43.2864 22.3542 49.0033 12.011 -0.00392369 -0.00288121 -0.0105503 
C 47.4038 24.7455 20.4699 12.011 0.00362737 0.00031345 -0.00407169 
C 50.9379 26.5565 11.2239 12.011 0.0109332 -0.0116578 0.00986105 
C 45.899 31.3336 20.1801 12.011 -0.00135769 0.00111325 -0.00479993 
C 12.8259 16.7444 6.7011 12.011 -0.000927456 -0.00162256 0.00300963 
C 1.39322 6.75918 36.7126 12.011 0.00529761 0.000499625 0.000629129 
C 22.8045 26.9493 27.8833 12.011 -0.00260372 -0.000712048 -0.00523648 
C 48.7406 14.2219 27.7906 12.011 0.00428847 -0.00535075 0.00407032 
C 32.8786 19.0412 31.8104 12.011 -0.00640715 0.00744591 0.00467093 
C 38.207 14.8057 11.2916 12.011 0.00667896 0.0012827 -0.00169494 
C 36.1994 34.5416 14.8641 12.011 0.00795697 -0.00574093 0.0016462 
C 0.779155 35.4758 47.8188 12.011 0.00463265 -0.00730049 0.00441412 
C 30.7064 15.0835 36.056 12.011 0.00526319 -0.00165547 -0.00342484 
C 46.7444 50.638 10.9217 12.011 -0.00039549 -0.00899627 -0.00162925 
C 44.7334 16.0877 35.1477 12.011 0.00193672 0.00541682 -0.00306583 
C 34.6234 44.086 21.0566 12.011 -0.00156126 -0.00577293 -0.00265339 
C 9.04185 20.8393 40.4754 12.011 -0.00298195 5.7789e-05 -0.00940804 
C 11.9121 43.9664 40.4494 12.011 -0.00687062 0.000113593 -0.000284649 
C 7.27693 0.380689 29.0542 12.011 0.00297238 0.000519047 -0.00276087 
C 41.0611 24.0632 34.323 12.011 0.00480616 -0.00119555 -0.00660903 
C 34.183 19.6861 0.182359 12.011 -0.00079163 0.00453049 -0.00209635 
C 27.7407 21.7596 38.3007 12.011 0.00357525 0.00188586 0.00529746 
C 44.8035 7.02205 42.2766 12.011 -0.00332025 -0.00700126 -0.000729686 
C 31.9475 41.7549 15.3887 12.011 -0.00162009 0.000575385 0.00040038 
C 27.7132 6.32443 34.7884 12.011 -0.00691385 0.00516889 -0.00720004 
C 6.32377 28.8151 4.22436 12.011 -0.00470629 -0.00104246 0.00191838 
C 3.45158 41.5852 46.9437 12.011 -0.00338719 0.00926845 -0.000791765 
C 30.8577 13.0455 48.9918 12.011 0.00263865 0.00272318 -0.00201592 
C 2.09059 35.4798 8.53084 12.011 0.0115356 0.00781154 -0.00252887 
C 20.9089 2.6627 28.4466 12.011 0.00570471 0.00263855 -0.0021999 
C 40.062 36.6017 22.9341 12.011 -0.00369035 0.0043648 0.00735431 
C 8.80947 45.9534 14.0781 12.011 0.00561588 0.00477018 -0.00586274 
C 22.7258 49.8625 20.4237 12.011 0.00285285 0.00361861 -0.00628025 
C 18.9093 22.9846 0.949377 12.011 -0.00568635 0.00302206 0.00491031 
C 25.4178 19.2978 50.8143 12.011 -0.00730699 -0.00238536 -0.0026299 
C 28.7373 15.8077 37.346 12.011 0.0038114 0.00336845 0.00327879 
C 9.63598 33.6169 12.0556 12.011 -0.00150093 -0.00268412 0.000128957 
C 11.2299 48.9486 39.5346 12.011 -0.00132723 -0.000107496 -0.00262498 
C 46.851 3.30883 11.0183 12.011 -0.00684417 -0.00109276 0.00248054 
C 33.4568 29.0378 46.5844 12.011 0.00680285 -0.000734988 0.0024676 
C 9.17692 11.7592 30.0495 12.011 0.00700089 0.00583774 0.00402395 
C 13.0789 25.5651 9.64776 12.011 0.00371555 0.00188428 0.00190137 
C 20.6958 46.3575 9.14043 12.011 -0.00118199 0.000931891 -0.00175043 
C 49.4532 27.7775 37.2898 12.011 -0.000883948 0.000158457 -0.00196849 
C 17.2027 45.6939 27.1697 12.011 0.00675058 0.000207859 0.00977073 
C 31.788 36.7329 46.6276 12.011 0.0013433 -0.00855148 -0.0011886 
C 9.86069 31.4402 34.6599 12.011 0.00183425 0.00433956 0.00685461 
C 19.0111 31.4462 8.39074 12.011 0.00268709 0.00697475 -0.00387852 
C 9.66992 9.71781 36.8747 12.011 0.000863781 0.00704947 0.00669506 
C 8.73774 23.2238 39.9111 12.011 -0.00140146 -0.00370595 0.000937142 
C 1.55684 18.4644 12.5312 12.011 -0.000402148 -0.00370463 0.000561399 
C 41.8697 12.1795 50.6586 12.011 -0.0012704 0.00954784 -0.0013679 
C 45.2426 23.7938 16.5207 12.011 -0.0022776 0.00350101 -0.0119454 
C 30.7085 29.2299 16.2514 12.011 0.00338792 0.000898406 -0.000161471 
C 3.49473 13.3971 30.4542 12.011 0.00240624 -0.00753743 -0.00404513 
C 5.7452 21.6169 30.4827 12.011 -0.00175266 0.00720643 -0.0011141 
C 24.458 48.1748 19.9788 12.011 0.00146491 0.00546756 0.00224472 
C 25.0164 40.2065 18.0072 12.011 -0.00680718 0.00363546 0.00555982 
C 45.6491 41.1982 27.7918 12.011 0.00174863 -0.00251218 0.0024618 
C 42.3106 18.5278 19.3666 12.011 -7.12293e-06 0.000416239 -0.00110367 
C 14.5261 5.90031 30.9337 12.011 0.005181 -0.000523807 0.00161716 
C 27.3451 1.52961 35.7443 12.011 -0.00265081 0.00349431 0.000528554 
C 11.3754 37.2232 14.7229 12.011 0.0023969 -0.00373235 -0.00315712 
C 20.4405 8.28361 4.57277 12.011 -0.00998068 0.00738531 0.00347863 
C 48.3918 14.8786 44.6196 12.011 0.00330641 0.0035268 -0.00079049 
C 29.5794 49.1954 23.2234 12.011 0.00128747 -0.00261553 0.00616311 
C 25.0705 46.2334 9.88345 12.011 0.00771598 0.00491698 0.00170799 
C 23.8249 47.2623 0.396312 12.011 0.00143843 -0.00490521 -0.00522217 
C 10.4942 0.0533621 14.6924 12.011 0.00228821 0.00132826 -0.00153796 
C 9.5719 16.4055 42.6378 12.011 0.00281289 0.00335995 -0.0124682 
C 20.4248 1.30697 26.4238 12.011 0.00354342 0.0101312 -0.000635167 
C 44.9752 40.0931 7.43078 12.011 0.00784486 0.00366859 0.00421044 
C 26.9549 42.7259 21.5852 12.011 -0.00713466 -0.000676459 -0.00432455 
C 29.8858 15.0933 22.5482 12.011 0.00148271 0.00228604 -0.00188453 
C 0.172 50.8102 36.7007 12.011 -0.00636271 -0.00442356 -0.00480017 
C 30.2294 6.60215 13.01 12.011 -0.000722508 -0.0101385 -0.00439205 
C 1.42747 15.4668 36.6335 12.011 0.00606989 -0.0024662 0.00678887 
C 15.0334 44.3489 6.73981 12.011 -0.00235066 0.00283658 0.00451284 
C 6.1412 8.07882 36.4352 12.011 0.00856879 -0.000628686 0.00146238 
C 37.5005 32.416 40.2532 12.011 -0.00340798 -0.00186954 -0.00234617 
C 35.5469 34.7934 9.81952 12.011 -0.0127476 -0.00551903 -0.0050463 
C 19.3558 1.17962 32.778 12.011 0.00403772 -0.00146301 0.00564028 
C 50.7398 21.7784 22.4061 12.011 -0.00180609 -0.00106523 0.00226555 
C 48.0169 50.8132 15.9401 12.011 0.00373035 0.00183846 -0.0039527 
C 43.0877 0.180095 16.9854 12.011 -0.00611358 -0.0022834 0.00612952 
C 22.4344 27.9101 27.0044 12.011 -0.00233815 0.0059152 -0.000579934 
C 47.9779 26.8456 50.6546 12.011 -0.00458688 -0.000996332 0.00599636 
C 11.5344 46.2322 32.599 12.011 0.00501819 0.000114577 0.00144265 
C 35.6549 37.468 6.34833 12.011 -0.00444831 0.000686148 -0.00282228 
C 36.1402 21.0589 1.64553 12.011 0.00286776 0.00199185 -0.00453294 
C 1.19324 36.319 9.29172 12.011 0.00073869 0.00560627 0.00188717 
C 9.38402 18.661 28.1926 12.011 2.63223e-05 0.00637633 0.00954871 
C 19.6262 25.918 23.7501 12.011 -0.0048484 0.00013119 -0.00437301 
C 50.0006 42.5344 15.4639 12.011 0.00114936 0.00438556 0.00265603 
C 10.3575 5.39954 35.5621 12.011 0.00404816 0.00111676 -0.000193471 
C 22.7159 46.8765 46.5035 12.011 0.00536164 -0.00637653 0.00929752 
C 33.9602 34.3759 7.44653 12.011 0.00920241 -0.000447005 0.00210871 
C 45.3833 41.059 6.31649 12.011 0.00934956 0.00259469 0.00217988 
C 47.8056 29.7821 27.765 12.011 0.00516434 -0.000409614 0.00214807 
C 46.505 14.4191 35.5571 12.011 0.00285147 0.00178413 -0.00123472 
C 3.52576 32.2588 5.41041 12.011 -0.00367556 0.00131847 0.00223513 
C 20.2553 1.5554 27.8724 12.011 0.0033817 0.00263094 -0.0101569 
C 41.2219 43.0736 43.9816 12.011 -0.00201447 0.00523207 -0.000633238 
C 15.3398 12.6215 33.0286 12.011 0.00471596 -0.00278098 0.00025423 
C 11.1734 19.6021 16.5811 12.011 0.00160038 0.00520637 0.000866776 
C 33.2073 7.08487 15.3879 12.011 0.000873348 0.000179673 -0.00180308 
C 41.14 39.9649 49.0395 12.011 0.0126627 0.00227275 0.00683239 
C 46.7904 33.9596 3.94925 12.011 0.00153045 -0.00168411 -0.000303083 
C 42.6115 37.568 4.61879 12.011 0.000925997 0.000270671 0.00103325 
C 21.3324 46.1739 18.7435 12.011 -0.00632993 0.00216128 -0.00339076 
C 41.1312 37.2242 40.0464 12.011 -0.00151329 -0.00692201 -0.0049481 
C 21.586 35.265 33.8487 12.011 -0.00475327 -0.000630408 -0.00580881 
C 31.5544 5.15421 15.2626 12.011 -0.00578089 0.00484355 0.00381732 
C 7.19056 34.6775 12.4021 12.011 0.00603559 0.00277725 0.00522985 
C 42.4598 27.2979 0.228301 12.011 -0.00575241 0.00529583 -0.00275622 
C 35.8576 6.23542 8.81535 12.011 -0.00621349 0.00419091 0.00233836 
C 45.9336 38.03 32.9135 12.011 0.00183001 -0.0079606 -0.00706338 
C 30.6282 5.30455 19.4271 12.011 -0.00606197 0.000684162 0.00569172 
C 34.0747 7.41614 10.7244 12.011 0.00958705 -0.00456438 0.00189661 
C 48.8519 39.9415 50.3029 12.011 -0.00200715 0.00205604 -0.00968446 
C 18.9731 23.6125 3.21632 12.011 0.00967066 0.00174478 -0.00698971 
C 41.7334 38.3558 44.4639 12.011 0.000425769 0.00716257 0.00128199 
C 12.0502 22.8612 29.6265 12.011 -0.000228296 -0.000785814 0.0027688 
C 8.28429 22.2704 25.1162 12.011 0.000423034 -0.00372456 -0.000466304 
C 13.3517 7.86728 27.9936 12.011 -0.00490557 0.00256218 -0.00036159 
C 28.2226 39.2712 28.1966 12.011 -0.00455052 -0.000255329 0.00256837 
C 36.6851 17.7547 38.0467 12.011 0.00424789 0.00320997 0.00431172 
C 41.123 18.1698 20.1548 12.011 0.0017113 0.000194006 -0.00143297 
C 39.3928 17.3688 3.00585 12.011 -0.00228835 0.00120403 -0.00450205 
C 14.5548 24.44 31.8765 12.011 0.00598559 0.0031388 -0.00737572 
C 14.695 14.2447 1.75379 12.011 0.00779746 0.0007014 -0.00580136 
C 39.1121 50.6156 8.48977 12.011 0.00769084 0.00113036 -0.00249529 
C 13.893 28.6458 16.4011 12.011 -0.000969054 0.000218489 -0.00221011 
C 47.7179 49.9487 47.3642 12.011 -0.00333053 0.00781236 0.00411153 
C 6.46453 45.0734 42.7925 12.011 0.00852473 -0.00566802 -0.000229008 
C 12.6867 14.4698 16.1857 12.011 -0.000402199 -0.00605733 0.00332033 
C 28.065 12.1752 13.3796 12.011 -0.00461582 0.00120304 -0.00753236 
C 48.2544 50.6976 1.62644 12.011 0.00275746 -0.0114261 0.00556872 
C 34.6395 7.40266 7.01759 12.011 -0.00263732 -0.0004015 0.00397214 
C 27.3091 29.4116 43.0378 12.011 0.00287246 0.00243032 0.00423493 
C 2.89401 36.6832 13.7495 12.011 -0.000103805 1.96029e-05 -0.0040443 
C 45.6241 35.0207 13.168 12.011 0.00685026 0.000198673 0.00242307 
C 15.4582 14.2631 49.7522 12.011 -0.0015145 0.00189455 0.00727901 
C 49.709 44.2131 37.8847 12.011 0.00350022 0.00150904 -0.00699595 
C 23.8943 22.2956 32.0773 12.011 0.00671531 0.000819944 0.00549663 
C 40.9206 7.14163 40.3761 12.011 -0.00476767 -0.00409488 0.00440419 
C 15.0505 41.4294 39.264 12.011 -0.00324022 -0.00412576 0.00583209 
C 13.4725 46.8819 37.5193 12.011 0.00562711 -0.00995658 -0.000893392 
C 17.7034 36.5056 36.4351 12.011 -0.00259734 0.0025625 0.0022621 
C 17.6848 11.9965 1.53311 12.011 0.00355685 2.35469e-05 0.00437918 
C 34.1368 6.16179 21.4263 12.011 -0.00324691 -0.00616634 0.00362554 
C 8.16583 7.21976 2.25872 12.011 0.00252854 -0.00780916 0.00404216 
C 10.6402 15.1649 31.3696 12.011 -0.00188636 -0.00464028 0.00555581 
C 39.058 13.4665 36.6561 12.011 0.00139038 0.000590717 -0.0038426 
C 20.8216 37.3766 33.3916 12.011 -0.00742251 0.00107702 -0.0051584 
C 3.79437 41.4302 15.9916 12.011 0.00728741 -0.00357514 0.00366411 
C 27.5465 24.5812 31.1159 12.011 0.00100905 0.00191409 -0.00922237 
C 20.8525 42.8114 50.0775 12.011 -0.00071609 -0.00268578 0.00379741 
C 42.1066 12.3066 16.6308 12.011 0.00782405 -0.00140893 -0.00243412 
C 26.7421 0.0806321 1.79413 12.011 -0.00484318 -0.00729939 0.00103335 
C 33.6944 24.8732 3.89806 12.011 2.01411e-05 0.00124471 0.00108486 
C 15.7421 31.2534 39.6495 12.011 0.00278865 0.00608858 -0.0030267 
C 45.8593 31.516 7.55528 12.011 -0.00406412 -0.00158216 -0.00537213 
C 40.6125 48.9944 6.67235 12.011 0.00521697 -0.0108137 0.00163202 
C 14.8863 40.5287 2.07529 12.011 0.00284646 -0.00544611 0.0060991 
C 7.9383 20.4449 6.5403 12.011 -0.000429547 0.00196047 0.00726985 
C 28.0105 9.76289 30.8737 12.011 0.00235774 -0.000485735 -0.00161335 
C 44.4082 33.5979 1.86388 12.011 0.00151835 0.00222153 0.00197031 
C 23.8663 29.3783 36.9648 12.011 -0.00195111 0.0109122 -0.00274447 
C 35.0475 50.0519 41.7706 12.011 -0.00243627 0.00616412 -0.0128835 
C 43.9914 41.5557 40.0159 12.011 -0.00432708 0.000462761 -0.000719338 
C 14.259 6.51943 43.2682 12.011 -0.00605571 -0.00452863 -0.00268657 
C 20.7286 26.2336 26.0657 12.011 -0.00223784 -0.00312532 0.00490659 
C 21.2117 16.6169 16.9436 12.011 0.00174226 -0.00111443 -0.00192799 
C 38.9915 36.5542 26.934 12.011 0.00316353 0.00193326 -0.00478434 
C 18.5377 2.87126 4.44271 12.011 0.00398983 0.00652533 -0.00313892 
C 5.40942 29.0595 37.0462 12.011 0.00549987 0.00199106 -0.00833992 
C 11.7605 3.2268 28.0097 12.011 -0.00731662 -0.00628408 0.00230031 
C 43.2869 22.301 16.3135 12.011 0.000931576 1.10463e-05 0.000726471 
C 11.5419 18.4866 24.1309 12.011 0.000974744 -0.00448368 -0.00605304 
C 19.9793 38.1895 42.2256 12.011 0.00472167 0.00533532 -0.00298363 
C 39.3489 36.3489 20.5663 12.011 0.00111585 0.00311457 -0.00698044 
C 50.0776 18.5816 13.6009 12.011 -0.0182479 0.00401272 -0.000475152 
C 32.2703 23.02 48.3877 12.011 -0.00074647 0.00312733 0.00616632 
C 28.6745 9.37597 33.0469 12.011 0.0109047 0.00340298 -0.00370344 
C 30.3274 9.48474 45.0075 12.011 -0.00362284 -0.00204654 -0.00821368 
C 36.1986 27.0306 41.2852 12.011 2.65866e-05 -0.00466071 -0.00413899 
C 16.416 32.1306 19.035 12.011 0.000745565 0.00154955 -0.00501498 
C 6.67545 39.3612 39.6989 12.011 0.00160729 0.00412477 0.00284366 
C 19.2144 16.3595 4.60939 12.011 -0.000951111 0.00217585 0.00135962 
C 25.2555 24.9864 37.1105 12.011 -0.00450495 -0.00794384 -0.00152374 
C 14.4434 1.09881 33.3649 12.011 -0.00245606 0.0109398 0.000830039 
C 13.033 40.1945 0.403318 12.011 -0.00237963 0.0018985 -0.00839515 
C 39.8713 36.0872 11.8994 12.011 -0.00525233 -0.0053024 0.00268087 
C 39.6592 9.19477 28.3104 12.011 -0.00302743 -0.00671423 -0.0011866 
C 7.1062 11.7135 9.97664 12.011 -0.00143063 -0.00621607 0.00276191 
C 5.65871 15.1905 31.2848 12.011 -0.00110859 0.00275513 0.00134153 
C 7.48562 9.0151 27.2356 12.011 0.00624479 -0.0011332 0.00340318 
C 24.9659 7.18595 0.128408 12.011 -0.00159087 0.0046628 0.000900697 
C 35.6368 14.7014 31.8608 12.011 0.00393746 -0.0116518 0.00358551 
C 42.3643 39.6251 44.1144 12.011 0.00334019 -0.00313924 0.000737554 
C 5.56631 47.0577 45.7477 12.011 0.000533748 -0.00182416 -0.000676763 
C 37.8058 42.3813 39.641 12.011 0.00176448 -0.00469626 0.0051454 
C 17.9802 48.2403 41.7134 12.011 -0.0044412 -0.00474088 0.00243624 
C 41.2637 19.8042 35.1752 12.011 -0.00161567 -2.93998e-05 0.00318619 
C 35.594 40.3027 39.1569 12.011 0.00350027 0.00144657 0.000796303 
C 11.703 48.042 0.28431 12.011 -0.00944842 -0.00402856 -0.00408363 
C 36.9835 34.4829 17.5514 12.011 0.0127322 -0.00120489 0.013592 
C 37.165 42.4246 29.1707 12.011 -0.00454463 -0.00195001 0.0108054 
C 14.788 41.6381 43.5049 12.011 -0.00617254 -0.00484964 0.00534813 
C 18.1004 35.0041 2.82514 12.011 0.00666892 0.00130648 0.00233207 
C 15.2077 35.5681 1.78721 12.011 0.00835874 -0.00302953 -0.00467501 
C 18.5321 49.9487 34.5147 12.011 0.00406086 0.0084978 -0.00953436 
C 8.04134 49.5204 3.19654 12.011 0.00222621 0.0038285 0.000862943 
C 18.3183 30.2801 47.8389 12.011 0.000588307 -0.000438266 -0.00519934 
C 6.18534 23.876 4.56005 12.011 0.00924496 0.00461714 0.00283773 
C 32.5633 35.0306 48.258 12.011 0.00352991 0.0007943 0.0051913 
C 23.8513 17.6557 32.0428 12.011 -0.00511975 -0.00419919 0.00395489 
C 19.42 16.8819 9.5369 12.011 0.00481846 0.00841682 0.00602259 
C 25.291 37.8445 43.8402 12.011 -0.00940881 -0.00056514 0.00417519 
C 34.2855 24.6436 36.79 12.011 0.00159082 -0.0128056 -0.00134153 
C 14.6379 11.8894 23.4316 12.011 0.000994583 -0.00161663 -0.0108084 
C 5.17296 31.0915 43.1507 12.011 0.00278792 0.00509235 0.00369711 
C 24.9056 39.9091 31.6663 12.011 -0.00259345 0.00907167 -0.0051806 
C 13.2869 15.0397 5.10244 12.011 0.00152077 0.0011042 -0.000573579 
C 40.2245 9.52615 22.5154 12.011 0.00555899 -0.00372792 -0.00344246 
C 28.2846 0.294004 12.2579 12.011 0.0116023 0.000285583 -0.00409656 
C 26.7189 37.8094 44.1424 12.011 0.000184755 -0.00691015 0.000478169 
C 37.101 44.713 36.5837 12.011 -0.00400416 -0.0058497 0.00251584 
C 33.4978 14.9112 41.0177 12.011 -0.00109538 0.00278069 -3.97258e-05 
C 4.17223 31.3256 44.1458 12.011 0.0106106 0.00191871 0.00244277 
C 1.35585 40.0406 9.61622 12.011 0.00205075 -0.00220808 0.0110342 
C 2.2928 50.73 5.48291 12.011 -0.00436547 0.00515118 0.004235 
C 31.0234 21.3482 25.6001 12.011 0.00270963 -0.0052175 -0.00031187 
C 33.0253 41.9956 4.61899 12.011 0.00368004 -0.000263778 0.000871518 
C 27.0429 33.0328 24.8477 12.011 -0.00502679 0.00317456 -0.00332892 
C 30.353 20.2064 26.1255 12.011 0.00105603 -0.00466158 0.00142615 
C 29.5103 4.76364 18.7614 12.011 0.0030347 0.00469899 -0.00551035 
C 42.1776 45.3947 8.08102 12.011 0.000132185 0.00495511 -0.00312393 
C 34.6445 33.9623 12.4215 12.011 -0.00222949 0.0034484 -0.00634715 
C 42.7414 2.59994 32.2269 12.011 0.000201414 -0.000335233 0.00860789 
C 5.97675 48.028 28.6976 12.011 0.0114129 -0.00169472 -0.00314163 
C 37.6914 38.6176 49.0092 12.011 -0.00190757 -0.0120546 -0.00673669 
C 35.5717 45.4479 7.57761 12.011 0.00705157 0.000911502 0.000436839 
C 2.29375 31.3333 10.7628 12.011 -0.00253588 -0.00652487 0.009241 
C 23.4415 41.1014 33.2968 12.011 -0.00632463 -0.00269772 0.00222869 
C 14.0351 30.4065 24.8438 12.011 0.00322419 0.000645874 0.000994884 
C 1.50893 40.5689 48.4976 12.011 0.0013178 0.00272365 0.00119226 
C 29.7273 22.7122 21.7364 12.011 -0.000948611 -0.00213465 0.00104136 
C 24.6444 18.0725 44.4174 12.011 -0.00120457 0.000851422 0.00396934 
C 20.0755 15.7556 38.2756 12.011 -0.00506344 0.00319933 -0.0105344 
C 29.1698 8.64265 29.0991 12.011 0.000124463 0.00966339 0.000748104 
C 4.98813 13.2986 13.3068 12.011 0.00177922 -0.00365792 -0.00789631 
C 20.2494 8.22249 5.94575 12.011 0.00409447 -0.00177881 0.003563 
C 0.188331 49.7759 6.30889 12.011 0.00691608 0.00195684 0.000633216 
C 35.1555 8.55541 1.87306 12.011 -0.00437051 -0.00025188 0.0100413 
C 8.64638 20.3947 26.7179 12.011 0.00997299 -0.00633956 -0.00116891 
C 47.0576 8.39742 10.6572 12.011 -0.00156178 0.0017753 -0.00143478 
C 41.7384 30.2467 10.4789 12.011 0.000157154 0.00549892 0.00173692 
C 12.8022 48.6697 2.55452 12.011 -0.000603384 0.00194962 -0.00828938 
C 49.1094 41.0338 49.4551 12.011 -0.00242943 0.00276369 -0.0102394 
C 22.437 22.6218 37.2355 12.011 -0.00172587 0.00875034 0.00803158 
C 25.8605 22.2156 3.83954 12.011 0.00125054 0.00952388 -0.00306621 
C 25.3289 44.7314 6.39645 12.011 0.00261923 -0.00199361 0.00600905 
C 37.1532 0.757088 32.8358 12.011 0.00513886 -0.00677313 -0.00584048 
C 19.9967 47.4614 20.9211 12.011 -0.00669931 0.000858104 -0.000579384 
C 8.61897 9.90913 20.2038 12.011 0.00537684 0.00684716 0.00212727 
C 44.0438 14.0534 14.1242 12.011 0.00150751 -0.00100159 -0.0050794 
C 11.3138 49.9421 8.54848 12.011 0.000278935 0.00166422 0.00144838 
C 25.5287 10.7856 25.3034 12.011 0.00563216 -0.0107909 0.00666002 
C 43.6353 46.3739 13.9166 12.011 0.000575871 0.00154368 -0.00731453 
C 7.83677 6.52748 35.6307 12.011 0.00182765 -0.00181578 -0.00171577 
C 43.5712 2.59256 13.5934 12.011 0.000595401 0.000988795 0.0061318 
C 35.9624 45.7281 22.4049 12.011 -0.00887601 0.0112416 0.00646322 
C 25.7582 42.8191 19.039 12.011 0.00761919 -0.000215827 -0.00309188 
C 14.4557 33.2836 0.24989 12.011 -0.00097303 -0.00293103 -0.000773526 
C 28.9019 11.7302 48.4831 12.011 0.00178784 0.00104948 0.00608112 
C 50.0959 19.0526 5.57369 12.011 0.00185886 -1.1724e-05 0.00239016 
C 49.8534 15.6261 11.1954 12.011 0.000274567 -0.00332368 -0.00854569 
C 31.243 37.1731 7.73523 12.011 -0.00365755 0.0047264 0.00439642 
C 3.31003 22.4747 34.934 12.011 0.014618 0.0103428 0.006113 
C 4.34854 34.1989 4.47452 12.011 -0.00231932 -0.00478774 0.00414954 
C 2.64321 25.3808 3.90249 12.011 -0.0051082 0.00212242 -0.00204238 
C 3.68955 35.4368 13.4961 12.011 0.00292492 -0.00260669 0.00191876 
C 3.79004 16.1314 36.7939 12.011 -0.00581318 0.00801978 0.00181401 
C 23.1969 15.0146 24.2878 12.011 -0.000663637 0.00535221 0.0016383 
C 16.3633 26.3258 24.0428 12.011 0.00188782 -0.00125323 -0.00375027 
C 0.0961031 4.35836 24.3859 12.011 0.0062293 -0.00570759 0.00232389 
C 24.2209 4.473 45.6422 12.011 0.00786069 0.00285541 0.0107752 
C 34.9519 43.5374 22.3015 12.011 -0.00666697 -0.00352048 0.00155529 
C 36.1938 39.2495 18.2685 12.011 0.00673086 0.00492938 0.00345102 
C 34.3439 34.1395 9.90159 12.011 -0.00169776 0.00274048 -0.00870687 
C 22.4452 13.9919 22.1235 12.011 -0.00235711 -0.00130816 0.00110608 
C 11.1484 11.6936 38.2861 12.011 0.00263834 0.00987697 0.00168423 
C 37.8105 7.72287 32.7278 12.011 0.0155896 -0.000523503 0.00624989 
C 33.3131 13.6482 6.71798 12.011 -0.00529449 -0.00666543 0.00107167 
C 44.3463 24.6493 39.2629 12.011 0.00231133 0.00307126 0.000194789 
C 10.5229 19.9926 14.2851 12.011 -0.00479523 0.00222812 -0.00394905 
C 39.8629 9.00751 1.24453 12.011 -0.00829378 -0.00253555 0.00829353 
C 32.5956 44.45 46.1781 12.011 -0.000966767 0.00548841 -0.00668821 
C 22.7579 2.80291 34.3498 12.011 0.00614293 -0.000855257 -0.00558727 
C 15.8571 13.6581 33.7517 12.011 -0.0012455 -0.00164439 0.00186306 
C 1.2337 7.00761 13.9635 12.011 -0.00331328 0.000342732 -0.000187502 
C 23.5203 3.40979 46.1592 12.011 -0.00217718 -0.00278459 0.00131943 
C 5.57757 27.4247 40.9921 12.011 -0.00482148 -0.0062615 0.00791016 
C 16.3705 22.211 11.4037 12.011 0.000715482 -0.00835943 -0.00210056 
C 35.9907 5.99872 10.1904 12.011 0.0114439 0.00288944 -0.00184262 
C 48.9934 0.124393 28.5128 12.011 0.00496755 0.006074 0.00118813 
C 10.4244 23.7827 5.21711 12.011 -0.000952568 0.0030847 -0.00123451 
C 36.9169 46.5673 40.6482 12.011 -0.00572772 -0.0065113 0.0042598 
C 34.3629 34.5631 30.234 12.011 -0.00130835 0.00290452 -0.00379415 
C 50.0145 43.1616 37.2116 12.011 -0.00202389 0.00282707 0.00639314 
C 1.95602 9.02443 36.8823 12.011 -0.00547438 0.000567903 -0.00285381 
C 41.7277 15.0251 18.2257 12.011 0.00515621 -0.00303385 0.00155906 
C 30.9502 23.3974 30.2572 12.011 -0.00254782 -0.00344722 -0.0045243 
C 35.3181 30.2603 26.0412 12.011 0.00219938 -0.00197444 -0.00159297 
C 9.28574 45.8178 37.6362 12.011 -0.00148271 1.98639e-06 0.000512064 
C 10.7004 18.7516 41.5363 12.011 -0.00566027 0.00200619 0.00994809 
C 33.83 3.33652 34.3868 12.011 0.000669068 -0.00184526 -0.00159198 
C 9.78613 41.5308 48.3447 12.011 0.002698 -0.00364867 0.0133566 
C 16.8746 5.56793 33.5003 12.011 0.00305267 -0.00463019 -0.00226781 
C 10.6853 47.3868 30.7102 12.011 -0.00865133 -0.00181591 0.00150958 
C 2.40906 47.6538 14.1676 12.011 -0.00259234 -0.0100722 0.00055334 
C 14.5977 11.2117 31.3919 12.011 0.00227074 -0.00466132 0.00612889 
C 1.66171 37.5456 7.44263 12.011 0.00215489 -0.0020415 -0.00100035 
C 9.30796 22.7427 27.1393 12.011 0.00327584 -0.00131449 0.0045136 
C 37.9996 7.09456 3.87367 12.011 -0.000412585 0.00290147 -0.00276973 
C 6.6177 50.6458 42.2849 12.011 -0.00310996 -0.00116559 0.00304761 
C 16.411 27.0341 39.1639 12.011 0.00337061 -0.0066921 -0.000859284 
C 39.4473 6.55541 28.318 12.011 -0.00516146 0.000662261 -0.0066698 
C 13.5809 25.0589 3.39655 12.011 -0.00724184 -0.00495372 0.00298936 
C 42.1384 46.4614 28.956 12.011 -0.00184385 -0.00223418 -0.00294838 
C 14.5317 3.50663 34.6194 12.011 0.00583134 -0.00236053 -0.00269118 
C 46.3058 46.32 30.6335 12.011 0.0010997 0.00254435 -0.00998467 
C 25.6287 10.0541 17.3595 12.011 -0.000777335 0.00745805 -0.00153473 
C 38.3752 19.0324 42.3687 12.011 0.0135129 0.00225935 0.00380943 
C 19.0122 21.8235 34.9753 12.011 0.00341854 -0.00154298 -0.00411471 
C 30.8541 30.7987 43.5265 12.011 0.00626798 0.00134316 -0.00101896 
C 30.5683 16.5922 16.5256 12.011 0.00235803 0.00793855 -0.00355954 
C 26.8384 26.6294 11.6722 12.011 0.00168412 0.00336003 -0.00341989 
C 22.3755 11.4452 16.5137 12.011 -0.00613837 -0.00165474 -0.00332027 
C 5.53373 41.9832 37.4493 12.011 0.00805013 -0.00939776 -0.00364407 
C 0.387754 19.4414 35.7625 12.011 -0.00785127 -0.000994853 0.00381933 
C 34.4113 39.5668 39.6008 12.011 -0.00373983 -0.00110409 0.00174333 
C 44.5671 27.0599 26.911 12.011 -0.00159426 -0.000416255 0.00484269 
C 24.3329 12.8797 13.591 12.011 -0.00230495 -0.00667054 -0.00578474 
C 32.5933 1.79874 32.4006 12.011 -0.00488595 -0.000299811 -0.00469668 
C 30.2769 37.942 21.455 12.011 -0.00474208 0.00358235 -0.00531712 
C 22.2963 34.4789 31.4613 12.011 0.00212979 -0.0040124 0.00376305 
C 8.51226 16.4057 27.8675 12.011 -0.00225392 0.0056478 2.59814e-05 
C 33.4066 25.6993 24.5124 12.011 -0.00497162 -0.00325553 -0.00894553 
C 28.0949 38.9817 46.1384 12.011 0.00276138 0.0139814 -0.00430045 
C 15.8571 16.4852 43.958 12.011 -0.00266599 0.0024064 0.00272471 
C 16.8334 10.9173 44.401 12.011 -0.00758125 0.00619429 -0.000639182 
C 9.0873 26.1159 4.32749 12.011 -0.00253505 0.00789589 0.00503528 
C 6.81342 6.25947 20.7219 12.011 -0.00600154 0.00174536 0.00583811 
C 20.3931 50.8198 5.52746 12.011 -0.00849425 -0.0012168 -0.0034059 
C 20.2369 9.49065 2.57281 12.011 -0.00102343 0.00322331 -0.00377835 
C 16.1821 12.8668 38.0409 12.011 -0.00018185 0.00250823 -0.000469067 
C 41.4761 19.1851 27.454 12.011 0.00454919 0.00347451 0.00641958 
C 34.9633 35.3667 7.41107 12.011 -0.00213316 -0.00148987 -0.00569294 
C 25.7069 7.2722 10.9073 12.011 -0.0029713 -0.00219753 0.00201124 
C 49.6768 46.811 38.4684 12.011 0.00282623 0.00680455 0.00302062 
C 50.6031 12.6541 8.22249 12.011 -0.00392207 -0.00180646 0.00151405 
C 26.9831 0.354314 3.22239 12.011 0.0105255 0.00480076 0.00599816 
C 44.6937 0.334383 12.1133 12.011 -0.00159877 0.00807444 -0.00276016 
C 32.1062 21.09 39.0028 12.011 -0.00194346 -0.00726129 0.000778005 
C 43.7238 42.3091 10.4222 12.011 -0.00724507 -1.59368e-05 -0.00120897 
C 13.4038 11.5556 25.456 12.011 -0.00170708 -0.00215069 0.00718845 
C 46.9772 38.1965 38.2891 12.011 0.000770374 0.00209315 0.00392862 
C 46.8484 7.70839 43.7816 12.011 -0.00557239 -0.00549484 -0.00379166 
C 46.535 3.21361 41.9958 12.011 -0.00411044 0.00688427 -0.0018452 
C 1.82639 0.0134964 25.2695 12.011 0.0023523 0.00205348 -0.00774565 
C 49.9835 21.1361 45.4556 12.011 -0.00890594 0.00328285 0.00538225 
C 7.73911 48.0732 17.6057 12.011 0.00161302 -0.00384087 -0.00711327 
C 50.251 25.3222 11.296 12.011 -0.000699312 0.00521901 -0.00358804 
C 26.0336 11.1494 30.4003 12.011 0.00131551 -0.00340584 2.97487e-05 
C 10.0038 31.196 2.08652 12.011 0.00167408 -0.00363738 0.00260911 
C 38.7637 3.83833 28.2567 12.011 -0.00110749 -0.00313658 -0.00107356 
C 20.7746 40.3566 29.2097 12.011 0.00525403 0.00270012 0.00669823 
C 33.8113 16.8437 32.3874 12.011 0.00376188 0.0019661 0.00696591 
C 27.32 39.5361 32.2839 12.011 -0.00143775 -0.000852063 -0.00649234 
C 40.8276 10.0585 50.4026 12.011 0.0035119 -0.00304707 0.00426047 
C 49.5865 29.6615 22.8503 12.011 -0.00297387 0.0008183 -0.00867235 
C 37.9479 15.2436 13.5257 12.011 -0.00656945 0.00518101 0.00177632 
C 18.7061 37.4904 10.0405 12.011 0.00194522 0.00291083 -0.000769974 
C 27.9661 0.525761 17.1833 12.011 -0.00691833 -0.000312538 0.00380874 
C 23.0453 30.4926 16.2347 12.011 -0.00328026 0.00217085 0.00117895 
C 4.08416 33.6878 43.4806 12.011 -0.000402423 0.00620162 0.00420939 
C 1.23251 11.8205 44.3598 12.011 -0.0030734 0.0032083 0.000215868 
C 49.7856 8.24767 6.38223 12.011 -0.00238858 -0.00106257 -0.000123282 
C 50.2835 36.5278 14.789 12.011 0.0105284 -0.000799292 0.0020041 
C 30.4792 39.062 23.6774 12.011 -0.0061779 0.0016988 -0.00164026 
C 40.1324 26.4191 7.47292 12.011 0.0108923 0.000170745 0.0033324 
C 43.9053 43.4351 45.0305 12.011 0.00755326 -0.00681877 -0.00404732 
C 36.4167 28.2879 15.3528 12.011 -0.00388093 0.00339035 -0.00151688 
C 2.44286 20.892 3.86522 12.011 0.00192017 0.000683689 -0.00714095 
C 24.343 10.6925 23.151 12.011 -0.00676646 -0.00133567 -0.00590399 
C 5.97721 25.1874 21.7362 12.011 0.00476454 -0.00332819 -0.000492591 
C 26.3398 22.703 32.3367 12.011 9.38392e-05 0.000130881 -0.000197778 
C 40.971 30.734 50.7386 12.011 0.00512839 -0.00506133 -0.0030086 
C 23.651 37.4363 15.7791 12.011 0.000369307 0.000430429 -0.00208602 
C 8.06917 27.6844 22.2381 12.011 0.000919887 -0.00416937 0.00427697 
C 6.74839 31.1602 37.1091 12.011 -0.00627358 0.000423864 -0.00582156 
C 35.6632 33.9781 41.0547 12.011 0.00685548 -0.00836581 0.00520956 
C 1.30534 38.0202 2.13324 12.011 -0.0107708 0.00218416 0.000316113 
C 12.2486 28.6927 39.5453 12.011 0.000802296 0.00759864 0.000441914 
C 3.21507 4.18202 34.6257 12.011 -0.00317815 -0.00317068 0.00303756 
C 41.7315 46.5767 7.51447 12.011 -0.00621925 -0.0075318 0.000986663 
C 15.9452 24.1845 46.3743 12.011 -0.00395539 -0.00465534 0.00977582 
C 32.3848 8.2991 7.51948 12.011 0.00172187 -0.00443259 0.00978305 
C 2.15588 23.41 39.4335 12.011 0.00606154 -0.00309257 -0.00372201 
C 24.7849 0.651822 48.5565 12.011 -0.00563684 -0.00402057 0.00526736 
C 14.2456 13.1341 29.4429 12.011 0.00360305 0.00257722 -0.00631421 
C 29.6441 12.9461 48.2797 12.011 -0.00238913 -0.0014055 0.00737523 
C 31.9182 32.3728 7.64217 12.011 -0.00545499 -0.00567397 -0.000220419 
C 22.7155 9.56179 21.4367 12.011 -0.00242248 0.00505942 0.00182457 
C 20.4977 10.1743 20.758 12.011 0.00434646 0.00262234 -0.00376436 
C 28.2863 23.2281 4.82571 12.011 0.00472019 0.00434843 -0.00143742 
C 12.7092 20.1472 41.0159 12.011 -0.00571128 -0.0010985 0.00405241 
C 38.8382 42.0651 35.1487 12.011 0.00458893 0.00305133 -0.000106707 
C 47.1814 0.128085 38.8877 12.011 0.00599643 -0.0027295 0.00423751 
C 19.1765 27.4181 16.4915 12.011 0.00550226 -0.000756262 0.0023054 
C 4.01476 25.1752 42.0512 12.011 0.00218773 -0.00306996 0.00372013 
C 6.19161 26.9041 12.6291 12.011 -0.00424751 0.00638293 0.0109534 
C 20.9208 37.076 30.8312 12.011 -0.0049151 0.00354505 0.00274673 
C 26.3678 33.1706 14.9849 12.011 -6.30885e-05 -0.0072611 0.00812975 
C 20.0698 14.1681 10.1448 12.011 -0.00202969 6.75204e-05 -0.00161359 
C 7.55073 16.0783 11.2763 12.011 -0.0123947 -0.00757379 -0.0040637 
C 6.88224 35.2767 41.3076 12.011 -0.000524363 -0.000822009 -0.00227651 
C 34.9819 18.6538 45.9176 12.011 -0.00503673 -0.00144606 -0.00581411 
C 24.8252 11.1689 16.9493 12.011 0.00153392 -0.00142322 -0.00784735 
C 13.0338 27.4238 28.8339 12.011 -0.00455259 0.00166442 0.00781684 
C 2.19949 20.8391 16.3706 12.011 -0.00387031 0.00258602 -0.000197435 
C 14.0155 17.2331 12.1243 12.011 -0.000113505 0.00104001 -0.00543455 
C 16.1835 41.6901 3.82674 12.011 0.00122667 -0.00755275 -0.00707991 
C 0.0883342 4.82575 38.6208 12.011 -0.00216193 0.00213963 0.000270023 
C 1.11119 22.8296 17.9435 12.011 -0.00251041 0.000385126 -0.00733262 
C 48.2547 19.118 7.2991 12.011 0.0103209 -0.00678013 0.000400128 
C 2.70263 20.5104 0.814399 12.011 0.00962825 -0.00303924 0.00768931 
C 29.4526 27.9409 36.8953 12.011 -0.00139899 -0.00123102 0.00322117 
C 1.59472 38.5494 6.40371 12.011 -0.00265885 0.00311519 -0.00207081 
C 21.7944 36.7503 28.7261 12.011 -0.00247268 0.00104116 0.0041921 
C 18.136 3.25419 49.3389 12.011 0.00459056 -0.000407542 0.00157596 
C 16.6871 5.37275 15.2967 12.011 0.000732083 0.00108709 -0.0050209 
C 18.0327 3.75332 13.082 12.011 -0.00207144 -0.0030905 0.00657838 
C 19.512 11.9769 50.9522 12.011 0.00375683 0.00142799 0.0024959 
C 44.2915 14.159 19.8887 12.011 0.00275811 0.00436988 -0.000706028 
C 49.6553 17.9613 3.47317 12.011 -0.0103102 -0.000492756 0.00406471 
C 45.9786 4.5206 42.039 12.011 0.00386109 -0.00528861 -0.00409062 
C 38.6307 36.846 40.2376 12.011 0.00453501 0.00401631 -0.00441719 
C 42.7811 20.8549 40.7333 12.011 0.00120685 0.00139781 -0.0103502 
C 31.9288 39.5117 39.605 12.011 -0.00380856 -0.00434817 0.00737718 
C 36.1608 5.87797 39.9873 12.011 0.00524728 0.00512427 -0.00282525 
C 43.5626 35.031 8.95062 12.011 -0.00732205 0.00175859 0.00124267 
C 12.9965 29.3107 14.3303 12.011 0.000619061 0.00698814 0.000564345 
C 42.5535 37.3516 45.1637 12.011 0.0063572 0.00216859 0.00404109 
C 12.8658 26.1488 39.3155 12.011 0.00779034 -0.00948421 -0.00128927 
C 15.7972 47.1826 44.6218 12.011 0.00145737 0.000880494 -0.000114358 
C 43.0156 17.4887 18.5514 12.011 0.00663067 0.00232807 -0.00359678 
C 10.1028 49.9654 29.4309 12.011 -0.00640554 -0.00409301 0.00175861 
C 3.13259 34.7711 43.4067 12.011 0.0119172 -0.00364607 -0.000829242 
C 6.19779 49.0019 23.7978 12.011 0.00271457 0.000454608 0.00391736 
C 41.9829 7.56675 20.9986 12.011 0.000726959 0.00185992 0.00315714 
C 40.1053 24.158 40.0832 12.011 0.00127816 0.00103972 -9.10924e-05 
C 13.6364 4.73102 23.415 12.011 0.0026507 -0.00171837 -0.000242816 
C 18.0721 18.4343 19.7471 12.011 -0.00522454 0.00196166 0.00255607 
C 38.8774 35.5538 24.7018 12.011 -0.000884472 0.00216419 -0.000837863 
C 17.2297 22.0236 10.1416 12.011 0.00416969 0.00196339 -0.00592903 
C 19.8323 48.8668 11.8783 12.011 -0.000651246 0.000702185 -0.00443252 
C 42.1369 44.6893 34.5405 12.011 0.00143801 -0.000939171 0.000954733 
C 31.8439 43.1213 13.2763 12.011 0.00629746 0.00534226 -0.0027312 
C 3.33951 21.2903 27.6811 12.011 -0.0018595 -0.00217624 -0.00811896 
C 23.9281 33.2204 32.9911 12.011 0.00396621 0.00367935 -0.00720769 
C 9.4496 28.8401 8.67283 12.011 0.00179381 -0.000505432 -0.00420626 
C 34.8528 19.6915 23.8772 12.011 3.95016e-05 0.00359571 0.00196862 
C 49.8804 46.5283 13.6756 12.011 0.00149563 -0.00453393 -0.000758742 
C 20.9618 15.4993 5.89308 12.011 9.93924e-05 -0.00327536 0.00310188 
C 7.46582 48.155 26.2143 12.011 -0.00792843 -0.00046463 -0.00308862 
C 9.1744 33.6263 20.4969 12.011 -0.00626188 -0.00246756 0.00103516 
C 16.0146 29.8163 49.3391 12.011 0.0109115 0.00214362 -0.00307943 
C 38.8597 41.0156 49.2655 12.011 0.00335178 0.00175789 0.0112376 
C 17.7154 19.4252 41.6063 12.011 0.0046564 0.000991801 0.00330916 
C 25.4241 43.1205 1.51277 12.011 -0.00190958 -0.00365205 0.00230858 
C 44.9689 29.9674 2.14952 12.011 -0.00289147 0.00539672 8.52495e-05 
C 44.0439 21.2751 48.436 12.011 0.00443307 -0.0024142 -0.00019637 
C 18.9761 23.3388 5.65416 12.011 -0.00676902 0.000896735 -0.00209772 
C 42.3629 43.9562 50.9973 12.011 0.00107055 -0.00843205 0.00143094 
C 15.4323 9.43854 0.589778 12.011 -0.00273179 3.43746e-05 0.00427892 
C 17.6351 33.8721 5.12849 12.011 -0.00118797 0.00489972 -0.000185729 
C 35.6457 6.99951 6.0658 12.011 0.00131078 0.0029731 0.00450299 
C 31.9391 43.3652 11.8364 12.011 0.00286177 -0.00559952 -0.00538849 
C 9.96302 13.2938 21.111 12.011 -0.00864858 -0.00776205 -0.00324105 
C 29.9604 34.3784 34.68 12.011 -0.00286152 -0.00220289 -0.005046 
C 47.5466 3.88836 17.3044 12.011 0.0015614 0.00253583 0.00543471 
C 0.62283 19.2739 3.70127 12.011 0.00729982 0.00402246 0.00347 
C 19.8384 45.5385 8.16358 12.011 0.00207723 0.00118605 -0.000579975 
C 3.68751 5.30653 10.9829 12.011 -0.0044271 -0.0077564 -0.00129432 
C 11.6299 18.7575 17.5241 12.011 0.00195408 0.00609886 -0.0029746 
C 20.6656 1.30817 41.3882 12.011 0.0029244 0.00232698 0.000136211 
C 41.4024 48.4458 10.6105 12.011 -0.00345703 0.00119679 -0.00311285 
C 0.633028 46.7089 40.3735 12.011 0.00262166 -0.00682201 0.00139428 
C 24.9509 3.79875 34.0128 12.011 0.0110351 -0.00204389 -0.00385535 
C 14.4859 17.6995 8.18936 12.011 0.00354031 0.0058506 0.00447064 
C 18.2572 21.0376 29.1461 12.011 0.0018859 -0.00638725 -0.00783093 
C 18.386 50.2684 0.960434 12.011 0.00399669 -0.00241111 -0.00336948 
C 39.2851 8.84876 2.51493 12.011 -0.00316467 0.00140049 -0.00136778 
C 43.963 41.0213 9.71497 12.011 -0.00124285 -0.00333782 0.000234994 
C 1.11512 23.7018 34.1451 12.011 0.00474307 -0.00628888 0.00582409 
C 7.11579 19.9707 31.5763 12.011 0.00725955 -0.00292302 0.00175555 
C 48.7086 16.1182 21.1575 12.011 0.00280384 0.000143918 0.00351231 
C 31.8956 37.942 11.3014 12.011 0.000640452 -0.00579197 0.000344853 
C 25.7364 42.8921 41.5004 12.011 0.0018134 0.00504999 -0.0073498 
C 45.4884 16.8353 6.07923 12.011 -0.000446092 -0.0104077 -0.000752699 
C 49.8552 20.9362 8.79752 12.011 0.00149226 -0.00456095 0.00840371 
C 24.406 0.589556 46.1703 12.011 0.00876805 -0.00708096 0.00592239 
C 37.9973 8.8033 38.5541 12.011 0.00267872 0.00652443 -0.00104077 
C 46.382 29.9611 28.1472 12.011 0.00398036 0.006757 -0.00145962 
C 11.154 41.7315 12.5973 12.011 -0.00300426 0.00902495 -0.000136349 
C 49.6608 27.322 27.135 12.011 0.00429615 -0.00971263 -0.00229908 
C 50.3897 16.6968 22.7906 12.011 0.00777943 0.00475581 0.00571128 
C 17.2624 28.3953 10.1284 12.011 0.00145314 0.00464986 0.00136639 
C 46.8646 35.608 12.6769 12.011 -0.00133376 -0.00394172 -0.00337821 
C 2.94727 21.3076 17.4737 12.011 -0.00312232 0.00466908 0.00358183 
C 22.2632 14.6067 46.7006 12.011 -0.000125117 -0.00578426 0.00452573 
C 45.1663 30.3523 36.2254 12.011 -0.000477525 -0.00147111 -0.00323392 
C 50.3969 37.9186 14.501 12.011 0.0029504 0.00349445 -0.003431 
C 20.5059 21.886 30.6317 12.011 0.000573572 -0.00506164 0.00128245 
C 0.282332 46.2681 41.6749 12.011 -0.00421482 0.00201779 0.00956377 
C 31.4514 48.2945 5.55239 12.011 0.000714872 0.00484258 -0.00370741 
C 26.7926 22.6443 37.7982 12.011 0.0029965 -0.00133859 0.00555966 
C 6.28136 29.9675 37.0019 12.011 -0.00736531 -0.00844618 0.00394534 
C 15.7003 47.8645 40.93 12.011 0.00352414 -0.00524764 -0.00103771 
C 21.148 38.7825 10.1941 12.011 0.00557838 -0.00496601 -0.00396345 
C 17.1284 44.4519 39.3025 12.011 0.00391475 -0.00344036 0.00101425 
C 10.6394 33.4253 40.8486 12.011 0.00383694 0.0028077 0.00341044 
C 48.0265 34.8177 12.7503 12.011 -0.00547124 -0.000206985 -0.00769143 
C 18.6549 13.5568 39.1664 12.011 0.000642106 -0.00238406 -0.00478607 
C 28.9186 21.9171 22.5643 12.011 -0.00232754 -0.00513628 -0.0133452 
C 12.6224 33.3616 26.6316 12.011 -0.000429418 0.00320691 -0.000841034 
C 21.8462 23.9953 7.99566 12.011 0.000188084 0.00650623 -0.00243653 
C 42.954 3.66406 14.2185 12.011 0.00221818 -0.00580218 0.0012485 
C 14.2943 47.3944 48.6968 12.011 -0.00774913 0.00081887 0.000440553 
C 29.3287 50.2221 39.1682 12.011 0.00581466 -0.0047657 -0.00266225 
C 28.0216 22.8492 46.3831 12.011 -0.00381406 0.00666084 -0.00139165 
C 38.2261 35.6945 15.8193 12.011 -0.00275826 -0.00381082 0.00417473 
C 11.2275 21.8117 22.1075 12.011 -0.00114897 -0.00623424 -0.00231668 
C 13.4201 37.609 11.5441 12.011 0.00188195 0.00098084 -0.00247763 
C 21.355 36.1097 41.7882 12.011 0.000166324 0.0106347 -0.0021419 
C 18.3749 19.2248 34.6691 12.011 -0.00593328 -0.000567571 0.00408014 
C 6.23376 46.3222 42.1242 12.011 0.011215 0.000820661 0.00344244 
C 19.3582 17.7841 43.1764 12.011 0.00362756 0.00425858 -0.00840901 
C 43.9938 30.2488 8.58493 12.011 -0.00102625 -0.00668426 0.00565039 
C 5.51128 0.42729 42.5397 12.011 0.00110562 0.00187852 0.00778671 
C 35.3774 46.7827 1.88905 12.011 0.000318161 0.00146062 0.00467199 
C 5.64582 15.5128 23.9545 12.011 -0.00934261 0.00261762 0.0010113 
C 30.3152 48.995 4.95564 12.011 0.00124357 -0.000180451 -0.000550059 
C 38.3773 38.2351 40.2202 12.011 -0.00193482 0.00254565 -0.000325499 
C 4.35012 10.9908 1.385 12.011 0.00258004 -0.00602903 0.000499252 
C 22.6342 16.5168 20.9638 12.011 0.00451266 -0.0053321 -0.00986687 
C 34.6312 2.53121 40.3253 12.011 0.00719581 0.00390852 -0.00682964 
C 48.3274 26.8297 26.6773 12.011 -0.00105546 -0.000545229 -0.00241191 
C 28.8346 34.4293 42.973 12.011 0.00420298 0.0074076 -0.00615388 
C 15.4761 43.2574 5.91858 12.011 -0.00414037 -0.00044398 0.0019124 
C 25.2802 22.4362 43.8469 12.011 0.0133178 -0.00387139 -0.0100143 
C 11.2052 34.9206 0.846996 12.011 0.00666371 0.00380427 0.00857769 
C 3.52316 42.2649 17.1101 12.011 -0.00260363 -0.00968141 0.000900064 
C 20.8995 8.01122 44.782 12.011 0.0047337 0.003336 -0.00590294 
C 30.395 30.7953 6.51337 12.011 0.00457315 0.000169773 0.00872011 
C 1.49288 47.5818 3.63787 12.011 -0.00174725 -9.51312e-05 0.00700601 
C 13.9761 11.7537 29.1487 12.011 0.00368084 0.00076495 0.0040033 
C 35.104 5.09957 35.8505 12.011 -0.00759683 0.00507095 -0.0024101 
C 41.9517 37.5711 5.88825 12.011 -0.00063486 0.00556869 -0.00158804 
C 37.8517 7.22258 43.1207 12.011 -0.00461973 0.00250855 0.00364236 
C 49.2033 40.0788 5.29987 12.011 0.00272542 0.00865094 0.00308497 
C 29.7677 1.88896 39.2097 12.011 -0.00243998 0.00439765 -0.000239581 
C 3.05085 10.3663 24.3563 12.011 -0.00397756 -0.00691392 0.000754195 
C 35.1663 5.53628 50.7956 12.011 0.00261056 -0.0071452 0.00484806 
C 25.8796 18.7011 44.6777 12.011 -0.00285167 -0.00865833 -0.00243994 
C 38.3169 45.7844 45.1354 12.011 0.00303138 0.00238054 0.00111367 
C 51.02 31.1527 32.4506 12.011 -0.000652344 0.00148367 -0.00383131 
C 0.177085 9.61872 5.02586 12.011 -0.00700314 -0.00144997 0.00415443 
C 35.7885 46.6867 49.2582 12.011 -0.00880269 0.000357155 0.00349321 
C 30.346 50.5274 18.2836 12.011 -0.00586176 0.00251503 0.00831144 
C 26.5195 48.6221 45.7632 12.011 0.00300309 -0.00542467 -0.00308969 
C 34.8056 37.6654 34.1493 12.011 0.00624972 0.00137012 0.00423072 
C 25.2116 13.5962 35.6746 12.011 0.00160504 0.00537341 0.00109569 
C 30.4425 7.57685 12.0234 12.011 0.00142156 0.000982378 0.00491221 
C 5.45792 17.1978 22.268 12.011 -0.000674046 -0.00512556 -0.00148967 
C 46.6111 1.55722 16.9025 12.011 -0.00629566 -0.000160439 0.011069 
C 23.3572 9.03485 0.532772 12.011 0.00622106 -0.00128282 -0.00504923 
C 28.8145 19.3624 34.9559 12.011 0.000289255 0.00974095 0.00107053 
C 49.4313 16.3423 29.3767 12.011 0.0076785 -0.0109482 -0.00221099 
C 35.7698 7.8374 4.92248 12.011 0.0074549 -0.000874364 -0.000427821 
C 42.6077 38.9365 24.3962 12.011 -0.0055645 -0.00438493 0.00167222 
C 11.6874 36.2533 0.907476 12.011 0.00242672 0.00172491 -0.00785574 
C 42.6075 19.6703 13.7644 12.011 0.00219365 -0.000205244 0.000108924 
C 8.5098 47.0744 35.6174 12.011 0.00164724 0.00202778 -0.00735861 
C 22.3376 32.5243 29.3505 12.011 0.00436333 -0.000155963 0.0038088 
C 5.5562 47.0989 32.3279 12.011 -0.00265057 0.00454279 -9.35042e-05 
C 15.592 46.0672 8.21876 12.011 -0.00365506 0.00431949 0.00312571 
C 10.954 12.0017 0.333585 12.011 -0.00550582 0.00266443 0.000211317 
C 5.99598 21.6843 5.51531 12.011 0.00477814 0.000693502 0.00308471 
C 33.8651 38.6571 44.3562 12.011 -0.00154256 0.00422778 -0.00426057 
C 37.7815 24.7927 48.8772 12.011 -0.00139006 -0.0032923 -0.00640215 
C 19.8152 29.5162 46.2421 12.011 0.0041498 -0.00565038 0.000750854 
C 50.1356 45.3058 12.9277 12.011 0.000848875 -0.00513257 0.0100174 
C 34.3771 34.1641 46.4348 12.011 -0.00296042 0.00439768 -0.00555351 
C 48.1977 17.3342 45.1839 12.011 0.00451664 -0.00117733 -0.00843326 
C 0.801963 20.0173 23.7245 12.011 0.00258139 -0.00338194 0.0105615 
C 14.8987 6.2197 32.2294 12.011 0.00404016 0.000859276 0.00129442 
C 29.9998 49.0409 3.6081 12.011 -0.0015223 0.0087287 0.00355319 
C 45.4655 41.9363 12.0715 12.011 0.0058523 0.00409754 -0.00406125 
C 8.63218 8.69641 36.5226 12.011 -0.00435626 4.92151e-05 -0.00261174 
C 33.0161 45.7659 27.8015 12.011 0.00608847 -0.00851015 0.00192001 
C 19.5337 20.8979 35.9023 12.011 -0.00483439 -0.00507716 0.0021022 
C 41.0152 4.64121 31.2883 12.011 -0.00268847 0.00658199 -0.00719834 
C 4.57723 47.088 46.8227 12.011 0.00283913 0.00790094 -0.00107826 
C 50.9654 32.7225 0.350184 12.011 0.00135438 0.00312807 0.00235994 
C 36.8353 1.91947 17.0967 12.011 -0.00238676 0.000342923 0.000786557 
C 20.71 3.9353 20.8046 12.011 -0.00570535 -0.00828249 0.00134329 
C 21.139 9.48243 17.1547 12.011 0.00409279 -0.000298517 -0.00244593 
C 8.94772 47.7444 1.81857 12.011 -0.000881781 -0.00501076 0.00830397 
C 10.275 15.118 4.38042 12.011 0.00124628 -0.000190017 0.00293948 
C 37.5329 40.0235 35.2432 12.011 0.000593359 0.00198084 0.00138264 
C 7.31124 7.37656 9.96792 12.011 0.00339866 -0.00346696 0.0040886 
C 14.0263 16.525 7.37294 12.011 -0.000997312 -0.00294837 -0.00108764 
C 28.0675 18.577 45.7766 12.011 0.00358606 0.00452594 0.0120142 
C 3.92474 15.1454 7.64139 12.011 0.00199176 0.000855218 0.00577652 
C 10.3371 29.61 13.1881 12.011 -0.00719885 0.000565939 0.00370574 
C 2.78742 45.3567 12.5116 12.011 -0.00297204 -0.00101752 -0.00346534 
C 24.9473 3.66938 2.93006 12.011 0.000992074 -0.0129957 -0.00512046 
C 4.76669 23.8425 4.12666 12.011 -0.00122153 -0.0048093 0.00371305 
C 16.3091 49.4178 12.9613 12.011 0.00917377 -0.00469809 -0.000277186 
C 20.3537 14.8356 8.85775 12.011 -0.00311317 0.00411063 -0.00361867 
C 23.139 4.66138 32.5855 12.011 0.00757285 0.00296036 0.000945293 
C 33.2987 42.2201 31.2823 12.011 0.00536864 -0.000429203 0.00117046 
C 26.2644 31.915 36.341 12.011 0.00175002 0.00342614 0.00805038 
C 23.8477 18.0912 29.6155 12.011 -0.00373202 -0.00849449 -0.00445763 
C 35.5769 48.177 49.0965 12.011 0.00293528 -0.00357799 0.0103789 
C 41.9567 48.7909 4.52438 12.011 0.00104028 0.00207345 -0.00842203 
C 15.3735 47.3289 42.2016 12.011 -0.00205652 -0.000509417 -0.00751243 
C 31.3706 15.4118 42.1983 12.011 -0.00325313 0.00210154 -0.00986689 
C 8.137 47.9718 24.9187 12.011 -0.00384852 -0.00228116 0.00330265 
C 25.7052 14.1447 6.65135 12.011 0.00359833 0.00299769 -0.0036745 
C 5.37366 44.2515 35.5328 12.011 0.00353005 0.004138 -0.005184 
C 32.9092 25.8507 21.2661 12.011 0.00218059 0.00394655 -0.00469189 
C 0.887382 34.0442 49.6911 12.011 0.00140694 -0.00694268 0.00409991 
C 30.9076 48.4369 2.63486 12.011 -0.00325346 -0.00228206 -0.00310498 
C 29.7392 10.0149 3.89377 12.011 -0.00560674 -0.0076485 -0.00356382 
C 23.0037 31.6175 28.3639 12.011 -0.00549409 0.000992089 0.000962715 
C 32.4015 16.4045 9.52901 12.011 -0.00483552 0.00263119 -0.00540802 
C 12.4851 28.4599 2.39729 12.011 -0.00731117 -0.00345697 -8.51809e-05 
C 3.11431 21.071 8.35468 12.011 0.00130301 0.00366808 0.000687921 
C 21.0576 44.9536 16.6912 12.011 -0.00512103 0.00372238 -0.00637381 
C 39.2382 25.3528 39.9867 12.011 -0.00334935 -0.00160004 0.00364581 
C 50.8312 20.2911 15.4032 12.011 -0.00929836 0.00379262 0.00499112 
C 4.622 48.682 15.5997 12.011 0.00137076 0.00611941 -0.00017433 
C 41.9813 13.2488 1.98991 12.011 0.0105228 -0.00192693 -0.000247028 
C 7.41818 40.9628 48.271 12.011 0.000564726 0.00577541 0.00175116 
C 45.0459 42.6701 23.021 12.011 -0.00375359 0.00808983 -0.010751 
C 47.7129 15.9365 45.1853 12.011 -0.00342244 -0.000786519 0.0016594 
C 32.4117 23.3823 25.7844 12.011 0.000343384 0.0073404 -0.00293775 
C 8.08123 12.5934 7.03252 12.011 -0.00236413 -0.00134594 -0.0071919 
C 12.8018 43.6964 39.3897 12.011 -0.00110548 -0.00254268 0.00463417 
C 47.0904 27.1105 27.1484 12.011 0.00441968 -0.00246044 -0.0059483 
C 25.151 12.4982 34.6925 12.011 -0.0138434 0.00119994 -0.00565265 
C 22.2673 11.4837 50.5201 12.011 -0.000635729 -0.00261142 -0.00351856 
C 13.2258 1.76977 42.5931 12.011 0.00438553 -0.00428845 -0.00834287 
C 0.998034 11.5326 17.8068 12.011 0.00678011 -0.00705222 -0.00334499 
C 40.5368 21.779 40.4286 12.011 -0.00809051 0.00053344 -0.00346466 
C 21.1678 21.7024 11.3015 12.011 0.000969028 0.000490014 -0.00544771 
C 42.2936 23.3937 34.2138 12.011 0.00406656 -0.00356746 -0.00416019 
C 17.7505 11.2235 15.3788 12.011 -0.00480024 0.00101119 0.00211968 
C 17.2328 39.1348 26.578 12.011 0.00136996 0.0040107 -0.00183291 
C 45.7485 24.7952 39.0785 12.011 0.00132096 0.00262401 -0.00217544 
C 32.1017 32.3511 10.0788 12.011 0.0142997 -0.00122042 0.0176754 
C 39.9124 15.5564 9.44649 12.011 6.72615e-05 -0.00291321 0.00500897 
C 7.39283 48.4383 21.3155 12.011 0.00110058 0.00609795 -0.00463928 
C 27.5059 28.2062 27.6727 12.011 -0.00419175 0.00875066 0.00119507 
C 26.1958 35.0222 4.40676 12.011 0.00371364 -0.0041771 -0.00251741 
C 40.3781 47.383 27.3142 12.011 -0.00626077 -0.0044971 -0.0111534 
C 17.7794 19.7376 19.2875 12.011 0.00514027 0.000849715 0.00217496 
C 13.1357 50.7127 20.8008 12.011 -0.009921 -0.00468927 -0.00489841 
C 15.8929 40.1998 39.0529 12.011 0.00480228 -0.00144878 0.00239655 
C 25.8679 14.5472 45.5256 12.011 -0.00216204 0.00625641 0.00885189 
C 41.2793 10.5243 35.4759 12.011 -0.000721106 8.08485e-05 -0.0049652 
C 49.452 21.1967 20.3482 12.011 -0.00298576 0.000656068 0.00382025 
C 29.2885 26.7719 16.3034 12.011 0.00107072 0.00192253 0.00535783 
C 13.4656 49.4382 13.1582 12.011 2.80591e-05 0.00604571 -0.00264547 
C 42.8348 25.8115 7.13837 12.011 0.00444219 0.000605745 -0.00609689 
C 10.2432 43.1755 43.2892 12.011 0.00339278 0.00429985 -0.0086699 
C 25.9943 26.7123 7.90956 12.011 0.000501289 -0.00441066 -0.00221266 
C 37.1098 9.75026 39.1473 12.011 -0.00625827 0.0049984 0.00869774 
C 8.97761 23.8021 5.12837 12.011 0.00482595 0.000594829 0.00198334 
C 15.4712 5.09 22.0176 12.011 0.00194038 0.00471556 -0.00260333 
C 23.5498 15.8975 45.2738 12.011 -0.00712146 -0.00156195 -0.0037252 
C 0.768951 43.8243 4.02179 12.011 0.00817 -0.00402431 0.00363035 
C 16.3997 45.394 17.3331 12.011 -0.000629051 0.00413022 -0.00360509 
C 15.74 27.1155 50.2099 12.011 -0.00214793 0.00257266 0.00272472 
C 49.169 48.8791 7.11797 12.011 -0.000716156 -0.00232874 0.00452692 
C 35.4221 28.0513 35.904 12.011 0.00351437 -0.00438082 -0.00977775 
C 12.3322 15.8846 5.65846 12.011 0.00130287 -0.00649728 0.00360049 
C 32.2014 32.867 3.87625 12.011 -3.1849e-05 0.00562329 0.00349012 
C 12.5367 9.76854 42.4935 12.011 0.0010265 -0.000222762 0.000621033 
C 33.2205 25.6598 25.9533 12.011 -0.000799861 -0.00631328 -0.0034057 
C 48.682 22.4786 10.9169 12.011 0.00146758 0.00794166 0.00194546 
C 37.6027 50.7338 33.6591 12.011 0.00569492 0.000744155 -0.00600552 
C 24.1049 24.8389 3.73383 12.011 -0.00624195 0.00229166 -0.0034759 
C 30.7977 39.0186 22.2776 12.011 0.000527294 -0.000533616 0.00148843 
C 46.2704 47.5466 9.07946 12.011 -0.000337358 0.00816168 -0.00891734 
C 2.50369 17.0256 10.4848 12.011 -0.00403657 0.00180241 -0.00161938 
C 49.906 42.6472 30.3112 12.011 0.0031654 0.00146153 0.00730736 
C 42.4847 13.265 15.7265 12.011 0.00378021 -0.00704494 -0.0081016 
C 6.29724 14.3925 48.2904 12.011 0.00160385 -0.00591063 0.00112282 
C 26.0892 33.6553 30.2765 12.011 -0.000706181 -0.0011008 0.00151519 
C 27.6674 15.5277 38.2925 12.011 -0.00710329 0.00142352 -0.0051807 
C 23.3718 6.81831 10.3268 12.011 0.0004328 0.000999273 0.0006059 
C 27.6916 34.6915 9.85997 12.011 0.00373421 -0.000574074 0.000851869 
C 10.0691 0.79734 13.6014 12.011 0.00841825 -0.000424853 0.000974497 
C 28.6032 10.9947 47.3174 12.011 -0.00967891 -0.00274291 0.00231331 
C 42.6602 31.3427 21.9444 12.011 0.00356052 0.00375767 0.00370737 
C 4.69738 16.304 21.456 12.011 -0.00315915 0.000959683 -0.00176227 
C 43.2299 6.30636 40.3966 12.011 -0.0134751 0.00934207 -0.0039814 
C 42.4209 34.264 48.8768 12.011 -0.000233517 -0.00912021 -0.00537574 
C 49.8149 48.0731 41.8569 12.011 -0.00649726 -0.00983311 -0.0040441 
C 1.56809 29.0126 11.3189 12.011 -0.00242231 -0.00200499 0.00165727 
C 20.7656 7.27386 8.02167 12.011 0.00907515 -0.00454146 0.00237154 
C 36.0854 19.9195 26.2888 12.011 -0.00327976 -0.00742976 0.000532376 
C 31.0508 18.6464 15.0328 12.011 0.00311889 0.00198911 0.00169512 
C 23.8645 43.6292 39.4276 12.011 -0.00521181 0.00630835 0.000473782 
C 36.5446 5.95211 6.38244 12.011 0.00588981 0.00625073 -0.0035261 
C 18.8831 10.1152 4.51656 12.011 0.00503383 -0.00475137 -0.00406785 
C 47.3939 24.6713 33.0065 12.011 -0.0035163 0.00171447 -0.00267905 
C 23.8792 18.7042 25.0246 12.011 -0.00237876 -0.00294307 -0.0120816 
C 27.0622 32.9282 23.427 12.011 -0.00228896 -0.00131777 0.00129969 
C 50.5463 5.82936 50.0843 12.011 -0.000647033 -0.0100429 -0.00412661 
C 32.8169 32.8113 11.2367 12.011 -0.00159241 0.00200243 -0.00613748 
C 2.01817 29.4006 32.5011 12.011 0.00286457 -0.000909748 0.00827664 
C 44.6321 36.7987 46.4073 12.011 0.0026826 0.00293775 0.000442404 
C 24.0313 12.4143 14.9438 12.011 0.00817828 0.0022627 -0.00104742 
C 36.5671 48.5189 36.6453 12.011 -0.000448401 0.00456226 0.000826368 
C 18.0379 21.4367 34.0179 12.011 -0.00299358 -0.00104133 -0.000954187 
C 29.1437 5.32151 25.3167 12.011 0.0009411 -0.0017084 -0.0021084 
C 43.0238 13.7033 20.0303 12.011 0.00277904 -0.00155685 0.0033416 
C 25.6134 21.8717 6.28213 12.011 0.00686185 0.00210833 -0.00192662 
C 8.07758 46.9475 49.4726 12.011 -0.00428132 0.00565018 -0.00503151 
C 5.85356 29.117 33.2592 12.011 0.00824582 0.00645399 -0.00582286 
C 3.284 35.5158 42.2463 12.011 0.0033553 -0.00363415 -0.000674466 
C 17.721 42.6882 47.8073 12.011 -0.000179448 -0.0019137 0.00173047 
C 43.6215 31.4466 9.22769 12.011 -0.00319535 0.00477328 0.0019042 
C 9.70457 51.0095 19.6802 12.011 0.00145205 -0.000698886 -0.0050971 
C 16.4698 33.8852 15.6834 12.011 -0.000644569 -0.00745767 -0.00937677 
C 49.8073 43.7741 24.0533 12.011 -0.00848863 0.0018098 0.000289196 
C 0.326433 14.897 9.26515 12.011 -0.000749417 0.00292156 -0.00413931 
C 39.0019 49.4973 26.979 12.011 -0.00491444 -0.000119271 2.20683e-05 
C 4.39803 42.3745 36.6292 12.011 -0.00198646 0.00328891 -0.00461269 
C 1.25953 1.50333 32.6111 12.011 -0.00106548 0.0043679 0.00211495 
C 23.8621 16.3474 27.9154 12.011 -0.000388058 -0.0106938 0.00362259 
C 14.4006 33.5723 34.8244 12.011 0.00560095 0.00583178 0.00449431 
C 37.1149 7.49287 45.4294 12.011 -0.00184271 -0.00389642 0.00450867 
C 31.8215 46.5968 17.8327 12.011 0.00384216 -0.00219808 0.000985936 
C 30.1175 39.7628 50.9423 12.011 0.000185777 0.000309951 -0.00406801 
C 4.99339 14.1873 48.7082 12.011 -0.00446129 -0.00566233 -0.000393484 
C 39.288 14.8151 36.4055 12.011 -0.000700837 0.00539894 0.00357156 
C 49.4701 25.6403 24.9059 12.011 0.00263937 0.00593949 0.0123717 
C 0.413464 42.3248 25.8552 12.011 -0.00185258 0.00345335 0.00739687 
C 50.6644 13.5168 9.47632 12.011 0.00374787 -0.00817517 0.00235848 
C 11.0537 22.8058 23.2192 12.011 0.00541453 -0.00650052 0.00305937 
C 35.5184 33.47 36.6006 12.011 -0.00110801 -0.00649013 0.0104314 
C 24.2972 26.3254 46.6626 12.011 -0.00554564 -0.00306021 0.00374788 
C 36.5561 25.9164 35.7602 12.011 0.00172486 0.00099702 0.00306925 
C 26.295 50.3581 20.9807 12.011 -0.00406511 -0.00686586 0.000872564 
C 23.2308 23.7639 37.142 12.011 0.00643356 0.00106961 -0.0073387 
C 34.3429 33.3122 29.6331 12.011 9.09478e-05 0.000895822 0.00636137 
C 16.7937 0.472379 21.6933 12.011 -0.00407412 0.00232666 -0.00264811 
C 24.857 17.1196 49.7822 12.011 -0.00443853 -0.00283299 -0.00496848 
C 2.92673 22.5863 2.01076 12.011 -0.00264784 0.00352009 0.00645078 
C 0.55763 1.99964 24.5049 12.011 0.000686041 -0.00170298 -0.00486562 
C 33.131 41.6306 32.6854 12.011 -0.00154577 -0.00105277 0.00136389 
C 38.6502 45.2583 1.83538 12.011 0.00636019 0.00133878 -0.00972753 
C 12.8738 2.12314 29.9614 12.011 -0.000161791 0.000845395 -4.614e-05 
C 30.9583 25.1455 10.6658 12.011 -0.00210136 -0.00315479 -0.0057376 
C 20.0747 42.2204 47.1005 12.011 0.00183818 0.00462185 0.00238753 
C 25.1806 25.1447 10.5633 12.011 0.0111318 -0.000781209 -0.000799762 
C 18.5454 47.29 10.0372 12.011 0.00820533 -0.00969597 0.00172659 
C 26.2778 6.94222 17.5633 12.011 -0.00490593 0.00463342 0.00284415 
C 10.8002 10.2554 18.3621 12.011 -0.0138576 -0.00220348 0.00481386 
C 48.2131 28.3005 29.7329 12.011 0.00539751 0.000395922 -0.00169059 
C 20.1365 5.91513 45.9327 12.011 0.000467239 0.00572841 -0.00641628 
C 33.9782 46.92 6.2415 12.011 -0.000297081 0.00356274 0.00562663 
C 26.0179 41.2193 48.6387 12.011 0.00659116 -0.00592171 0.00482407 
C 42.5341 37.049 34.532 12.011 0.00186671 -0.00437584 -0.00324954 
C 47.4964 7.29193 9.87527 12.011 -0.00134089 0.00924662 0.00421594 
C 1.84716 25.2737 27.4544 12.011 0.00486913 -0.00380389 -0.00212299 
C 6.2431 10.9066 10.7416 12.011 0.00103824 -0.0064112 0.00189372 
C 17.3956 31.4073 19.7847 12.011 0.00501082 -0.00629813 0.00731485 
C 5.63107 42.4931 4.49104 12.011 -0.00921233 -0.00372975 0.00221039 
C 24.9651 50.6406 20.592 12.011 0.00301773 -0.00912245 -0.00338534 
C 45.2127 25.1553 6.42079 12.011 -0.00413405 -0.00348487 -0.00138587 
C 43.2055 46.3096 5.60602 12.011 0.0013907 -0.00555661 0.004434 
C 26.2503 46.5723 20.2555 12.011 -0.00199132 0.00350165 -2.05914e-05 
C 11.5967 19.9066 23.85 12.011 0.00622164 0.00525084 -0.00256373 
C 14.605 50.8186 34.1558 12.011 0.00501595 0.00149702 -0.0119279 
C 33.5901 33.7866 8.70424 12.011 0.00439825 -0.00143279 0.00250094 
C 16.1729 16.7775 22.9607 12.011 -0.00346375 0.00385393 -0.00340377 
C 22.3688 42.0356 48.0891 12.011 0.00138458 0.00522052 0.00470566 
C 31.9677 32.0068 2.77619 12.011 -0.00328236 0.000557429 0.00755405 
C 22.2261 35.8901 27.6863 12.011 -0.00197096 0.00400865 0.0010674 
C 42.1815 48.0782 14.9376 12.011 0.00176578 -0.00142933 -0.00215802 
C 6.64276 43.863 11.9482 12.011 0.0038858 0.0110843 0.00193043 
C 14.0077 18.5283 11.4696 12.011 -0.0059057 -0.00340068 -5.57962e-05 
C 21.6304 19.2029 11.264 12.011 0.00645621 0.00606616 -0.00533333 
C 43.8747 8.02629 42.6662 12.011 -0.00933448 -0.000666175 -0.00256811 
C 2.46645 1.4565 20.5337 12.011 0.00227342 -0.00402119 -0.000674224 
C 6.60505 9.49315 26.1831 12.011 -0.00157185 0.00527956 -0.000884403 
C 16.0976 14.1838 11.7663 12.011 0.00344875 0.00221249 -0.00207737 
C 50.4891 5.59013 2.81811 12.011 0.00712403 -0.000581579 0.000474567 
C 1.33664 48.1143 30.529 12.011 -0.00910052 0.00725234 -0.000846455 
C 43.6121 11.2951 35.1423 12.011 0.00250745 -0.00553837 0.00236891 
C 3.07114 40.7702 37.8679 12.011 -0.00953075 -9.46933e-05 0.0175912 
C 3.24888 43.0173 4.11603 12.011 -0.00456833 0.00138853 0.00547264 
C 3.13776 14.5688 19.9199 12.011 -0.00820268 0.00433889 -0.00130926 
C 30.0347 42.9326 23.4985 12.011 -0.00300075 -0.000277998 -0.00220729 
C 2.54593 30.0658 11.1945 12.011 -0.00809847 0.00704746 0.00309574 
C 29.0506 23.3829 3.50624 12.011 -0.00128767 -0.00123206 0.00459645 
C 48.2238 44.604 30.7252 12.011 -0.00299814 0.00110769 -0.00363027 
C 46.4935 15.242 28.1999 12.011 0.00665452 0.00456544 -0.00459416 
C 49.0939 16.7688 40.7853 12.011 0.00182427 -0.00457058 -0.00887889 
C 34.5569 16.7797 39.7077 12.011 0.00504991 -0.0121947 0.00361371 
C 2.57108 19.6133 14.2318 12.011 0.00237505 -0.00183723 0.00572118 
C 3.36495 37.6349 1.03195 12.011 0.00215437 -0.00691549 0.00145015 
C 40.4819 13.0832 48.1535 12.011 -0.00926867 0.00512504 0.00407951 
C 22.5235 33.1349 23.5277 12.011 -0.00296394 0.0118941 -0.00457655 
C 50.298 19.4204 21.9275 12.011 -0.000149187 0.000725252 0.0016501 
C 28.5509 32.5534 31.0759 12.011 0.00235875 0.000366496 0.0071743 
C 36.4001 47.2362 44.6817 12.011 0.00846931 -0.000118498 -0.0028114 
C 12.9967 7.25659 7.49588 12.011 -0.00113326 0.00493231 0.000195085 
C 34.0991 32.1314 18.0258 12.011 -0.00341882 -0.00397198 0.00225376 
C 8.36333 38.1523 0.33118 12.011 0.00515559 0.00523326 0.00100298 
C 12.5355 44.4692 5.99625 12.011 0.00147038 0.00544488 0.00991151 
C 46.4127 50.0878 50.2889 12.011 -0.00949487 0.00378096 -0.00329427 
C 15.6332 11.743 44.5476 12.011 -0.00140873 0.00444057 -0.0043306 
C 1.26095 38.1242 5.03125 12.011 0.00377284 0.00446713 0.0149289 
C 28.5397 5.46482 18.1697 12.011 -0.00574643 0.000135268 0.000762156 
C 41.1241 12.5212 20.7706 12.011 -0.00446717 -0.00144031 0.00222008 
C 8.14913 13.7448 37.8174 12.011 -0.00224235 0.00112512 -0.00399234 
C 44.2527 15.2229 3.40273 12.011 -0.00192636 -0.00317963 0.00740006 
C 3.60022 31.6669 13.2708 12.011 0.0065409 -0.00226422 -0.00949423 
C 19.7352 17.7281 10.3989 12.011 0.00855043 0.00198047 -0.00381627 
C 26.3956 49.8684 15.343 12.011 -0.00134943 1.36954e-05 0.000559099 
C 6.26957 29.6828 41.565 12.011 0.00322885 -0.00341197 -0.0122995 
C 21.8514 12.9368 40.9912 12.011 -0.003719 0.0010983 0.0022779 
C 26.9929 43.8875 20.78 12.011 -0.00153575 0.0120649 0.00214787 
C 36.7006 28.6624 35.4801 12.011 -0.00156865 0.00388833 -0.00771033 
C 8.96957 35.323 7.63365 12.011 0.00417902 7.70806e-05 0.00455093 
C 24.7764 14.0665 46.1838 12.011 -0.0046499 -0.00495625 -0.000382436 
C 35.1994 44.3126 47.0209 12.011 0.00258732 0.00121184 0.00125559 
C 24.4208 32.8002 9.84593 12.011 0.00620285 -0.00266534 -0.00593622 
C 20.2942 20.7453 13.76 12.011 -0.00507325 -0.00485312 0.00144349 
C 32.9348 8.14328 19.8695 12.011 -0.00334711 0.00167355 0.00820244 
C 0.295807 37.619 41.7109 12.011 -0.0094275 0.00109 0.0039079 
C 38.1473 44.4102 41.0371 12.011 -0.00355599 0.000202405 0.00344359 
C 41.5359 15.6545 7.61125 12.011 0.00376969 -0.0018637 0.00106397 
C 47.4292 9.73294 10.3277 12.011 -0.000635611 -0.00284728 -0.00124374 
C 27.5849 42.6702 22.8763 12.011 -0.00134334 -0.00818946 -0.00130681 
C 49.6607 15.0994 44.1075 12.011 0.00537725 0.00444765 0.00596303 
C 5.88208 34.3837 2.65605 12.011 0.00159997 0.00676661 -0.00133077 
C 47.5372 11.7863 27.2046 12.011 0.00420311 0.00243002 -0.00198196 
C 26.9258 7.79186 49.6637 12.011 -0.0032212 -0.00520293 0.00421943 
C 25.5082 35.9894 29.2599 12.011 0.00815994 -0.000416363 -0.00192405 
C 25.8614 11.9862 41.3257 12.011 -0.00387904 0.00131773 0.00255752 
C 0.610682 16.7295 43.7116 12.011 -0.00451172 -0.00302647 0.000473909 
C 20.8351 23.6924 28.903 12.011 -0.000485526 0.00411605 0.000777266 
C 37.9736 5.63457 4.23655 12.011 -4.26201e-05 -0.00600271 0.0104656 
C 35.3803 31.0431 21.3189 12.011 0.00071192 0.00247649 0.000168515 
C 1.26001 33.4283 10.6125 12.011 0.00317373 -0.000503772 -0.000488262 
C 25.015 29.4319 21.7738 12.011 -0.00513941 0.00664811 0.00725173 
C 38.1761 15.771 14.7955 12.011 0.00286705 0.00603207 0.00458614 
C 49.9076 11.0489 36.6011 12.011 -0.00262081 -0.00272947 -0.000598142 
C 5.33169 17.2728 14.6804 12.011 0.0054613 0.00297572 -0.00744206 
C 21.3998 19.2841 42.7585 12.011 -0.00325302 0.000907622 0.00261837 
C 36.8394 17.2457 29.4047 12.011 0.00439554 0.00114935 0.00797432 
C 16.3496 16.9929 31.7273 12.011 0.00460232 0.00319456 -0.000382338 
C 38.2282 20.9569 2.86811 12.011 0.000249455 -0.000367446 -0.00338266 
C 3.66647 20.0066 49.6039 12.011 0.00263073 0.00476982 -0.00352639 
C 29.94 24.5884 5.80275 12.011 -0.00303651 -0.0114927 0.00307698 
C 39.6603 22.8552 40.3898 12.011 0.00279522 0.00197904 -0.00129453 
C 13.7129 8.96936 24.7367 12.011 -0.00464851 -0.0037014 -0.000333817 
C 0.262843 8.43426 50.6668 12.011 -0.00500854 -0.000919107 -0.00275085 
C 4.43929 30.6611 22.9504 12.011 -0.000952652 -0.00509461 3.52121e-05 
C 34.186 26.2685 5.95415 12.011 0.00770867 -0.00590519 -0.00216869 
C 34.6615 0.160554 47.2767 12.011 0.00510669 -0.00302448 0.00369843 
C 23.32 39.4942 44.6886 12.011 0.00353239 -0.000292106 0.00606815 
C 10.7182 42.7545 34.9895 12.011 -0.00104238 -0.00944798 0.00940516 
C 49.3449 23.6254 33.7872 12.011 0.000247032 0.00182711 -0.00030163 
C 27.0893 16.4721 44.6303 12.011 0.00297857 0.00191811 0.00240361 
C 36.8872 30.0382 35.8036 12.011 -0.00240297 -0.00354228 0.00431733 
C 18.7477 6.52041 16.886 12.011 0.00420742 0.00205438 -0.00253803 
C 23.9592 14.771 3.8474 12.011 0.00400913 -0.00227297 0.00877998 
C 26.1137 19.8517 25.0168 12.011 0.00877038 0.00257365 -0.00018123 
C 5.14006 12.7398 24.8792 12.011 0.00170883 0.00140535 0.000624187 
C 9.62598 17.441 48.1164 12.011 -0.00981529 -0.00802639 0.000566874 
C 41.8619 33.1937 49.674 12.011 -0.00210943 0.00337034 -0.00875454 
C 26.6453 7.8413 42.4503 12.011 0.00209456 0.00244477 0.000278097 
C 8.19821 4.04798 44.2711 12.011 -0.000716393 0.00144708 0.000529348 
C 17.4295 21.2828 40.127 12.011 -0.0053338 -0.00102148 0.00137977 
C 18.7106 8.72837 20.7071 12.011 -0.00258167 -0.00078525 0.00348068 
C 8.9218 7.4428 30.8119 12.011 0.00241158 -0.00389855 -0.00222954 
C 6.47433 18.2558 41.6267 12.011 -0.00160079 0.0081523 1.77725e-05 
C 43.002 6.3214 14.5108 12.011 -0.00369595 0.00203374 -0.00385328 
C 4.30094 0.111001 41.8775 12.011 0.00199123 0.000541123 0.00114394 
C 28.3451 27.2709 0.584711 12.011 -0.00180349 0.00150293 -0.00167068 
C 4.28848 43.4658 35.738 12.011 0.00209223 -0.000959291 0.00393109 
C 35.5531 30.2819 24.5809 12.011 0.0022963 0.00363361 -0.00663383 
C 27.1397 0.3531 21.5687 12.011 0.00197676 0.007434 -0.00508597 
C 49.5608 14.3777 22.6805 12.011 0.00291236 -0.00822038 -0.000110759 
C 27.6051 33.025 31.9826 12.011 -0.00227576 0.0014496 -0.00137768 
C 43.4793 15.6951 44.0018 12.011 -0.0147535 0.00234592 -0.00292663 
C 40.5726 44.0542 29.0176 12.011 -0.00119792 0.00318565 0.00795164 
C 43.2757 15.6406 5.75334 12.011 0.00306619 -0.00375222 0.00570279 
C 36.177 27.5935 16.5603 12.011 -0.000656781 0.00307831 0.000198856 
C 21.831 35.461 32.3897 12.011 0.00215101 -0.00110944 -0.00288433 
C 28.6948 22.7177 32.1429 12.011 0.003737 0.0041399 -0.00721286 
C 24.7187 8.97046 17.7135 12.011 -0.00307634 -0.0023678 -0.0102081 
C 9.85076 32.2024 12.2191 12.011 0.00169083 -0.00198916 0.0134655 
C 26.7988 50.3905 40.1042 12.011 0.00726423 -0.00288561 0.00613072 
C 17.528 19.2133 32.4243 12.011 -0.000764362 0.000428737 0.00196533 
C 41.306 37.8111 26.1992 12.011 -0.0057912 0.000197251 -0.00144988 
C 36.7558 5.05805 25.415 12.011 -0.004715 0.00471238 0.00305283 
C 46.6054 17.2752 14.6587 12.011 -0.00635891 -0.00523992 -0.0058963 
C 50.5968 17.1943 0.83155 12.011 0.00185624 0.00647977 -0.000869702 
C 22.7363 21.4445 31.9843 12.011 -0.00623915 0.00786524 0.000949854 
C 41.0776 44.3537 0.636746 12.011 -0.00163505 -0.000633598 -0.0014041 
C 27.4225 34.0635 14.665 12.011 0.00814752 0.00259554 0.00771709 
C 25.3525 22.4805 37.8067 12.011 -0.00794125 -0.00621705 0.00358915 
C 23.759 31.5706 14.3995 12.011 -0.00488624 0.000590749 0.00459458 
C 48.665 5.14903 8.26136 12.011 -0.00419277 0.00106625 0.00108934 
C 9.22071 14.5832 29.4447 12.011 4.66954e-06 0.00805996 -0.000729164 
C 42.3631 11.0079 16.4362 12.011 0.000778897 0.00343628 0.00208255 
C 35.1272 49.6409 45.5017 12.011 -0.00938463 -0.00661618 0.00459518 
C 40.6686 11.8076 13.3995 12.011 -0.00123146 0.00305248 0.00289685 
C 41.8829 8.22273 7.84153 12.011 -0.000608142 0.00379595 0.00637962 
C 26.1729 1.07672 6.29483 12.011 0.00601828 0.0108462 -0.00130245 
C 27.097 0.354195 37.826 12.011 -0.000773805 0.00541327 -0.00228138 
C 27.7628 34.2633 17.03 12.011 -0.00300124 0.00707101 -0.00466787 
C 21.1429 10.7989 16.6197 12.011 0.000491254 -0.0117786 -0.00825068 
C 23.3627 35.67 19.1437 12.011 0.00242891 0.00430301 0.00362516 
C 4.49242 18.0322 19.5841 12.011 0.00407862 0.00327273 -0.000354227 
C 40.8749 2.50557 14.2965 12.011 0.0041339 0.00461578 0.00736438 
C 11.1522 10.0984 4.97492 12.011 -0.00192532 0.00228576 -0.000106014 
C 27.5303 34.2176 13.2046 12.011 0.000812941 -0.00542191 -0.00618317 
C 13.4044 28.9587 1.42389 12.011 -0.00474666 -0.00259107 0.00899766 
C 30.004 18.591 14.1769 12.011 0.00229993 0.00547161 0.00426214 
C 50.6641 49.6193 29.5057 12.011 0.00117838 -0.0012996 -0.00519636 
C 15.0891 39.3795 42.0697 12.011 -0.00309973 0.00206028 -0.000961056 
C 14.795 32.3127 7.7483 12.011 0.00157636 -0.00278348 0.00259307 
C 1.12565 34.4516 27.5473 12.011 -0.0103046 -5.90585e-05 -0.00800705 
C 45.2296 36.0831 39.8838 12.011 0.00261218 -0.00681325 0.0100537 
C 48.5553 46.9236 14.1004 12.011 -0.000182657 0.00532357 -0.000235262 
C 7.54449 19.9832 24.643 12.011 0.0013878 0.000449278 -0.000797271 
C 6.6478 11.6548 43.9889 12.011 -0.0033218 0.00799486 -0.00349811 
C 44.1555 19.7738 27.0858 12.011 0.00183351 0.00744133 0.00485074 
C 2.31273 17.914 26.4605 12.011 -0.000992512 0.00624044 -0.000139785 
C 6.56811 17.5352 31.4623 12.011 -0.00191388 -0.00495053 -0.00248517 
C 1.31684 45.1497 3.5902 12.011 -0.00167144 0.00368507 -0.00359252 
C 30.3304 23.895 11.0173 12.011 0.00166577 0.0120692 -0.0028055 
C 39.6021 24.705 5.62448 12.011 -0.00486495 0.00142937 0.00320401 
C 28.0597 13.2564 22.2958 12.011 -0.000975061 -0.0022882 -0.00343161 
C 32.2801 17.2267 20.6889 12.011 -0.000370764 -0.000298373 -0.00542385 
C 21.4531 28.2907 40.3945 12.011 0.000682445 0.000821774 0.00303086 
C 44.2187 31.2173 27.9436 12.011 0.000426148 0.00778476 -0.00854857 
C 18.2243 7.41892 20.916 12.011 -0.000432596 0.00716803 0.00590266 
C 43.4099 38.701 26.7121 12.011 3.87736e-05 0.00482023 0.00288983 
C 16.0728 42.3733 11.5805 12.011 0.00571335 -0.00440973 -0.00395624 
C 20.064 47.5548 43.7289 12.011 -0.00248319 0.00297751 0.00407163 
C 40.2347 37.9257 18.8809 12.011 -0.00594641 0.00787137 -0.00258036 
C 44.4952 39.5548 26.3463 12.011 0.00183165 -0.0102442 0.00346649 
C 41.6232 9.04565 44.0321 12.011 0.00071215 0.00241259 -0.0014268 
C 10.5305 34.8084 41.0185 12.011 -0.00294619 -0.00123901 -0.00526563 
C 19.5248 21.0081 31.1125 12.011 0.000137014 0.0059047 0.00640334 
C 28.6916 1.4964 36.4767 12.011 -0.00251261 0.00359288 -0.00253598 
C 45.7453 6.89183 12.019 12.011 0.00190862 0.00487459 -0.00490053 
C 24.8374 42.6071 39.104 12.011 0.00457017 -0.00182829 0.00289463 
C 13.7855 12.2146 37.6435 12.011 0.00424932 -0.00567923 0.00599762 
C 37.9248 27.3092 49.3351 12.011 0.00238629 0.00523417 0.00179003 
C 13.921 42.4888 26.1329 12.011 -0.00167324 -0.00528456 0.00279181 
C 21.3407 22.6649 40.9808 12.011 0.00411044 0.00690564 -0.0010359 
C 36.0138 25.1515 4.77407 12.011 0.00067228 -0.00408475 0.00178134 
C 25.2475 16.2156 35.2425 12.011 0.00100942 0.00430802 -0.00246957 
C 42.7627 0.271204 47.6919 12.011 -0.0104571 0.00142113 0.00595443 
C 49.6397 4.37369 16.1594 12.011 -0.00229986 -0.00969448 0.00498461 
C 38.2671 29.906 16.0221 12.011 -0.00422531 -0.0056826 -0.00424701 
C 32.3817 22.0638 28.7761 12.011 0.00515867 -0.00812248 0.00245695 
C 9.53762 2.48751 11.388 12.011 0.00418309 -0.000708215 -0.00810656 
C 44.499 16.1878 15.1738 12.011 -0.00961796 -0.000516864 0.00685458 
C 42.4865 40.4518 20.5276 12.011 0.0017258 -0.00638909 -0.00210815 
C 12.2198 25.7497 17.671 12.011 3.38108e-05 -0.000195831 -0.00241249 
C 41.4936 13.999 48.0324 12.011 -0.0126387 -0.00351829 0.00375108 
C 44.0192 47.8876 34.2025 12.011 0.00580623 -0.00410546 0.00703519 
C 43.1862 49.9736 16.2204 12.011 0.00345632 -0.0030853 -0.0117533 
C 34.5331 22.82 2.12351 12.011 0.000813435 -0.00515539 0.00250953 
C 25.8009 18.6085 38.4032 12.011 0.000410079 -0.0015145 -0.00194358 
C 3.45264 34.9841 36.2296 12.011 0.00186187 0.00108301 0.000899256 
C 23.6149 14.8032 46.173 12.011 0.00102111 0.00200182 -0.00360812 
C 21.8749 33.2075 5.63879 12.011 -0.000395764 -0.000727647 0.00580795 
C 6.22258 40.4546 5.83926 12.011 -0.00297634 0.000451174 0.00215345 
C 31.2853 16.642 41.4794 12.011 -0.0086349 -0.0051254 0.00348544 
C 40.6034 16.804 11.5512 12.011 0.00101651 -0.00391353 0.00510314 
C 47.2614 2.62881 43.0257 12.011 -0.0121091 -0.00102802 0.0117192 
C 19.1389 42.0457 46.041 12.011 0.000142775 -0.00591464 0.00508562 
C 12.7159 24.5831 4.52015 12.011 0.00569824 0.00156003 -0.00163574 
C 24.2555 45.7861 43.261 12.011 -0.0052222 -0.0041213 0.00222244 
C 0.71177 16.06 25.2496 12.011 0.00600954 -0.000923103 0.00666382 
C 22.1654 16.3249 45.0606 12.011 0.00743615 0.0030077 -0.00125149 
C 13.8755 46.6674 40.0067 12.011 0.0143012 -0.000449268 -0.00213371 
C 6.7035 48.6822 1.35404 12.011 0.00125323 -0.00371874 0.000692274 
C 28.9722 25.6062 37.1866 12.011 0.0106827 -0.00515066 -0.00548352 
C 0.254539 25.7519 47.2363 12.011 -0.000256363 -0.00330194 -0.00635386 
C 45.6475 50.3487 16.1885 12.011 -0.000448346 0.000537863 0.00477159 
C 11.8693 30.1256 35.4652 12.011 0.000608111 -0.00975829 -0.0027654 
C 25.5978 2.24928 1.23139 12.011 0.00390931 0.00572262 -0.00584005 
C 48.0026 8.31795 18.7178 12.011 0.00152893 -0.00161679 0.00449882 
C 16.429 44.6803 26.5367 12.011 0.000466922 0.00186807 -0.00412789 
C 32.1361 5.13373 30.8052 12.011 0.00683585 -0.00396112 -0.00540888 
C 4.34193 47.7397 45.6639 12.011 -0.00457809 -0.00280702 -0.000489583 
C 7.83843 41.4409 39.081 12.011 0.00498468 -0.000712218 0.00406488 
C 6.66995 6.69071 23.8737 12.011 0.00706285 -0.00477616 -0.0120135 
C 39.2956 45.7228 48.7159 12.011 0.0035901 -0.000779288 -0.00246483 
C 34.6994 4.47039 0.570141 12.011 0.00158704 -0.000853918 -0.00692403 
C 49.8282 38.6477 50.0988 12.011 0.00245995 0.00595883 0.00891529 
C 34.8457 50.9846 45.8919 12.011 0.000344942 0.00200124 0.00120865 
C 24.2548 24.4753 42.6322 12.011 -0.00308356 -0.00613102 -0.00747881 
C 44.6048 22.303 39.9842 12.011 -0.00678145 0.00637198 0.00283334 
C 18.0748 14.5862 46.9791 12.011 0.00220366 -0.00389878 0.0035146 
C 22.9992 5.59337 3.92615 12.011 -0.00636445 0.000251856 0.000570024 
C 8.79082 2.1287 17.1767 12.011 0.000891992 -0.00142917 0.000679187 
C 0.59557 39.2725 28.0603 12.011 -0.0098865 0.00566336 -0.00278804 
C 49.0615 36.1377 15.2904 12.011 -0.00245124 0.00456926 -0.00350164 
C 49.6702 46.3643 43.6603 12.011 0.00769156 -0.00177352 0.00149335 
C 40.0335 42.8039 40.5491 12.011 -0.0034148 -0.006074 -0.00500072 
C 8.70689 1.16725 27.1623 12.011 0.00113644 -1.5911e-05 -0.0048704 
C 6.1992 36.3124 1.34893 12.011 0.00161369 -0.00435203 0.000572851 
C 33.2792 40.1849 9.4286 12.011 -0.0016825 -0.00565521 -0.00564795 
C 19.2349 49.7189 1.9639 12.011 0.00298203 0.00853906 0.00527735 
C 27.415 22.7592 18.6147 12.011 0.00305799 0.000318785 0.00151304 
C 8.04041 47.4028 50.7675 12.011 -0.00467277 0.00592787 0.000753947 
C 34.2721 50.5231 21.4585 12.011 0.00492553 0.00351833 0.00193525 
C 8.54276 36.6371 7.2075 12.011 0.000814668 -0.00687378 0.00247907 
C 36.2904 16.6194 45.698 12.011 0.000445851 -0.00684548 0.00467184 
C 28.4198 30.6969 36.8468 12.011 0.00258474 -0.00161155 -0.00348377 
C 8.8335 22.094 46.5391 12.011 0.00475638 -0.00696737 -0.00856632 
C 48.4622 25.8949 49.6863 12.011 -0.000614708 0.00387024 0.000368273 
C 46.8863 10.8428 10.9979 12.011 -0.00229444 -0.00338521 0.0056887 
C 15.6064 23.958 32.6523 12.011 -0.00282675 -0.00506072 -0.00784437 
C 15.75 1.67831 38.6512 12.011 -0.00202895 0.00400906 -0.00491833 
C 27.5271 3.83133 35.2029 12.011 0.00583368 -0.00169233 -0.00570386 
C 33.5684 11.8242 15.6967 12.011 0.00509779 0.0010315 0.00564628 
C 7.70916 14.9686 42.8746 12.011 -0.00219367 0.00457205 0.0035974 
C 27.331 10.0022 41.6498 12.011 0.00368419 -0.00282813 0.00523251 
C 40.0828 45.1717 51.0016 12.011 0.0065982 0.00457804 -0.00589334 
C 38.6439 15.598 12.3674 12.011 0.00189467 0.00244273 -0.00101914 
C 29.4811 39.921 41.9866 12.011 -0.00593544 0.00136645 0.00664749 
C 27.3618 49.9561 1.09664 12.011 0.00378967 0.00355599 -0.000658985 
C 9.59839 27.4351 13.9653 12.011 0.00391071 0.00356999 6.64082e-05 
C 50.179 11.42 24.7668 12.011 0.00247211 -0.00683909 0.00482437 
C 33.3667 5.36738 32.9637 12.011 -0.00327858 0.0089048 0.00111477 
C 38.6525 5.29105 19.6808 12.011 0.00108064 -0.00882457 -0.000318366 
C 9.40184 21.0394 45.7154 12.011 -0.0112486 -0.00689415 -0.000907252 
C 30.3527 1.11702 13.2696 12.011 0.00250227 0.00268179 0.00313191 
C 11.2522 39.9073 41.4552 12.011 0.00606597 0.0100018 0.00363392 
C 25.4894 21.6314 17.645 12.011 0.00261925 -0.000316948 -0.00147859 
C 8.24426 48.0866 29.83 12.011 0.00350946 -0.00277297 -0.00124387 
C 15.439 30.3891 22.845 12.011 0.00200661 -0.00246305 -0.00152639 
C 48.8697 37.0508 4.73968 12.011 0.0034717 -0.000457936 -0.0038458 
C 50.265 47.8421 5.19482 12.011 0.000756097 0.00574293 -0.0037515 
C 28.8742 13.3189 9.38692 12.011 0.00327765 0.00280418 0.000744329 
C 25.7106 39.4415 45.4255 12.011 0.00443203 -0.00404883 0.000364 
C 4.4854 2.42177 43.3884 12.011 0.00250624 0.00323613 -0.000749306 
C 50.4834 27.8839 20.7976 12.011 0.00234185 -0.00473652 -0.00487623 
C 45.1204 32.4003 2.33156 12.011 -0.00289434 -0.00592366 -0.0011906 
C 19.5022 22.4684 9.47678 12.011 0.00805328 0.00721038 -0.000408458 
C 31.1276 37.3238 12.4014 12.011 -0.000285117 -0.00135339 0.00552197 
C 29.6349 29.0522 1.74153 12.011 0.00696287 -0.0134824 -0.00372436 
C 5.543 32.199 3.92698 12.011 -0.00100314 -0.000143047 0.000612047 
C 43.46 31.1937 25.6454 12.011 -0.00551864 -0.0037585 -0.000260661 
C 30.1929 16.0971 17.6899 12.011 -0.00505155 0.00233183 -0.00264134 
C 33.473 16.2454 40.4968 12.011 -0.00499765 0.00220084 -0.000247979 
C 25.2739 40.3296 24.467 12.011 -0.00339508 -0.000263323 0.00580345 
C 12.6492 35.4155 25.1545 12.011 -0.00464504 -0.00412547 -0.00168107 
C 32.4012 13.172 42.3469 12.011 -0.00351948 -0.00346389 0.0090814 
C 33.2825 19.0668 16.5789 12.011 0.000956693 -0.00797751 -0.00293134 
C 8.77892 31.3449 12.5538 12.011 0.00383033 -0.00291808 0.00490721 
C 3.62944 27.7906 31.4785 12.011 0.00177519 0.00124904 0.00274678 
C 6.58177 34.8544 8.4759 12.011 0.00461736 0.00285629 -0.0023759 
C 21.0126 33.7475 35.6216 12.011 -0.00216561 0.00139761 -0.00894473 
C 28.4321 20.8299 24.6962 12.011 0.00136145 0.000498735 -0.00516917 
C 0.269733 48.7904 5.30402 12.011 0.000874375 0.00443367 0.00598483 
C 40.1316 40.0092 35.1186 12.011 0.0035785 0.000330479 0.00271497 
C 32.3446 41.9554 14.0059 12.011 -0.00210133 0.00325568 0.00735438 
C 8.67848 19.851 45.7216 12.011 0.000217384 0.00340423 -0.000880063 
C 0.173459 2.50959 15.794 12.011 0.00315814 0.000217672 0.00662392 
C 13.3448 35.8113 14.7301 12.011 0.00515437 -0.00430416 -0.00164238 
C 46.5456 19.2637 8.9391 12.011 -0.00164781 6.63826e-05 -0.00690461 
C 49.2111 20.4967 40.3557 12.011 0.00397438 0.00177012 0.00540061 
C 2.75323 27.6384 4.92821 12.011 -0.00375093 -0.00101196 0.00727476 
C 36.7081 8.60949 14.8323 12.011 -0.00528423 0.00277098 -0.00345358 
C 25.8838 27.9005 23.3541 12.011 -0.000308687 0.00263443 -0.00447027 
C 9.2809 42.9104 44.2531 12.011 0.00640814 0.0105359 0.00282811 
C 0.800161 20.5574 7.21132 12.011 0.000383766 -0.00063515 -0.00542965 
C 20.4118 34.1889 40.754 12.011 -0.000851412 -0.000542636 0.00210598 
C 42.4821 18.3214 27.9763 12.011 0.00416462 -0.000283606 -0.000884965 
C 49.5543 23.2737 4.44752 12.011 -0.000410369 0.00116937 0.00124976 
C 31.1817 47.9089 17.6564 12.011 -0.00013082 0.00937706 0.00195505 
C 9.37598 47.0659 3.056 12.011 0.0012972 0.00360263 -0.000924367 
C 28.5775 3.92781 36.1593 12.011 0.00719967 -0.00151509 -0.00359956 
C 7.13213 12.1872 3.42747 12.011 0.00604601 0.00234914 -0.00229636 
C 46.2228 25.4967 20.8557 12.011 0.00371968 -0.00414924 -0.00533074 
C 47.274 20.5359 34.8434 12.011 -0.00609416 0.00301501 -0.000703273 
C 21.3532 20.6074 37.6646 12.011 -0.00223841 -0.0022106 -0.00357758 
C 8.05403 15.584 6.09193 12.011 0.00455046 0.00243354 0.00162905 
C 18.9353 10.7345 43.3703 12.011 -0.00313349 0.00193845 0.00200025 
C 33.8211 10.1252 19.0566 12.011 -0.0074642 0.00224569 -0.000559 
C 22.7106 21.7295 11.6567 12.011 0.00418501 -0.00294759 -0.00455818 
C 20.7351 1.69975 42.7286 12.011 6.17819e-06 0.00565119 0.00285923 
C 24.5196 0.388382 15.3736 12.011 0.00934361 -0.00579343 -0.00738156 
C 10.1459 1.19283 11.1978 12.011 -0.00292599 0.00595565 0.00277536 
C 39.459 36.7575 19.2163 12.011 0.00440764 0.00709189 0.00092032 
C 7.5365 44.9364 36.3265 12.011 0.00458792 -0.00348985 -0.00369881 
C 40.2356 41.6644 29.728 12.011 0.00183201 -0.00150705 -0.00424453 
C 23.43 16.2425 25.1501 12.011 0.0051941 -0.003632 -0.00218391 
C 6.73145 7.29304 25.0895 12.011 -0.00191183 -0.000940351 -0.00531847 
C 23.2435 4.30885 6.07386 12.011 0.00149561 -0.00302003 0.0128749 
C 41.0347 47.5017 14.2961 12.011 -0.00644159 -0.00563415 0.00623561 
C 33.4071 19.0016 39.5681 12.011 0.00274269 -0.00244092 0.00312646 
C 30.7409 10.1016 37.3873 12.011 -0.00118655 -0.0036084 0.000133744 
C 29.3371 29.7824 6.56513 12.011 -0.00303361 0.00548327 0.00621079 
C 37.1601 46.748 47.0099 12.011 0.000686832 -0.00181675 -0.00103095 
C 45.7358 41.0428 15.4674 12.011 -0.00707696 -0.0067522 -0.0038706 
C 41.6513 40.9978 40.1916 12.011 0.000254441 -0.000824428 0.000391767 
C 38.843 50.272 33.0344 12.011 0.000426367 0.00715676 -0.00501755 
C 6.72405 21.7535 40.1942 12.011 -0.0060548 -0.00295478 0.00152311 
C 28.9531 50.1146 9.56991 12.011 -0.0053957 -0.000579326 -0.00708826 
C 17.4942 46.81 26.3134 12.011 -0.00175717 0.000136173 0.00249083 
C 38.2214 35.0408 4.26947 12.011 -0.00458287 -0.00624799 0.00132651 
C 4.64528 15.5758 30.3488 12.011 -0.00861409 0.00134169 -0.00302111 
C 29.1832 9.16973 30.3707 12.011 -0.000375982 -0.000198054 -0.000841406 
C 28.5546 26.1293 47.9552 12.011 5.49329e-05 0.00012807 -0.00137481 
C 2.19977 27.4828 37.0996 12.011 0.00767618 0.00624429 -0.00436058 
C 25.1217 5.66913 22.0212 12.011 0.0051203 -0.00364796 0.00262736 
C 33.4634 31.0725 36.9525 12.011 0.000604733 -0.00688307 0.000488202 
C 4.91708 12.0678 37.1646 12.011 0.00552084 -0.00197344 -0.00157989 
C 31.8201 28.7246 18.3525 12.011 -0.00371407 5.18441e-05 -0.000821833 
C 36.0659 7.86414 50.2995 12.011 -0.00620275 0.0032195 -0.00331355 
C 41.9398 1.20139 48.3038 12.011 0.00233955 0.00224434 -0.000489526 
C 40.6258 3.5224 49.807 12.011 -0.00654375 0.0015586 1.38467e-05 
C 27.4857 13.4163 9.87349 12.011 -0.00320688 0.010564 0.00801421 
C 37.6493 8.87732 31.9091 12.011 -0.000994429 -0.00288815 -0.00472111 
C 14.883 13.5725 30.6376 12.011 -0.00361299 -0.00509629 0.00672083 
C 4.53828 18.456 14.7025 12.011 0.00390178 -0.00935298 0.000394885 
C 0.770272 44.3161 22.7318 12.011 -0.00352708 -0.00160785 -0.00888398 
C 20.9832 48.3411 2.57997 12.011 -0.00275083 0.00395772 0.00297593 
C 27.6753 25.3186 15.2595 12.011 0.00260458 -0.000180601 0.00137372 
C 23.1795 26.2813 36.6817 12.011 0.00433904 -0.00428391 -0.00167856 
C 32.3335 3.77112 30.9769 12.011 -0.00941346 -0.00134943 0.00189694 
C 9.71056 2.1441 26.9463 12.011 -0.00362687 -0.00578459 0.000849973 
C 5.22297 49.3783 17.8223 12.011 -0.00334617 -0.00297845 -0.00978369 
C 13.0479 11.2453 36.9041 12.011 0.00087587 0.00321126 0.00473077 
C 24.0816 0.0998304 40.0065 12.011 0.00280568 -0.000923791 0.00186467 
C 3.28379 25.0901 11.1608 12.011 0.00241802 -0.00338697 0.00686209 
C 30.3372 25.3688 6.96985 12.011 -0.00252153 0.00149987 -0.00204128 
C 43.1848 1.76553 34.367 12.011 -3.36088e-05 -0.00448764 0.00390865 
C 34.2579 22.2177 46.9597 12.011 -0.00256392 0.00118455 -0.00181999 
C 3.57511 14.4837 43.3743 12.011 0.00267215 -0.000921368 -0.00359388 
C 4.32545 41.0864 22.8763 12.011 -0.00085589 0.00145352 0.00339461 
C 45.4389 50.3244 11.5055 12.011 -0.0121767 -0.005861 0.00470361 
C 28.9892 37.1373 23.4404 12.011 0.00155404 0.00630778 -0.00618018 
C 6.13925 16.7505 36.8878 12.011 0.00107009 0.0084647 0.000776869 
C 0.866696 36.9514 27.8572 12.011 0.00318299 -0.00171991 -0.00156383 
C 43.6988 16.9508 7.78213 12.011 0.00260966 -0.00156924 0.00454888 
C 25.4262 33.5653 9.09328 12.011 -0.00301306 0.000579966 0.00669225 
C 48.7388 3.43357 16.6724 12.011 -0.00584775 -0.00486348 0.00109794 
C 43.328 1.48636 32.9759 12.011 0.00419414 -0.00808274 -0.00269366 
C 31.4936 14.3116 3.52778 12.011 -0.00487622 -0.00407409 0.000140447 
C 29.9426 11.3221 39.4938 12.011 0.000719699 -0.00781797 -0.00765563 
C 28.2705 12.6335 12.0707 12.011 0.000143404 -0.00235246 0.000999795 
C 28.962 22.0419 47.0468 12.011 -0.0077403 -0.0077118 -0.00185432 
C 47.2832 19.0212 40.7293 12.011 0.00479554 0.00560554 0.00278123 
C 6.84886 18.9833 23.8549 12.011 -0.00200791 0.00516208 0.00534306 
C 24.6525 15.4474 32.6663 12.011 -0.0065977 0.00355712 -0.00312677 
C 26.8612 41.4471 39.8809 12.011 -0.0120062 0.00612303 0.0018734 
C 45.527 19.0939 47.0988 12.011 5.29445e-05 -0.00179349 0.00636593 
C 19.1124 48.5872 50.3847 12.011 -0.00484853 -0.00411286 0.00118504 
C 45.7822 0.922416 29.4454 12.011 0.00246351 0.000368111 -0.00457792 
C 33.478 8.53537 5.29165 12.011 -0.00219976 0.000401256 0.00322163 
C 5.95648 8.24912 45.2187 12.011 -0.000345807 -0.00491314 0.000871502 
C 20.1459 2.11417 32.0375 12.011 -0.00868926 0.0052232 0.00383912 
C 31.3579 34.8789 34.7941 12.011 0.00534636 -0.00237013 -0.00650082 
C 18.8422 21.4987 40.2429 12.011 0.00207817 -0.00862223 0.00196724 
C 31.0663 37.2748 47.7384 12.011 0.00044502 -0.0039367 -0.000342143 
C 32.5964 50.7464 33.7894 12.011 -0.000461062 0.00791289 -0.0048674 
C 41.3789 42.2384 3.77842 12.011 0.00164305 -0.00226705 -0.00802822 
C 3.28428 49.834 3.52815 12.011 -0.000592647 -0.0024893 0.00278157 
C 35.2481 10.3112 40.7152 12.011 0.000576047 0.00271355 -0.00718823 
C 30.3138 23.2989 3.02248 12.011 -0.00352433 -0.00143701 0.00348319 
C 9.20073 24.9713 14.081 12.011 -0.00283322 -0.00153561 -0.00711735 
C 1.73637 3.29699 22.7992 12.011 -0.00396742 0.0012899 0.00316985 
C 5.36286 5.97362 35.3764 12.011 0.00416282 0.00806667 0.00423952 
C 43.4896 41.8521 18.759 12.011 0.00634936 0.00130552 -0.00317025 
C 11.7596 39.0627 26.1563 12.011 0.00139033 -0.000587072 0.00677719 
C 33.0878 24.8473 14.6702 12.011 -0.00182625 0.00199326 -0.00823848 
C 8.77074 30.9646 2.67987 12.011 -0.000945999 -0.000672138 -0.00264671 
C 13.1264 38.0505 5.38787 12.011 -0.00254003 -0.00379402 -0.00112135 
C 0.225415 7.98137 45.7197 12.011 -0.00733523 0.00599733 -0.0019898 
C 10.4127 39.5876 13.5201 12.011 -0.0068342 0.00108183 -0.000691191 
C 26.4605 48.0225 13.6674 12.011 -0.00119375 0.00147486 0.00319884 
C 23.822 5.33162 17.3979 12.011 -0.00158407 0.00240868 0.00570054 
C 7.56774 14.1391 27.5388 12.011 0.0013503 -0.00113131 -0.00959006 
C 33.6278 30.6972 42.89 12.011 -0.00713215 -0.000226718 0.00761973 
C 27.1105 22.2804 45.417 12.011 0.00303631 -0.00421764 -0.00389339 
C 50.2324 20.7871 21.5504 12.011 -0.000483864 0.000347969 0.00375973 
C 2.49879 45.8569 41.4593 12.011 -0.00358769 -0.0046034 0.0117593 
C 31.4177 29.1543 47.9228 12.011 -0.00300211 -0.00357506 -0.00625133 
C 13.4917 45.4347 15.9741 12.011 0.00204451 0.00592667 -0.0102715 
C 6.76063 30.042 33.0666 12.011 0.00349013 -0.0056965 -0.00378908 
C 30.8119 30.9074 29.8701 12.011 0.00423021 0.000780103 0.00392435 
C 11.6712 11.9751 50.0307 12.011 0.00293102 0.00175791 0.00188883 
C 18.8089 47.3915 33.2641 12.011 0.0042328 -0.00209812 -0.00458835 
C 22.4288 1.37832 36.2796 12.011 -0.000339995 -0.00284155 -0.00477611 
C 27.6181 10.156 49.8106 12.011 -0.00349652 0.000872256 -0.00910551 
C 45.8983 30.8983 25.9313 12.011 0.00664943 0.00337946 0.00202031 
C 48.5984 40.366 37.8306 12.011 0.00213578 -0.00490946 -0.000910342 
C 33.5214 22.9127 47.9261 12.011 0.00208508 -0.00234337 0.000180236 
C 26.8336 42.081 23.9345 12.011 -0.00105306 -0.00336814 0.00181252 
C 3.7399 21.167 35.5779 12.011 -0.000167048 -0.00305844 -0.00411375 
C 25.9767 7.56048 33.395 12.011 0.0016107 -0.000766655 -0.00323471 
C 46.6375 23.7305 39.3684 12.011 0.00208353 -0.00508546 -0.00360027 
C 35.0646 2.7858 22.9594 12.011 0.00474529 -0.00367451 -0.00260469 
C 13.7503 35.6372 5.44029 12.011 -0.000959632 -0.000549874 -0.0018155 
C 37.9827 34.5411 25.1301 12.011 6.3604e-05 -0.00105891 0.00223997 
C 10.6227 16.8569 48.8888 12.011 0.00807935 -0.00353184 0.00511816 
C 20.7401 31.9434 40.4347 12.011 0.00427097 0.0098837 -0.00104255 
C 6.21605 26.3241 4.38901 12.011 0.00307302 0.00344707 -0.00737645 
C 4.55015 16.9618 42.3566 12.011 0.000766097 0.00139395 -0.00434422 
C 23.8959 38.442 24.9566 12.011 -0.00421039 0.0038984 -0.00330634 
C 37.2283 21.6086 18.1496 12.011 0.00812045 0.00310656 -0.00537148 
C 38.2156 8.5197 45.5684 12.011 -0.0123972 -0.00390757 -0.000189976 
C 13.0921 27.1357 26.4359 12.011 0.00251592 0.00208296 -0.00489906 
C 22.6233 25.7066 41.2466 12.011 -0.00217085 -0.00206497 0.00389795 
C 39.5092 7.84821 28.9453 12.011 0.00262338 0.00016704 -0.00125628 
C 43.3478 50.5324 50.215 12.011 -0.00597013 -0.0069331 -0.00707649 
C 16.5608 23.9812 47.7439 12.011 -0.0129179 -0.00454186 -0.00782742 
C 23.0166 29.118 27.3171 12.011 0.00734318 0.00341371 0.00173818 
C 33.075 34.2793 42.0616 12.011 0.00434936 0.00126789 0.00433787 
C 45.9728 17.3254 18.214 12.011 0.00328861 -0.00131778 0.00241546 
C 39.0332 27.8 39.4548 12.011 -0.00743525 -0.000193054 -0.00270416 
C 28.0072 27.271 44.4894 12.011 0.0017312 0.00268948 -0.0049079 
C 6.14741 20.5145 40.7205 12.011 -0.00704455 0.00120926 0.00154006 
C 18.0233 28.0023 46.7916 12.011 0.00452292 -0.00207044 -0.00146025 
C 9.41755 10.5685 6.79877 12.011 0.00135883 -0.00212708 -0.00242308 
C 28.5625 27.8584 29.706 12.011 -0.00738091 -0.00292634 0.000219156 
C 33.9502 1.6296 36.1823 12.011 0.000313672 -0.00250924 -0.000233405 
C 10.6035 28.4184 13.8304 12.011 8.74636e-05 -0.00507873 -0.00112915 
C 15.706 6.10212 6.74347 12.011 -0.00388722 -0.00816019 0.00344059 
C 32.6346 38.4275 2.49858 12.011 -0.00131253 0.00244327 0.000312919 
C 15.6298 49.5907 14.2341 12.011 -0.00147972 -0.00610232 0.00608467 
C 47.3604 12.1624 10.8605 12.011 0.00237244 0.00155129 -0.00443109 
C 38.8446 24.219 35.0827 12.011 -0.00445239 -0.000755826 0.002519 
C 49.5628 30.7939 39.7318 12.011 -0.00119709 -0.00613009 -0.00261384 
C 36.9348 20.0995 25.1256 12.011 0.000382803 0.0063562 0.00114415 
H 30.0711 37.4925 3.71838 1.008 -0.0015014 0.0284574 0.00131495 
H 28.8011 40.8551 43.9609 1.008 -0.0161307 0.00378928 0.00775455 
H 0.915182 13.4433 32.5966 1.008 -0.0189253 -0.00904446 0.00567159 
H 34.5242 41.3252 50.7535 1.008 -0.00497612 0.00160063 -0.0210902 
H 1.78778 12.9485 28.6579 1.008 -0.00957086 -0.0250547 -0.0213604 
H 13.6857 17.7774 48.338 1.008 0.00772831 -0.00026088 -0.00210852 
H 7.74827 47.2715 45.1865 1.008 -0.0212859 0.00526546 0.0219887 
H 14.9545 20.6515 32.764 1.008 -0.00103251 0.00539823 0.00249628 
H 0.921282 12.765 40.1716 1.008 -0.0148217 -0.00774042 0.0208071 
H 28.1885 34.1368 38.4355 1.008 0.0273019 -0.00775861 0.00610655 
H 32.6856 24.6706 49.7642 1.008 -0.0128777 -0.00082841 0.0103123 
H 6.25629 4.80563 49.3664 1.008 -0.00272953 -0.0171235 -0.000272532 
H 26.893 21.152 9.4293 1.008 -0.0138761 -0.027969 -0.00855272 
H 44.2773 50.0765 44.9687 1.008 -0.0327703 -0.00515093 0.0089552 
H 18.0831 36.0685 2.8332 1.008 0.0189025 0.0055635 -0.0123561 
H 22.06 7.55966 25.846 1.008 -0.0124206 0.0205506 -0.0010691 
H 47.5308 6.35802 39.431 1.008 0.00869281 -0.000748267 -0.0403309 
H 48.5708 32.0909 18.1683 1.008 0.00340581 0.0175338 0.00760176 
H 33.7623 3.19206 5.86192 1.008 -0.0251666 -0.024244 0.011027 
H 17.0328 21.9263 47.5707 1.008 0.02969 -0.0044209 -0.01262 
H 31.6111 7.83657 14.0965 1.008 0.0068577 0.00996026 -0.0177388 
H 1.42421 25.4966 24.6126 1.008 0.0120626 0.00118557 -0.0211055 
H 20.91 10.2582 10.9037 1.008 0.0270352 -0.0168517 -0.00120338 
H 13.3669 23.0968 44.5297 1.008 -0.00200565 0.00661037 0.0128511 
H 17.0431 50.5245 19.7276 1.008 -0.000683594 -0.0046742 -0.0269729 
H 10.6733 11.9268 34.2098 1.008 -0.00624102 0.0271839 0.02126 
H 31.6613 18.04 8.14757 1.008 -0.0261804 0.0130517 -0.0140525 
H 42.5704 32.2468 3.13837 1.008 -0.00558929 -0.0271625 -0.0285666 
H 9.36765 11.8163 13.7332 1.008 -0.00915187 -0.0161383 0.00613059 
H 13.3099 38.3185 22.0442 1.008 -0.0158398 -0.00578312 0.00879134 
H 45.3715 6.93289 36.9571 1.008 -0.0231228 -0.0162417 0.00657513 
H 35.5438 38.9188 19.0481 1.008 -0.0112807 0.00857974 -0.00761205 
H 9.37228 11.1492 14.0288 1.008 0.00895556 -0.0174236 0.0116889 
H 28.6689 25.5861 27.3121 1.008 -0.0176307 0.0165213 0.0132823 
H 0.219495 12.9657 10.2339 1.008 -0.00383498 -0.0314902 0.0058111 
H 47.1144 36.4736 16.0744 1.008 0.0209614 0.0430935 0.00780627 
H 18.8181 17.5518 7.21357 1.008 -0.0204363 0.0269482 -0.00591579 
H 37.6603 40.7656 9.5486 1.008 -0.0032643 0.0118642 0.00751733 
H 40.7246 43.5403 40.8063 1.008 -0.00937516 -0.0294374 0.0176032 
H 1.3989 49.0287 48.6825 1.008 0.0171516 -0.0252303 -0.00165072 
H 37.4704 2.69636 30.8078 1.008 -0.00211192 0.0169368 0.00593255 
H 25.7466 14.3259 18.8056 1.008 0.0128478 0.0147088 -0.0134269 
H 22.3554 9.31445 11.5721 1.008 0.000643846 -0.0104809 -0.00825552 
H 35.6929 49.2007 0.188148 1.008 -0.0102519 -0.00413196 0.0129795 
H 25.3464 40.0965 10.9913 1.008 0.012178 -0.00196239 0.00581011 
H 18.3924 10.25 31.6964 1.008 0.00665966 -0.00844888 -0.00506831 
H 20.1674 18.8436 24.9766 1.008 0.00475253 0.00390964 0.00615566 
H 7.59576 7.88795 32.9176 1.008 -0.00411207 0.0145978 -0.00974104 
H 50.0135 1.45433 45.2626 1.008 -0.0105478 0.017756 -0.020953 
H 29.3924 15.3618 17.5922 1.008 0.00118775 -0.0138827 0.00960356 
H 41.0975 34.6114 39.2335 1.008 -0.00555073 -0.0181731 -0.0166979 
H 27.7602 42.9678 25.6198 1.008 0.0121124 -0.005569 -0.016827 
H 5.82146 8.58287 21.5072 1.008 0.00273346 -0.00971505 0.0115674 
H 26.1953 30.7521 31.0132 1.008 -0.00596999 0.0114195 0.00568497 
H 46.5681 18.6378 28.4123 1.008 -0.0187402 0.00554167 0.0064679 
H 45.5558 48.2361 25.8128 1.008 -0.0202044 0.00528572 0.000557959 
H 26.9772 14.1456 17.5658 1.008 -0.0157225 0.0183753 0.0214951 
H 43.0185 39.0228 9.94474 1.008 -0.00398872 -0.00394578 0.0135438 
H 37.5407 9.97506 7.55211 1.008 -0.0166493 0.0153234 0.000210026 
H 40.6224 46.7512 25.3067 1.008 -0.00791327 -0.0243712 -0.0420518 
H 6.72885 34.7606 46.4788 1.008 -0.00579872 -0.00520976 0.00539815 
H 1.24682 3.08145 13.2695 1.008 0.0217207 -0.0168454 0.0102191 
H 28.4937 36.9324 1.85137 1.008 -0.000530426 -0.00949641 -0.0231358 
H 3.87613 35.8807 35.7107 1.008 -0.00080869 -0.00263949 -0.0155642 
H 32.3732 44.4206 25.289 1.008 0.00110611 -0.0063098 -0.0151266 
H 39.5707 17.5013 48.0938 1.008 0.0137351 -0.00943795 0.00228643 
H 40.727 36.6162 1.1138 1.008 0.00644798 0.0209551 -0.0164719 
H 10.4782 35.5922 45.069 1.008 0.0267969 0.0188852 0.0257276 
H 46.5229 10.7305 40.2498 1.008 0.0144429 0.014114 0.00416317 
H 49.9029 42.5713 43.4795 1.008 0.00281752 -0.0275443 0.0166889 
H 47.3087 15.569 40.6634 1.008 0.0288858 0.00585097 -0.0141263 
H 46.2441 35.7341 39.6985 1.008 0.00444624 0.0083323 0.0190881 
H 9.34425 18.0289 36.6074 1.008 0.0028837 -0.00634961 0.019526 
H 21.2936 32.1399 29.7107 1.008 -0.0135822 -0.0108693 -0.00488019 
H 44.8398 6.34184 34.1944 1.008 -0.0233953 0.0104632 -0.0134625 
H 6.3666 27.3532 8.37688 1.008 0.0132382 -0.00692042 0.0195479 
H 12.3334 25.3899 25.4159 1.008 0.0189316 0.0192737 0.00814719 
H 45.1389 20.1589 27.0251 1.008 0.0110615 0.0190056 0.00123844 
H 41.9825 39.451 49.5473 1.008 0.0112605 0.0122095 0.0198097 
H 43.4364 48.9084 23.7105 1.008 -0.0255356 0.00361941 0.000543352 
H 15.8259 7.729 10.417 1.008 -0.0189554 0.017625 0.0186358 
H 37.7145 28.5035 3.71899 1.008 0.0206121 0.0201899 0.0128347 
H 37.0163 23.4716 29.3102 1.008 -0.025024 0.0256723 -0.023213 
H 14.5147 14.6317 49.9895 1.008 0.00744886 -0.0216776 -0.0294239 
H 15.4139 18.2161 37.9016 1.008 0.0351041 -0.00192851 -0.00247301 
H 16.8165 38.3717 25.9142 1.008 -0.00419409 -0.0201677 -0.00813693 
H 15.2948 6.13064 43.3223 1.008 -0.00965104 -0.0135015 -0.00255035 
H 42.1935 10.1951 17.1033 1.008 0.00542393 -0.00950591 0.0158546 
H 23.3316 47.0047 31.245 1.008 -0.0159096 -0.000365904 -0.0105964 
H 5.25817 19.1108 11.267 1.008 -0.0280037 -0.0208113 0.0108966 
H 38.127 19.591 47.912 1.008 0.0123936 -0.0169483 0.0240763 
H 1.22732 20.5596 12.8103 1.008 -0.00477346 0.00247373 -0.0220779 
H 6.59623 17.6126 17.0977 1.008 -0.00359239 -0.0135401 -0.00931667 
H 44.2401 30.7877 42.1243 1.008 0.0266611 -0.0347946 -0.0219302 
H 6.52456 1.46128 27.4501 1.008 0.0167594 0.01345 -0.0136183 
H 10.3744 21.1157 45.2358 1.008 -0.00358739 0.000836766 -0.00222518 
H 0.80538 12.6878 32.4489 1.008 -0.00608012 -0.0119049 -0.0294904 
H 41.1949 5.65606 47.1424 1.008 0.00293967 -0.0180124 0.00718685 
H 17.8264 36.9665 28.182 1.008 0.0155893 0.0117916 -0.00866987 
H 9.36205 18.5519 48.4654 1.008 -0.00618814 -0.0107258 0.0115494 
H 25.2354 47.4973 3.52917 1.008 0.000443549 0.0155264 0.00933947 
H 42.0446 7.55938 28.0058 1.008 -0.00488025 0.00536993 0.0379702 
H 42.2647 34.8225 40.9595 1.008 -0.005082 0.00207159 -0.0276916 
H 41.769 8.2195 48.2495 1.008 -0.0212763 0.0010468 -0.00674259 
H 5.4565 37.1244 32.2236 1.008 -0.00259114 -0.0126242 0.00448296 
H 30.019 34.842 21.6936 1.008 0.00201855 -0.016995 -0.0115912 
H 49.3603 13.5386 48.0331 1.008 -0.00172461 -0.028377 0.0123053 
H 25.2252 36.1997 32.8116 1.008 -0.0187784 -0.00553038 0.0248567 
H 17.893 20.3328 48.5874 1.008 -0.0135626 -0.00279254 0.00692344 
H 40.9574 1.62647 25.1138 1.008 0.0250059 0.00563884 -0.0217673 
H 18.4883 0.876654 18.0612 1.008 -0.00657157 -0.00515911 -0.00330794 
H 43.4925 21.2988 25.779 1.008 -0.0297513 -0.0010974 0.0337219 
H 7.06382 18.8114 13.3227 1.008 0.0286527 -0.0135973 -0.0154401 
H 14.3726 49.3364 0.517202 1.008 -0.0101817 -0.0149464 0.00683955 
H 29.8251 34.3267 39.1977 1.008 -0.00510152 0.0042693 -0.0233692 
H 26.6347 19.0926 41.3402 1.008 0.0147926 -0.0183902 0.0109723 
H 9.99919 13.926 38.8825 1.008 0.0172853 0.010151 -0.00701639 
H 9.16922 18.2919 10.3995 1.008 -0.0166994 -0.00658381 -0.0141337 
H 10.092 6.10531 2.45028 1.008 -0.0265212 0.0103938 0.0109779 
H 7.25578 7.79497 2.18669 1.008 -0.0139581 0.00389816 -0.00835486 
H 27.3898 12.7139 21.6229 1.008 0.0118347 0.0118958 -0.00572703 
H 1.73192 9.83464 33.0068 1.008 -0.0108843 0.0182807 0.00191484 
H 41.5317 40.425 47.9718 1.008 -0.00129656 -0.00281464 0.0148891 
H 17.9102 16.1644 7.17207 1.008 -0.00857304 -0.0263794 0.00630704 
H 6.11439 30.235 50.5755 1.008 -0.0109621 0.0045485 0.02214 
H 48.575 37.0028 37.0746 1.008 0.0218499 0.00407606 0.00872883 
H 15.0019 24.5572 23.1712 1.008 -0.0139878 0.00927935 -0.00909705 
H 14.0014 32.0904 9.70187 1.008 0.0122728 -0.0174351 -0.00599402 
H 23.9276 48.6472 5.9811 1.008 0.00404889 0.0189968 0.0125045 
H 18.178 6.5851 34.8225 1.008 -0.0115411 0.00684302 0.0103936 
H 7.25856 15.8311 32.554 1.008 -0.00649492 -0.0194282 0.00676657 
H 46.3347 40.5575 39.1625 1.008 0.00640175 -0.00708971 0.0179458 
H 3.46818 18.3661 19.6593 1.008 -0.0112178 0.0106483 0.0314825 
H 15.192 3.29214 32.1424 1.008 0.00226723 -0.000691351 0.00271172 
H 25.3006 49.8671 25.8926 1.008 -0.0118862 -0.0142501 0.00594474 
H 2.10942 48.6612 38.6113 1.008 -0.0174628 0.000981983 -0.02257 
H 11.8549 15.9921 2.48349 1.008 0.0375622 -0.00906235 -0.0151842 
H 9.41122 29.5885 48.3754 1.008 0.0366993 -0.0162145 -0.00240721 
H 5.39839 0.833476 30.1558 1.008 0.00855382 -0.00164127 -0.00394391 
H 7.92177 5.38718 50.0287 1.008 0.0349017 0.0155348 -0.0235029 
H 20.7633 39.4644 32.7965 1.008 -0.00509624 -0.0370637 -0.00687269 
H 41.9491 31.3393 27.3479 1.008 0.0251802 -0.00656946 -0.00710025 
H 44.2099 7.95749 7.47241 1.008 0.000422851 0.0189253 0.00982389 
H 48.9048 0.250851 4.73955 1.008 -0.0192586 -0.00490398 -0.0213328 
H 21.6589 19.4467 27.3926 1.008 -0.00730783 0.0110916 -0.0047977 
H 35.7136 37.7516 48.5858 1.008 0.0123055 0.0118231 -0.0284812 
H 1.27607 2.2511 15.6966 1.008 -0.00983083 -0.0123188 0.0340405 
H 38.2024 37.6492 48.869 1.008 -0.00591856 -0.0240013 -0.0307036 
H 18.6951 38.2999 7.88052 1.008 0.0178762 0.0124896 -0.0133167 
H 42.122 31.5555 29.6306 1.008 -0.00135395 -0.00482071 0.0382114 
H 30.1747 16.3619 28.7966 1.008 -0.00838675 -0.0162494 0.0126206 
H 19.6314 11.491 33.4108 1.008 -0.00252613 -0.000687596 0.000798434 
H 9.16941 6.34334 30.7692 1.008 0.0129982 0.0106901 -0.00157311 
H 14.8734 39.6973 22.8747 1.008 -0.0062817 -0.000641771 -0.0049066 
H 7.79757 13.7832 9.59031 1.008 -0.00708497 0.0261144 -0.00874388 
H 19.9272 1.46225 10.2608 1.008 0.0201943 -0.0269964 0.0106118 
H 10.837 27.4921 47.7588 1.008 -0.00168978 -0.0145414 -0.00444127 
H 40.2202 4.01926 16.0682 1.008 0.0103885 0.0183924 0.00787484 
H 46.4996 44.0841 48.8442 1.008 0.0270717 0.0100881 0.0141676 
H 8.86819 12.9534 39.733 1.008 0.0140545 0.000971017 0.0165961 
H 11.6449 18.0208 25.1165 1.008 -0.00218193 -0.00946322 0.00308236 
H 37.6603 9.71012 16.6976 1.008 -0.0389793 -0.013047 -0.0122023 
H 24.7812 13.1045 46.7193 1.008 0.000304592 0.0185779 0.0161315 
H 46.993 3.60122 35.2416 1.008 -0.00928044 -0.00939214 0.00743439 
H 24.0824 14.6091 1.67313 1.008 -0.00122756 -0.0302415 -0.00978874 
H 5.94268 10.8904 21.8621 1.008 -0.00768306 -0.000802033 0.00929902 
H 30.5618 24.8304 31.7415 1.008 -0.00914323 -0.016533 0.00161364 
H 12.952 36.4707 21.0157 1.008 0.00324932 -0.00419431 0.0235989 
H 24.5674 24.9019 0.862763 1.008 -0.0120447 0.024116 0.00378676 
H 38.3349 44.4181 18.66 1.008 -0.0131855 -0.00803772 -0.0108487 
H 42.5711 9.82587 9.36279 1.008 -0.00989873 -0.0197682 -0.021593 
H 10.6567 34.073 45.9743 1.008 -0.0158454 -0.0327567 0.0112842 
H 4.61744 2.24173 19.1846 1.008 -0.00173265 0.0129165 0.0212603 
H 7.36121 25.6899 24.0155 1.008 0.00267078 -0.013521 -0.0104562 
H 6.45417 31.4144 47.4853 1.008 -0.00536547 -0.0135816 0.016149 
H 23.824 19.1675 29.7716 1.008 0.0102313 -0.0213204 -0.000918841 
H 34.4969 41.4846 11.8974 1.008 0.00985692 0.0125833 -0.0157677 
H 29.3291 13.7279 47.6001 1.008 0.0205275 -0.00938728 -0.0332669 
H 41.5193 4.36825 0.40126 1.008 -0.00383404 0.0173896 0.00814234 
H 42.4975 42.9591 39.9317 1.008 0.0073216 -0.0148234 -0.0120357 
H 25.1989 13.4004 36.714 1.008 0.0174307 0.0153759 -0.015726 
H 44.3919 33.5412 26.368 1.008 0.00207299 0.0141869 0.0209781 
H 12.9363 34.5566 11.7469 1.008 0.000469002 -0.0181092 -0.00542944 
H 43.7773 47.5304 10.4351 1.008 0.000244444 -0.015745 0.0130201 
H 30.8821 0.541968 41.7831 1.008 0.0169568 -0.0290543 -0.0379494 
H 31.3168 2.1416 43.7134 1.008 -0.0282988 -0.0292955 0.00972255 
H 1.501 25.7294 33.3807 1.008 0.0182465 0.00872685 0.013086 
H 49.412 36.8015 41.8504 1.008 0.0246156 -0.0323909 -0.0357006 
H 28.2139 22.0675 11.165 1.008 -0.00695912 -0.0240808 -0.0129174 
H 15.0872 9.13524 34.595 1.008 0.0210049 0.0137489 0.00213788 
H 13.1582 2.90285 46.4077 1.008 -0.00425796 -0.00276385 -0.00131738 
H 44.2073 39.3817 7.09424 1.008 -0.0128586 -0.0119775 -0.00787055 
H 14.665 46.4535 49.1694 1.008 -0.0192819 0.00492777 0.00212 
H 40.5344 40.2803 11.5885 1.008 0.0127488 0.0315403 0.0362599 
H 3.54501 48.2901 45.0858 1.008 -0.0360107 -0.00563764 0.00870333 
H 23.2873 10.9427 4.7729 1.008 0.00413881 0.00945541 0.00163346 
H 34.4447 8.59431 16.5219 1.008 0.00705952 -0.00537349 -0.0269112 
H 36.3405 26.1769 31.0801 1.008 0.00585162 0.00248303 0.0302645 
H 24.674 48.6742 34.1376 1.008 -0.022842 0.0273336 -0.00752588 
H 32.6337 17.9257 11.2629 1.008 0.0163081 -0.0326531 -0.0164373 
H 32.2198 6.15925 43.0168 1.008 -0.00127477 -0.00546633 0.0287714 
H 21.547 15.7836 16.3601 1.008 -0.00837458 -0.0158081 -0.0358383 
H 13.4785 22.1587 25.5677 1.008 0.00339363 -0.00843012 0.00464179 
H 38.4697 42.0081 49.4148 1.008 -0.0139053 0.0109667 -0.00994776 
H 22.0393 5.17888 24.7934 1.008 -0.0193841 -0.00528939 0.00202299 
H 37.0598 21.7244 47.4144 1.008 0.00494175 -0.00195954 0.0123326 
H 36.7704 9.52798 14.2682 1.008 -0.0125662 -0.000165879 -0.0176669 
H 38.207 27.3836 24.384 1.008 0.0304228 0.00750614 0.00250671 
H 45.8578 20.9265 4.56006 1.008 -0.00634077 0.0188375 -0.0257121 
H 6.2192 3.60007 2.48408 1.008 0.0124817 -0.00709279 -0.00191144 
H 29.3993 44.1244 31.7253 1.008 -0.00488516 -0.0297335 0.0403401 
H 19.6443 17.1625 49.7207 1.008 -0.0046514 0.0172128 -0.010931 
H 45.4532 46.8833 48.5332 1.008 0.0248005 0.0109146 -0.00225567 
H 13.6071 39.3737 7.60789 1.008 0.0223066 0.0157758 -0.00967203 
H 0.929246 43.815 31.1395 1.008 -0.00318314 0.00712619 -7.80181e-05 
H 49.9995 16.4662 30.2518 1.008 -0.0176445 -0.0188206 0.0118747 
H 9.9805 22.9048 32.5767 1.008 -0.00485746 0.0224409 -0.00604516 
H 30.7203 5.82885 15.3143 1.008 0.00519399 -0.00405988 -0.0157621 
H 26.5097 12.5224 49.0957 1.008 0.00841581 0.0101426 0.00362146 
H 19.0127 5.38512 33.8188 1.008 -0.00187008 -0.00236421 0.0227793 
H 41.6473 12.5825 17.5768 1.008 -0.00456243 -0.0169097 -0.00952547 
H 35.2546 30.2337 29.6988 1.008 -0.023114 0.0107762 -0.0121917 
H 46.5929 43.7617 26.9422 1.008 0.0140681 -0.0266009 -0.00233674 
H 27.9296 18.575 11.743 1.008 -0.0229931 -0.0192429 0.0275291 
H 9.02778 18.9497 45.1949 1.008 -0.00804853 -0.00181308 -0.00663149 
H 7.58783 24.6734 8.65298 1.008 -0.0395013 -0.0198491 -0.0151108 
H 16.6263 24.5963 44.3198 1.008 -0.00832285 -0.0335547 -0.02112 
H 23.1009 42.6706 10.8808 1.008 0.00281155 0.0167764 0.019261 
H 14.0098 1.02931 48.881 1.008 -0.00937423 -0.0290738 0.00770856 
H 41.6976 27.1719 27.6928 1.008 0.0080301 -0.0380714 -0.00231169 
H 40.2041 32.6864 32.3674 1.008 0.0259197 -0.000257931 -0.0120132 
H 42.6358 7.60346 23.8306 1.008 0.00763271 -0.0233356 -0.0139087 
H 50.5113 25.8576 32.1737 1.008 0.010955 -0.0319221 0.000119127 
H 13.5561 17.9318 34.4143 1.008 4.95121e-05 -0.0235755 -0.0252448 
H 5.6009 14.114 31.6449 1.008 0.0263301 -0.0296798 0.0136582 
H 45.2989 7.49349 17.5546 1.008 0.0483104 0.00752666 -0.0165701 
H 50.5462 6.90717 41.9384 1.008 0.0173423 0.00791946 0.0112884 
H 11.0509 35.6514 46.6734 1.008 -0.00896844 -0.0109326 0.000243903 
H 29.5661 1.19869 35.8754 1.008 -1.55567e-05 -0.000667344 0.00536695 
H 45.1811 34.6477 27.5842 1.008 -0.000356288 0.0103114 0.0106362 
