8000
pbc="T T T" Lattice="51.0242 0 0 0 51.0242 0 0 0 51.0242" Properties=species:S:1:pos:R:3:mass:R:1:vel:R:3
C 26.8005 20.4197 37.5673 12.011 -0.00689662 0.00371971 -0.0032254 
C 37.3842 49.9283 4.73221 12.011 0.00247639 -0.000532301 0.00192282 
C 41.1178 4.33309 28.0233 12.011 -0.0010228 0.00231661 -0.00508647 
C 37.4177 37.3499 0.153941 12.011 0.00230464 0.00203775 0.000363465 
C 26.7135 21.07 2.37128 12.011 -0.0108736 -0.00747744 0.00195805 
C 1.03672 15.4951 19.1821 12.011 0.00413514 -0.00476752 0.00377566 
C 38.6632 40.366 42.0542 12.011 0.00380246 -0.00525201 -0.00169923 
C 35.0762 10.5622 11.3687 12.011 -0.00166006 0.00193946 0.00322097 
C 29.1847 45.1708 22.4953 12.011 -0.000615243 0.000172504 -0.00937353 
C 13.5237 11.159 29.9321 12.011 -0.00376567 -0.00357163 0.010102 
C 11.0362 48.5852 13.9378 12.011 0.00447141 0.000560069 0.000964753 
C 20.2429 32.0816 39.3212 12.011 -0.00593958 -0.0038499 0.00192344 
C 39.8554 39.5858 1.76664 12.011 -0.00386617 -0.00879121 0.00135498 
C 29.9299 38.4653 29.0214 12.011 -0.00584471 -0.0033383 -0.00366857 
C 45.7101 36.8489 27.9692 12.011 -0.00100324 -0.00261588 0.00383198 
C 21.9509 46.2398 31.6109 12.011 -0.00360041 -0.00731343 0.000553291 
C 45.8878 16.3683 12.704 12.011 -0.00158151 0.00275899 -0.000886986 
C 39.1278 2.77448 1.49086 12.011 0.000607767 0.00264174 0.002352 
C 27.2685 20.7759 36.1769 12.011 0.00504772 -0.0030805 -0.000303247 
C 22.5378 46.7982 16.6213 12.011 0.000360506 -0.00128295 -0.000250869 
C 1.11251 29.8801 16.5465 12.011 0.00852117 0.00572118 -0.002089 
C 7.27637 20.6046 34.4186 12.011 -0.00857298 -0.00389789 0.00999812 
C 40.4493 8.87264 19.9866 12.011 0.00107375 0.00589867 0.00499141 
C 49.9279 34.623 48.0805 12.011 -0.000418432 -0.000467275 0.0102087 
C 15.9472 21.4203 23.7688 12.011 -0.00782118 0.00550704 0.00260457 
C 9.98315 1.32747 42.8281 12.011 -0.0071034 0.00783888 -0.00223475 
C 5.08183 19.5055 11.0416 12.011 -0.00521794 0.00706207 0.00264888 
C 6.59695 47.7605 3.02655 12.011 -0.00298088 -0.00455343 -0.00366134 
C 29.2869 43.9547 27.2803 12.011 -0.00762941 -0.00681119 -0.00415542 
C 30.0606 40.3244 36.1087 12.011 -0.00356321 0.00769196 0.0013866 
C 40.4476 9.41437 46.7098 12.011 0.0061928 -0.00605886 0.00321537 
C 5.56255 4.1427 21.843 12.011 0.00188084 0.00284268 0.00844941 
C 14.6477 38.6725 32.723 12.011 -0.000599547 -0.000893994 0.00966798 
C 15.1093 11.7763 49.7716 12.011 0.0067964 0.00299222 0.00223381 
C 29.2378 24.9214 20.4526 12.011 0.00372532 0.00144644 0.00726308 
C 33.7552 40.5343 24.1131 12.011 0.0101205 0.00222709 -0.00135894 
C 37.7898 12.3637 38.2975 12.011 0.00523653 0.000751621 -0.00592856 
C 34.1967 28.8779 1.04375 12.011 -0.00486893 -0.0011728 -0.00386057 
C 6.11866 8.12207 37.7419 12.011 0.00411106 0.0019524 -0.00826305 
C 15.0522 39.8283 45.0608 12.011 0.00463893 -0.00478474 0.00327477 
C 10.2733 2.07125 39.0694 12.011 -0.000611133 0.0046932 -0.00670556 
C 42.1091 22.9676 18.2074 12.011 0.00639969 -0.00334784 -0.00195052 
C 14.5113 20.8095 48.6102 12.011 0.00174193 -0.004458 -0.00111459 
C 24.9703 12.9644 16.5814 12.011 -0.0044685 0.00166228 -0.00377532 
C 27.6938 11.7172 18.5649 12.011 -0.000340693 0.00522237 0.00328695 
C 8.89624 28.6193 10.7584 12.011 -0.000811545 0.00218462 -0.000273101 
C 47.7766 25.1291 0.644874 12.011 0.000195941 0.00525376 0.00175524 
C 47.2514 43.3882 16.0583 12.011 -0.00203328 0.0103004 0.00822063 
C 31.9131 44.4511 29.8387 12.011 0.000653626 -0.000975099 -0.00438485 
C 33.1909 39.6513 50.2072 12.011 -0.000966198 0.00141021 -0.0037242 
C 25.138 23.2121 29.1701 12.011 0.00292871 0.00747535 0.00117396 
C 14.9717 23.1689 10.7154 12.011 0.00104512 -0.00135016 0.000453218 
C 12.2063 3.30709 3.67909 12.011 -0.00140898 0.00242902 -0.00740346 
C 28.29 50.4998 35.8002 12.011 -0.00620113 -0.00298969 -0.00179248 
C 28.0795 4.18169 5.52725 12.011 0.00539606 0.0130037 0.00261495 
C 47.6843 30.6927 24.8277 12.011 0.00112666 0.00912467 -0.00119511 
C 49.2876 36.8984 12.6716 12.011 -4.18067e-05 -0.00357846 -0.00539435 
C 6.48637 26.5728 36.2478 12.011 0.00455155 0.00510903 -0.00108671 
C 45.1695 20.4689 33.3263 12.011 -0.0061636 0.00326156 -0.00739503 
C 32.8722 6.02864 35.8831 12.011 0.00260366 -0.00573063 -0.0013175 
C 4.86819 26.4618 4.95694 12.011 0.00660261 0.00784355 -0.00652908 
C 38.7477 20.9541 38.7368 12.011 0.00707455 0.00455529 0.0015137 
C 18.5119 34.4505 10.7951 12.011 0.00250074 0.00260643 0.00544207 
C 22.304 5.43606 47.3255 12.011 0.00356751 -0.00204983 -0.00338129 
C 28.4958 4.55795 26.613 12.011 -0.00684566 -0.00802493 0.00455746 
C 4.95361 26.6911 27.446 12.011 0.00527672 0.00114571 0.00505122 
C 49.353 25.7516 49.9336 12.011 -0.00717555 -0.00259768 0.00340806 
C 24.0277 48.852 45.4161 12.011 -0.00274344 -0.00297174 0.000287145 
C 33.9702 24.8805 48.3351 12.011 0.00122889 -0.00875775 -0.000554223 
C 44.5101 15.8004 18.5063 12.011 -0.000633161 -0.00219397 0.00233831 
C 6.13096 25.4415 46.6844 12.011 0.002347 -0.00509592 0.00849865 
C 21.0842 16.6186 13.571 12.011 0.00336905 -0.00479324 0.00400597 
C 9.09835 32.2927 48.974 12.011 0.00387932 0.00372902 0.000513846 
C 3.84307 9.23181 45.1898 12.011 0.000612263 0.00483267 -0.00111101 
C 46.567 34.5881 44.7843 12.011 0.00248341 0.00242688 0.00299101 
C 45.9815 25.3182 11.9368 12.011 -0.00271597 0.00363713 -0.0045725 
C 30.3172 17.2807 18.0899 12.011 -0.00150815 -0.00555286 -0.00110497 
C 28.154 29.5711 10.2138 12.011 7.7296e-05 4.81546e-05 0.00705563 
C 47.6507 33.2568 0.0362543 12.011 -0.00300564 0.00197329 0.00587344 
C 30.3365 26.6879 19.2246 12.011 -0.00103274 0.00571881 -0.00057634 
C 42.7685 9.7277 40.9898 12.011 -0.00205789 0.00850756 -0.0127918 
C 34.2705 10.9142 45.0808 12.011 0.00426844 0.00649796 0.00583439 
C 47.91 31.1068 50.0492 12.011 0.00178823 -0.00180463 -0.00304082 
C 50.9198 10.7018 19.3422 12.011 -0.000319387 0.00513716 0.00481362 
C 20.8687 4.49423 6.29055 12.011 -0.00202468 0.01241 -0.000228772 
C 17.5083 29.8081 24.5911 12.011 0.00799045 -0.00402653 -0.0029617 
C 4.88473 46.9681 7.49991 12.011 0.00791619 0.00603021 0.00223413 
C 15.1837 5.19283 34.2563 12.011 -0.00206833 -0.00601141 -0.00135051 
C 19.3083 19.9258 6.78308 12.011 0.000707096 0.00635743 -0.00260439 
C 31.5743 12.1073 32.2875 12.011 0.00632973 -0.00114204 0.00240619 
C 38.1764 30.2777 21.0904 12.011 -0.00561988 -0.00388914 1.81492e-05 
C 32.5253 21.7198 24.3646 12.011 -0.00443181 -0.000335156 -0.0071717 
C 41.0924 34.5846 24.0835 12.011 0.0027168 0.00943495 0.00286001 
C 31.5701 23.7465 38.2628 12.011 0.00378777 0.010185 0.00614657 
C 25.1549 34.9932 5.5096 12.011 0.00532149 0.00432348 0.00395446 
C 49.5249 24.7849 12.9137 12.011 0.00357626 -0.0108246 0.000705096 
C 36.7904 37.7491 31.2245 12.011 -0.000984774 -0.000443631 0.00462548 
C 25.3741 39.5159 27.1036 12.011 4.00517e-05 4.16675e-07 -0.00544255 
C 4.22563 24.635 22.1019 12.011 -0.00589185 0.00329583 0.00171119 
C 48.5288 23.3732 35.0978 12.011 -0.00268758 0.00660845 0.000605825 
C 11.8803 43.8035 46.0695 12.011 0.00988058 0.00432546 -0.00494066 
C 4.78963 39.4277 6.35485 12.011 -0.00548322 0.00170896 0.00059231 
C 0.174926 28.7229 36.4679 12.011 0.000748837 0.000850053 -0.00260528 
C 49.0812 32.5951 18.9764 12.011 0.00159118 0.000216387 0.00227036 
C 0.963848 1.7244 38.0465 12.011 0.0058903 -0.000844268 0.00178384 
C 29.7356 2.83507 17.927 12.011 -0.000610754 0.00842775 0.00970868 
C 24.4164 24.5224 27.3058 12.011 0.00418942 -0.0117956 0.00690682 
C 22.5353 20.9806 22.5167 12.011 -0.00441752 0.000654372 0.00191319 
C 11.6352 14.8582 2.13667 12.011 -0.00223808 0.0032325 -0.00475809 
C 38.1966 30.535 48.497 12.011 0.00503126 0.00999728 0.00420258 
C 4.5841 21.2883 32.6264 12.011 -0.00270176 -1.5846e-06 -0.00445697 
C 14.6275 31.9591 12.6876 12.011 -0.0032014 0.00374398 0.00397188 
C 49.2243 15.6271 31.21 12.011 0.00346338 -0.0103693 -0.00220378 
C 33.14 1.33333 21.0969 12.011 0.000752585 -0.00195627 0.0128245 
C 1.58715 30.3072 25.993 12.011 -0.0110558 0.00110569 -0.000997813 
C 31.7086 27.7693 4.90384 12.011 0.00244854 -0.00512458 0.00113334 
C 42.1355 31.7191 30.8492 12.011 0.00875397 -0.0106354 -0.00131832 
C 14.294 38.9757 16.1535 12.011 0.000122998 0.000973569 -0.00855062 
C 34.2901 36.6229 20.5488 12.011 0.00309427 -0.00130224 -0.00390851 
C 26.212 1.1331 10.3385 12.011 0.0062812 0.00172119 -0.00603799 
C 41.2419 23.6222 32.8014 12.011 -0.00162264 0.0024799 -0.00222086 
C 41.7916 31.1803 4.6259 12.011 -0.000350969 0.00483976 0.000105025 
C 50.1452 47.0986 22.5007 12.011 -0.0120797 -0.000886802 -0.000844812 
C 24.4714 5.41826 18.9989 12.011 -0.00355602 -0.00627209 -0.00187906 
C 3.42261 22.4874 21.3762 12.011 -0.00662925 -0.000235837 -0.00189658 
C 31.5011 1.94368 42.5791 12.011 -0.00413586 -0.00440919 -0.000424036 
C 46.48 36.8376 15.7061 12.011 0.000445696 0.00300266 -0.00367362 
C 39.6645 29.4961 24.4835 12.011 0.00470502 -0.000308438 0.00204875 
C 19.7578 7.70985 31.0623 12.011 0.00445391 0.00166006 0.000610165 
C 25.4719 42.9157 12.1793 12.011 0.00295259 -0.00207933 0.00503276 
C 45.8761 49.4193 33.7173 12.011 -0.00230986 0.00457268 -0.00092334 
C 0.951484 45.9082 13.9066 12.011 0.00583465 0.00201714 0.00176016 
C 9.29207 23.8743 36.2197 12.011 -0.00131317 -0.00550534 2.06451e-05 
C 16.0437 48.0556 33.1254 12.011 -0.0018704 -0.0011733 0.00314148 
C 34.3536 38.2795 31.601 12.011 0.0025536 0.00113747 0.00566983 
C 37.116 31.9274 16.6657 12.011 -0.00959695 0.00115856 0.000100508 
C 14.7244 47.939 42.0694 12.011 -8.3562e-05 -0.00191709 -0.00747558 
C 49.2679 47.7986 33.7818 12.011 0.00300076 0.00252071 0.00512283 
C 9.50494 42.1435 19.8856 12.011 0.00218266 -0.00457001 -0.000412446 
C 43.627 3.11424 4.23284 12.011 -0.00143896 -0.00357793 0.00390337 
C 21.3245 11.1915 34.6067 12.011 -0.00625889 -0.00287063 0.00560228 
C 14.0212 9.80219 16.5246 12.011 0.00138262 0.00475446 -0.00182354 
C 19.9795 20.9946 2.01984 12.011 -0.00136527 0.00678121 -0.00556815 
C 48.2779 15.3531 32.1689 12.011 -0.0059954 -0.00644959 -0.00109318 
C 6.55643 12.3375 25.1929 12.011 -0.00522504 0.00792022 -0.00306475 
C 26.0626 38.1987 44.7682 12.011 -0.00157029 -0.00196229 -0.00128803 
C 30.7786 13.913 45.8606 12.011 0.00683171 -0.00136205 0.00207199 
C 6.8498 50.6907 12.6682 12.011 -0.00370194 0.00317369 -0.0020946 
C 16.5548 19.9436 47.2392 12.011 0.00157933 -0.000836058 0.00432068 
C 12.4766 24.7401 47.5387 12.011 -0.0078795 0.00712746 0.00197155 
C 49.9126 33.4087 2.32565 12.011 -0.00393238 0.0054155 0.000813773 
C 15.171 48.1099 32.0341 12.011 -9.72946e-05 -0.00248502 -0.000788436 
C 6.08821 2.42302 3.81244 12.011 -0.000454186 -0.00267348 -0.00366537 
C 38.525 33.6784 26.5198 12.011 -0.000668553 0.0027085 -0.0021984 
C 30.6055 3.47116 27.2892 12.011 0.000221169 0.000750553 0.00437039 
C 17.657 43.8191 40.5913 12.011 0.00319941 0.00395036 -0.00135239 
C 16.2557 40.6291 42.9258 12.011 0.00548908 -0.00162345 0.00105672 
C 27.1621 16.371 47.6635 12.011 -0.00296662 0.00206075 -0.00218945 
C 37.4462 25.2397 7.35957 12.011 0.00137733 0.00312691 0.000543519 
C 13.7591 7.14532 23.9639 12.011 0.00148484 0.00087634 0.00404911 
C 13.1467 30.2882 38.6987 12.011 0.00219091 0.000273357 -0.00348181 
C 48.5979 31.2963 2.57004 12.011 -0.00501968 0.00206183 0.00545706 
C 41.9521 24.8805 30.6902 12.011 -9.90611e-05 -0.00373211 0.000295164 
C 35.2516 14.14 43.3483 12.011 -0.00250785 0.00918788 -0.00122024 
C 32.6267 0.410435 29.4531 12.011 -0.00585493 -0.00373567 0.00955611 
C 13.2375 36.6432 15.4975 12.011 0.00511526 -0.00304987 -0.00777792 
C 31.1422 26.2739 43.5667 12.011 8.23664e-06 0.00769852 0.000244972 
C 22.7884 44.163 44.6436 12.011 0.00667397 -0.00320281 -0.00230738 
C 38.0626 18.659 26.2588 12.011 -0.00551794 0.00700662 0.00387139 
C 7.24988 11.9217 16.6955 12.011 -0.00542116 0.00708012 -0.000747705 
C 37.8425 37.6876 30.259 12.011 -0.00514065 0.00269396 -0.00416057 
C 31.1429 5.30799 24.077 12.011 -0.00429385 6.27219e-05 -0.00166535 
C 11.5208 37.7131 38.9748 12.011 -0.00292042 0.00229105 -0.00389505 
C 42.4182 45.132 9.50228 12.011 -0.000326678 0.00239237 -0.00616639 
C 49.6926 42.2417 42.53 12.011 -0.00116294 -0.00137578 9.96847e-05 
C 7.72378 38.5926 16.0254 12.011 -0.00512088 0.00563352 -0.00601566 
C 27.1805 47.1957 35.8053 12.011 0.00150645 0.00165139 0.00674868 
C 2.55338 8.50801 32.809 12.011 -0.00436829 -0.00186783 0.00339087 
C 22.7448 41.9973 42.6249 12.011 -0.00407597 -0.0050323 0.00421395 
C 4.80079 29.7542 16.6564 12.011 -0.00140513 -0.00384584 0.00671516 
C 34.6252 11.709 3.27242 12.011 0.00484528 -0.00043002 0.00205816 
C 48.7384 21.6953 5.81153 12.011 0.00856008 0.00579261 0.0019646 
C 38.8577 1.54052 18.4856 12.011 -0.00135149 -0.00304683 0.00324834 
C 38.2546 8.73394 28.7314 12.011 0.00404362 -0.00548283 0.00198377 
C 36.9371 5.89525 19.8149 12.011 0.010148 -0.00578139 0.00847089 
C 5.62432 9.5449 27.4985 12.011 -0.00482853 -0.00875495 -0.000674483 
C 17.2515 50.9263 39.4085 12.011 0.000496274 0.00521678 0.000965794 
C 8.50428 2.45658 3.53959 12.011 0.004449 0.00149378 0.00203508 
C 3.06207 8.13115 34.1339 12.011 0.00626924 -0.00848302 0.0012834 
C 20.672 15.6566 4.01369 12.011 -0.00415237 0.000427507 -0.00505412 
C 45.5434 46.1134 5.77022 12.011 -0.00119355 -0.00593368 -0.00103733 
C 2.73799 23.4121 41.1765 12.011 -0.00333073 0.00103926 -0.00228619 
C 47.6808 3.92169 29.1249 12.011 -0.00128203 0.00170326 0.00626111 
C 50.0537 46.5183 30.3891 12.011 0.00558927 -0.000392997 0.0058605 
C 22.3553 25.0786 5.31122 12.011 0.000202795 -0.00198723 -0.000547978 
C 32.9494 48.8655 4.06044 12.011 -0.00387782 0.000935123 0.00677197 
C 1.2733 15.0658 2.4486 12.011 0.00835177 0.00117808 0.00478454 
C 49.6399 23.522 0.113149 12.011 0.00360071 2.90519e-05 0.0012362 
C 47.3336 21.3761 29.5052 12.011 0.00286841 -0.00257614 0.000416452 
C 0.411294 18.4657 6.43262 12.011 0.00601939 -0.00774593 0.00363242 
C 8.65111 33.6934 30.5245 12.011 4.50187e-05 0.000564592 -0.00187069 
C 24.7414 18.2419 18.6027 12.011 -0.000916515 -0.00232203 -0.00579942 
C 29.9499 45.6848 31.2359 12.011 0.00465927 0.00162045 -0.00240538 
C 28.8131 39.6649 35.8987 12.011 -0.00502086 0.00577451 -0.00557655 
C 50.2331 15.7714 42.8202 12.011 0.00898564 0.00431935 0.0017042 
C 29.4781 51.0187 0.494764 12.011 -0.0132254 0.000564385 0.00207875 
C 40.3681 10.876 24.6254 12.011 -0.00337189 -0.00672831 0.00250775 
C 24.2258 29.1014 23.3737 12.011 0.00631236 0.00287475 -0.00658798 
C 14.305 11.7537 30.9031 12.011 0.00401365 -0.00232924 0.00106054 
C 42.2053 36.7091 46.5267 12.011 -0.00208684 -0.000456827 -0.00194905 
C 1.44191 40.0478 22.1003 12.011 -0.0106983 0.000453218 -0.00149035 
C 24.0396 38.3571 34.7437 12.011 0.00266393 -0.000869296 -0.00378263 
C 8.84564 35.6425 26.8262 12.011 -0.00316178 -0.000941147 0.00491508 
C 34.2645 34.5885 26.0899 12.011 -0.0076052 0.00588437 -0.00522446 
C 6.94028 4.28568 10.7278 12.011 0.00188748 -0.00540735 0.00351648 
C 19.551 47.1153 33.195 12.011 0.00610604 0.00597533 0.00175471 
C 5.60777 9.34604 11.2199 12.011 -0.00485552 -0.00404305 0.00511401 
C 30.0904 39.1722 42.1142 12.011 -0.00332563 0.0058114 0.00165206 
C 5.71748 39.9229 32.3549 12.011 0.000373876 0.00189142 0.00184749 
C 11.2211 48.5523 1.25915 12.011 -0.00176513 0.00822471 -0.0039422 
C 44.6673 13.0256 37.7462 12.011 -0.00709967 -0.00412057 -0.0059564 
C 35.2533 47.2198 38.0376 12.011 -0.00237172 -0.00302971 -0.00356368 
C 11.5773 42.9169 16.0879 12.011 -0.00092371 0.000185207 -0.00451729 
C 50.3959 16.1003 21.032 12.011 0.000522652 -0.00928814 0.0035384 
C 1.87011 15.6335 47.2641 12.011 0.00020837 -0.000668463 0.00251737 
C 39.9863 47.9728 9.00735 12.011 0.0030711 -0.00525854 0.00367189 
C 30.1328 35.76 36.6213 12.011 0.0103903 0.00235388 0.00940641 
C 0.574456 38.6252 20.1949 12.011 -0.00554016 0.00813045 -0.00327627 
C 12.4205 42.8551 12.5391 12.011 0.00733424 0.00150605 0.00496418 
C 22.1122 36.9072 32.4348 12.011 0.00791624 0.000556106 -0.000320496 
C 50.9513 45.9968 20.2516 12.011 -0.000937124 0.00468632 0.00162465 
C 13.9429 40.061 36.5254 12.011 0.00327052 -0.003531 -0.00104923 
C 8.37837 7.89518 48.5718 12.011 0.005922 0.00115403 -0.00155634 
C 44.0598 49.94 4.87717 12.011 -0.00126005 0.00399746 0.0007569 
C 22.3667 7.85202 18.6153 12.011 -0.00628085 -0.0014602 0.00331931 
C 41.0599 19.7542 23.456 12.011 -0.00270561 0.00286024 0.00625412 
C 1.26259 37.4517 0.261221 12.011 0.00608856 -0.00633656 -0.00380571 
C 49.6008 45.7194 2.16548 12.011 -0.0044267 0.000430634 -0.00217048 
C 10.9389 8.7006 36.6896 12.011 2.54061e-05 -0.00552119 0.00174737 
C 24.2596 32.3136 39.4451 12.011 0.00709925 0.000162232 0.00637326 
C 46.2738 27.4721 8.74396 12.011 0.00533419 -0.000588304 0.00139123 
C 15.9603 22.5236 9.89727 12.011 0.00709048 -0.00440981 -0.00131839 
C 9.03668 27.3411 4.97954 12.011 0.00365901 -0.000332041 0.00421415 
C 12.3751 30.4308 31.6331 12.011 -0.00151876 -0.00291066 0.00678605 
C 37.3991 26.5507 7.76363 12.011 0.00493409 -0.00613303 -0.000467268 
C 30.9016 39.4025 0.905333 12.011 3.34933e-05 -0.00151955 0.00753413 
C 3.21464 1.22248 26.6554 12.011 0.000409991 -0.0012803 -0.00119137 
C 24.4408 2.07034 13.5233 12.011 -0.00111117 -0.00657574 -0.00536469 
C 14.4366 41.5455 8.41195 12.011 -0.00191065 -0.00283626 0.00123237 
C 8.84234 4.05127 19.9847 12.011 -0.0105098 -0.00377259 0.00795706 
C 27.1673 41.1962 5.34778 12.011 0.00100992 0.00202994 -0.00175946 
C 44.2309 48.8858 47.1475 12.011 0.0101571 -0.0022038 0.0138816 
C 35.0361 10.3359 3.48427 12.011 0.00746978 0.00530128 -0.00274249 
C 47.6052 8.18807 38.0372 12.011 -0.00387077 0.0123557 0.00214102 
C 50.1895 2.09305 21.927 12.011 0.00408968 -0.0038889 0.0102275 
C 12.958 39.1182 20.632 12.011 -0.00357996 0.00627112 -0.00151781 
C 41.1262 13.2561 33.8375 12.011 -0.000821374 0.0013188 0.00331718 
C 48.9003 1.85055 1.68129 12.011 -0.00732162 0.00178723 0.00640751 
C 21.5367 11.915 35.8056 12.011 0.00559801 -0.00358808 -0.00372848 
C 2.69185 35.9274 45.0834 12.011 0.00265362 0.00550381 0.00657384 
C 32.4617 42.2973 17.1552 12.011 0.0023188 0.00102677 -0.00577831 
C 31.0376 17.4776 42.5193 12.011 -0.000801139 -0.00329711 -0.00244262 
C 4.49563 8.92025 29.5069 12.011 -0.00244171 0.00222536 0.00548962 
C 4.29618 27.9772 27.5111 12.011 -0.00428199 -0.00147418 0.000108016 
C 31.1155 20.3842 18.3304 12.011 0.00159239 -0.000429026 -0.00148491 
C 44.3741 46.8793 45.1759 12.011 -0.00301798 0.00647852 -0.00240908 
C 29.4197 10.1184 19.1529 12.011 -0.00708867 -0.00168107 0.00590319 
C 31.4061 49.4714 45.0134 12.011 0.00315659 0.00167263 -0.00072177 
C 8.63365 43.0419 2.53773 12.011 -0.00122455 0.00453948 0.000610356 
C 16.3589 29.3019 43.3634 12.011 -0.00314486 -0.00289087 0.000164326 
C 6.51724 27.9515 16.5963 12.011 -0.00716415 0.0076733 0.00382772 
C 14.4558 30.0126 4.47337 12.011 -0.00814718 -0.00344805 0.00930068 
C 36.2489 24.6054 6.93945 12.011 -0.00650991 0.00114887 0.00375116 
C 36.9574 35.552 22.9237 12.011 0.000615864 0.00816877 -0.00328975 
C 35.8166 13.9586 26.6746 12.011 0.00290058 0.00389114 -0.00259251 
C 23.1248 46.3807 26.6117 12.011 0.00988977 -0.00149693 -0.00965022 
C 38.0569 46.5803 25.0792 12.011 0.00606718 -0.00654033 0.000965001 
C 14.7374 5.98079 26.7869 12.011 -0.0080418 -0.00122604 -0.00625618 
C 6.51266 34.2444 17.4982 12.011 -0.000649246 0.00268209 0.000614373 
C 15.7082 21.6988 5.56566 12.011 -0.000440837 0.00614785 -0.00473926 
C 19.9299 47.8995 25.2064 12.011 0.00340118 -0.00101921 -0.00081606 
C 39.9082 1.52414 9.0731 12.011 0.000524348 0.00255131 -0.00455905 
C 5.47494 24.4691 30.5215 12.011 0.000325014 0.000834824 -0.000377425 
C 38.6898 26.1955 29.1432 12.011 0.00434567 -0.0138825 0.00138144 
C 46.106 16.8935 5.45513 12.011 -0.00180388 -1.93761e-05 -0.00371845 
C 3.22564 21.9502 0.680249 12.011 -0.00474285 0.00207235 0.00832145 
C 43.0015 16.7855 10.7925 12.011 -0.00281624 0.00486999 -0.00759608 
C 18.733 15.8509 29.0826 12.011 -0.000406715 0.00325455 0.00144255 
C 33.6434 13.1707 11.2724 12.011 0.00138096 -0.00981062 -0.00633434 
C 35.2511 28.4855 43.5038 12.011 -0.000886141 -0.000460606 -0.00515604 
C 5.81575 7.88114 18.5869 12.011 -0.00527504 0.00787481 -0.000757402 
C 19.4849 2.25187 37.4035 12.011 -0.00218556 -0.000153614 0.00267893 
C 17.6253 14.4266 7.75171 12.011 0.00484637 -0.0031552 0.000501173 
C 13.2172 10.9161 32.8959 12.011 -0.00241467 -0.00211188 0.00303633 
C 48.4162 11.7011 20.5131 12.011 0.00268214 0.00701174 -0.00237087 
C 18.7593 41.1543 32.437 12.011 -0.00646146 0.00270746 0.00480705 
C 3.38481 45.1999 3.94935 12.011 0.00311452 0.000344072 0.003163 
C 21.509 18.0694 29.9413 12.011 -0.00476192 0.00285603 0.00664396 
C 17.6764 5.6811 2.83679 12.011 -0.0026987 -0.00451974 -0.00273531 
C 49.8737 18.3381 19.2673 12.011 -0.00300795 0.00647414 -0.00131833 
C 20.8188 30.7991 25.1109 12.011 0.0145633 0.0054958 -0.00650899 
C 15.4412 40.0982 34.5664 12.011 0.00174535 -0.00477753 0.00418723 
C 49.5979 1.03213 22.619 12.011 0.000823511 -0.00345311 -0.009338 
C 14.5644 44.4568 43.5085 12.011 -0.00569974 0.00755038 0.00083642 
C 5.88088 10.4865 49.0386 12.011 -0.00128505 -0.00401923 -0.00133469 
C 14.1476 19.0122 47.1547 12.011 0.00263661 -0.00225841 0.00767845 
C 47.7871 13.9958 1.09705 12.011 -0.00155323 -0.00380425 -0.00866115 
C 48.6575 18.2131 40.4789 12.011 -0.00475944 0.00625649 0.0043373 
C 34.1832 33.7093 29.6979 12.011 -0.00387099 0.00129261 0.000249876 
C 34.0123 43.7683 37.371 12.011 0.00148537 -0.00809766 -0.00472656 
C 9.66959 13.4605 2.6771 12.011 0.00315116 -0.00231313 -0.00327276 
C 4.10265 11.3861 47.8224 12.011 0.000447581 -0.00215593 -0.00353483 
C 14.4723 46.1106 35.4867 12.011 0.0043195 -0.00656003 -0.00945989 
C 45.7664 43.0601 14.0527 12.011 0.00495196 -0.000836189 0.000950339 
C 50.8051 15.2941 15.6419 12.011 -0.00369015 -0.000716608 0.00444334 
C 1.62737 48.3777 3.46542 12.011 0.00547373 0.00456077 0.00112568 
C 10.1234 8.40871 34.4324 12.011 0.00317144 0.00103652 0.00430452 
C 47.1308 23.7454 35.3352 12.011 -0.00172944 0.0010685 0.000877277 
C 24.719 5.81069 20.3196 12.011 -0.00253552 0.000681126 -0.00355187 
C 25.9633 47.1886 36.4265 12.011 0.00461038 -0.000220308 0.00105614 
C 16.0727 15.3233 39.5757 12.011 -0.00103261 0.00107241 0.00202018 
C 48.8332 10.2502 36.0704 12.011 0.00338224 0.00795595 -0.00740779 
C 9.73912 43.0909 21.0358 12.011 -0.00822218 0.00743703 0.00549047 
C 32.4849 36.6458 15.7052 12.011 0.00105154 -0.00314647 -0.00095828 
C 18.6027 45.1944 35.1451 12.011 0.000609225 -0.00351253 0.00217115 
C 43.6319 33.6983 27.3449 12.011 -0.00366969 0.00605436 0.000124756 
C 8.90061 27.3447 43.118 12.011 0.00819653 0.00429251 -0.00259882 
C 44.8252 9.46079 28.0927 12.011 0.00291371 -0.00205502 0.00380896 
C 4.17177 18.4248 33.003 12.011 -0.00384454 0.00180782 0.00504708 
C 16.199 7.25858 23.5334 12.011 -0.000129632 -0.00351712 -0.0102766 
C 50.002 18.0649 28.6398 12.011 -0.00462932 0.00585518 0.00163889 
C 32.314 3.23952 38.4883 12.011 -0.00210057 -0.000354362 -0.0031495 
C 48.8234 35.674 4.48451 12.011 0.00577348 0.00109748 0.00767471 
C 12.1919 50.7433 18.2011 12.011 0.00197106 0.00690917 0.00141068 
C 9.73775 1.85469 40.4327 12.011 -0.00117526 -0.00338234 0.0039955 
C 34.9356 4.03474 23.0208 12.011 -0.00357422 0.00746602 0.00321678 
C 40.6084 23.7371 14.4208 12.011 0.0109625 -0.00882717 -0.00217313 
C 50.5509 4.10496 43.0346 12.011 0.000410626 -0.0010624 -0.00136201 
C 32.5012 36.2329 37.041 12.011 -0.00617439 -0.00347639 -0.0110228 
C 42.4502 30.6431 33.0417 12.011 -0.00188878 0.00627256 -0.00654511 
C 11.7894 23.8707 18.9104 12.011 0.00400401 -0.00368698 0.00219902 
C 44.8158 40.8015 3.83414 12.011 0.00365459 0.00586711 -0.00152417 
C 33.3544 9.58844 9.90024 12.011 0.000103741 0.00329114 0.00309215 
C 42.007 5.9657 49.6949 12.011 0.00293419 0.0105378 -0.00300228 
C 48.0404 39.5433 5.37333 12.011 0.00158061 0.00628415 -0.00364238 
C 44.2153 5.4583 19.0075 12.011 0.00163128 -0.003647 0.00177084 
C 4.22105 34.2691 45.6132 12.011 0.00334935 -0.00412036 0.00220351 
C 32.9645 43.5987 27.7094 12.011 0.000345145 -0.00927479 0.00120536 
C 9.28408 24.034 49.0564 12.011 -0.00426841 -0.00441431 -0.00621131 
C 33.1446 25.0111 2.90779 12.011 0.00467078 -0.00638257 0.0120468 
C 3.56018 0.757992 34.2396 12.011 -0.000701155 0.00282276 0.00350465 
C 8.85589 22.574 34.1735 12.011 0.00196904 -0.00489922 -0.0038586 
C 35.228 21.929 0.569384 12.011 0.00498594 -0.00506008 -0.00414056 
C 4.22969 16.4928 47.2848 12.011 -0.00110897 -0.00146652 0.00146611 
C 30.2569 23.1285 5.05886 12.011 0.00224422 0.00943244 -0.00449871 
C 40.1306 24.9511 3.21997 12.011 -0.00685867 -0.00142926 0.00433803 
C 50.2607 2.44731 39.7688 12.011 -0.000352982 -0.00100808 0.00147165 
C 47.0961 25.0155 45.0925 12.011 0.00395417 0.00216499 0.0102644 
C 31.9458 17.4316 1.95237 12.011 -0.00134671 0.00302973 0.00762718 
C 28.5795 44.3066 47.7791 12.011 0.00645985 0.00252204 0.00035626 
C 24.6959 10.6679 40.2536 12.011 -0.00329683 0.00784347 -0.000243058 
C 38.8104 19.9766 40.9734 12.011 0.0132941 0.00828627 0.00148759 
C 21.8026 45.3597 46.5281 12.011 0.00240138 0.00101229 0.00296992 
C 16.638 46.7542 35.2219 12.011 -0.0051491 0.00495696 0.000149834 
C 33.8377 10.8015 10.6564 12.011 0.00384307 0.00691514 -0.00136189 
C 23.3666 4.02204 45.5798 12.011 0.00280981 0.00674565 0.000725391 
C 31.9578 37.808 39.1937 12.011 -0.00364952 -0.00199286 0.00275207 
C 27.9928 41.3439 4.21068 12.011 -0.000539012 0.00181806 0.000242981 
C 20.8626 32.8139 30.5014 12.011 -0.00234383 -0.000994459 -0.00451063 
C 14.6564 0.678225 41.9604 12.011 -0.00639699 -0.00899477 0.00554777 
C 9.1904 17.0836 48.1169 12.011 -0.0137241 -0.00341886 0.000883768 
C 14.8679 23.4719 3.91667 12.011 -0.00422782 -0.00640237 -0.00127283 
C 23.0798 15.5904 20.6604 12.011 -0.00644071 -0.00728649 -0.00313651 
C 30.7518 50.6955 45.4813 12.011 -0.00633914 0.00435652 0.00436145 
C 32.2798 30.034 4.5304 12.011 0.00642007 0.00544843 0.00436484 
C 7.20931 44.5558 27.1057 12.011 0.00339474 -0.00471531 0.00754533 
C 11.1906 29.4122 15.0792 12.011 -0.00350291 -0.00094555 0.0040612 
C 3.78725 24.0067 5.54712 12.011 0.00319492 0.00244623 -0.00123823 
C 0.747566 45.5437 17.6473 12.011 -0.00272093 -0.00203735 -0.00587768 
C 12.6152 38.2271 22.8468 12.011 0.00195055 0.00101938 -0.0042169 
C 33.6526 36.7196 37.7148 12.011 -0.0109952 0.00977385 0.00593132 
C 18.2751 47.4502 21.7706 12.011 0.0152301 0.00454337 0.00346677 
C 14.9662 18.5976 11.238 12.011 0.00478904 -0.00952164 0.000610984 
C 36.5927 19.9293 42.1609 12.011 -0.000485892 -0.000106413 0.00406968 
C 9.46566 4.53326 8.72676 12.011 0.00272033 0.00138765 0.0066025 
C 26.977 14.9835 16.2321 12.011 0.00333695 0.00459432 -0.000422032 
C 46.4667 44.0514 48.8982 12.011 0.00179765 0.0093695 0.0016008 
C 42.0683 33.4732 34.9081 12.011 -0.00282806 -0.00329036 0.00373907 
C 42.3145 2.23328 36.2622 12.011 -0.00484029 -0.00629022 0.00404427 
C 30.4246 6.00975 23.1055 12.011 -3.73957e-05 -0.00101379 -0.00362656 
C 10.4418 33.7386 37.6118 12.011 -0.00319455 -0.000370885 -0.000775817 
C 38.6517 20.1706 43.4518 12.011 0.000831661 -0.00396939 -0.00399788 
C 21.6058 7.72877 46.619 12.011 -0.00829702 0.0109024 0.00139486 
C 12.2265 40.5587 11.8399 12.011 -0.00296167 2.78323e-05 -0.00380721 
C 34.6743 50.0384 43.5115 12.011 0.0029671 -0.0033921 -0.00495576 
C 33.9016 51.0111 42.6649 12.011 -0.00364905 -0.00425322 0.00721634 
C 11.499 9.50788 39.0313 12.011 -0.00180726 -0.000511165 0.00200652 
C 46.5815 20.4998 31.5225 12.011 0.00136824 -0.0017921 -0.00424075 
C 5.3974 49.0807 20.4988 12.011 0.00160025 0.00664517 0.00138208 
C 28.4192 48.7934 0.198125 12.011 0.00127342 -0.00835667 0.00229984 
C 14.2597 50.3716 11.7858 12.011 0.00140324 -0.00615517 -0.00412833 
C 33.4831 30.4775 12.3388 12.011 0.00826965 0.00728088 0.00507845 
C 33.1655 4.04991 24.6072 12.011 -0.00181913 3.05195e-05 0.000597917 
C 23.817 1.62541 10.787 12.011 -0.0013532 0.00231391 -0.00271104 
C 14.0985 6.16124 17.0387 12.011 -0.0020452 -0.00233635 0.002817 
C 10.8469 10.8657 8.1563 12.011 -0.00172036 0.00669884 -0.000909453 
C 11.2552 21.1521 47.1188 12.011 -0.00108623 0.00342875 0.0120206 
C 17.1793 7.15805 34.3038 12.011 0.00219727 -0.00728044 0.00532672 
C 29.6442 28.6708 18.1508 12.011 -0.00506465 -0.00269299 -0.0044111 
C 47.4764 29.5442 1.19856 12.011 0.000244566 -0.00336094 0.0070747 
C 31.6136 34.1659 33.4573 12.011 -0.00134909 -0.00533085 -0.0114726 
C 26.4646 15.5337 7.35887 12.011 -0.00175488 0.00262098 0.00537397 
C 29.7838 14.8396 9.05165 12.011 -0.00254673 0.00158292 -0.00188325 
C 43.665 38.6645 50.892 12.011 0.00270507 -0.00112143 -0.00536325 
C 38.7632 17.2993 28.573 12.011 0.00106853 0.000469486 -0.00735146 
C 22.4357 25.319 31.5715 12.011 0.00252503 -0.00332669 -0.00470497 
C 5.33333 40.4354 40.3364 12.011 0.00120061 -0.00202625 -0.00357625 
C 11.7387 41.3743 37.6833 12.011 -0.00848915 0.00911083 0.00578223 
C 47.3844 26.5122 0.783725 12.011 0.00142373 -0.00092859 -0.00164864 
C 21.848 41.9533 43.8566 12.011 -0.00159068 -0.00416457 0.00269937 
C 27.7822 43.6442 11.6379 12.011 -0.00300412 0.0120399 -0.00264513 
C 9.30586 1.85677 46.934 12.011 -0.00771476 0.00384645 0.0102382 
C 31.9051 48.8367 39.87 12.011 -0.00418917 0.000913298 -0.0010808 
C 36.0036 6.99006 42.7353 12.011 0.0112715 0.000442867 0.00710271 
C 2.11163 47.335 20.767 12.011 0.00440969 -0.00427959 -0.00203563 
C 23.3013 9.00146 44.5129 12.011 -0.00210792 -0.00303245 -0.00463649 
C 16.3356 29.0663 25.0167 12.011 0.0109536 -0.0019553 -0.000586628 
C 8.11631 36.5478 23.2562 12.011 -0.00297848 -0.00115885 0.00394296 
C 12.5436 45.8849 10.1851 12.011 0.00109262 -0.00261822 0.00547973 
C 1.68747 18.4731 25.429 12.011 -0.00485829 -0.003058 0.00299512 
C 40.2572 11.3557 48.9928 12.011 2.73342e-05 -0.00163904 0.00254447 
C 11.636 16.2227 47.4682 12.011 -0.000114269 0.00192375 -0.00755829 
C 26.0043 36.1223 13.4675 12.011 0.000882914 -0.00286239 0.00260116 
C 36.152 5.25322 20.7785 12.011 -0.0044188 -0.00205276 0.00851897 
C 14.8389 45.4919 7.20107 12.011 0.000750463 -0.00428039 -0.00500886 
C 27.1198 45.6718 33.691 12.011 0.00367974 -0.00204846 0.00225809 
C 25.3122 21.9026 15.5093 12.011 -0.00177975 -0.0065214 0.00116796 
C 26.7385 32.2505 18.3659 12.011 0.000876093 -0.00726154 0.0019287 
C 30.1646 44.1611 2.8776 12.011 -0.00227336 0.000213545 -0.00686571 
C 0.10337 22.9327 13.6727 12.011 -5.84191e-05 0.000184471 -0.00431671 
C 21.1803 46.5301 16.3256 12.011 0.00138042 -0.000376657 0.00422887 
C 11.095 4.04834 26.8724 12.011 -0.00350335 -0.00721113 -0.00155349 
C 21.8474 4.30755 5.26902 12.011 -0.00234801 0.0024746 -0.00393589 
C 3.03959 45.2664 32.2907 12.011 -0.00436419 0.0013658 0.00578354 
C 43.6502 11.0975 15.0112 12.011 0.000206885 0.00675607 -0.00563757 
C 37.3824 29.0126 42.3555 12.011 -0.00120626 -0.00483051 0.013282 
C 2.37043 46.1608 15.8443 12.011 0.00173589 0.000455487 0.000641848 
C 10.035 42.6966 47.2166 12.011 0.00207014 -0.00658675 -0.0022248 
C 26.9084 26.4221 50.946 12.011 -0.00517807 -0.00426285 -0.00290845 
C 34.8578 39.0925 48.4439 12.011 0.00287471 -0.000606414 0.00323269 
C 14.6413 37.9851 24.349 12.011 -0.00477861 -0.00133096 0.00564949 
C 5.48722 12.9097 3.28526 12.011 -5.36422e-05 0.00442896 0.00390304 
C 31.1273 22.944 33.184 12.011 7.50619e-05 0.000501997 0.00211649 
C 48.3607 15.062 12.287 12.011 -0.00397631 0.00483264 -0.00612652 
C 39.9367 36.5923 45.9338 12.011 0.0028239 0.0141549 -0.00887035 
C 19.393 49.3959 10.8526 12.011 -0.00140165 -0.00421873 0.00536674 
C 22.126 3.03188 13.6034 12.011 0.0091743 0.00702531 -0.00514858 
C 38.3162 7.59101 37.6707 12.011 0.00422602 0.00518934 0.00145489 
C 24.3323 23.8092 1.0858 12.011 -0.0059914 -0.00160945 0.00120125 
C 8.08278 39.045 47.7214 12.011 -0.00508831 0.00400963 0.000465134 
C 36.7459 44.5998 35.6366 12.011 0.00130579 -0.0082351 0.00373313 
C 16.3271 29.1634 40.9508 12.011 -0.00203587 0.00121467 0.00159778 
C 40.8794 36.6205 18.1856 12.011 -0.0035286 0.00112549 0.00237474 
C 48.5815 34.8845 5.64791 12.011 0.000812515 -0.0117631 0.00275429 
C 47.8523 33.0919 32.2459 12.011 0.00397256 0.000534506 0.000497062 
C 36.5222 17.8667 29.5136 12.011 -0.00310907 0.00406261 0.0017699 
C 9.94619 45.1665 46.8735 12.011 0.00423931 -0.0011281 -0.00323109 
C 16.244 31.344 0.767336 12.011 -0.00578554 -0.00846618 -0.00475826 
C 41.9903 29.6471 25.318 12.011 -0.00310214 0.00545803 -0.00415195 
C 27.4628 34.452 28.8768 12.011 0.000204325 0.000407315 -0.00228374 
C 49.2438 16.9623 21.2148 12.011 0.00500321 -0.00438796 0.000179599 
C 37.1158 21.2203 22.9737 12.011 0.00300246 0.00648419 -0.00102073 
C 27.0268 35.1702 13.1319 12.011 -0.00404911 0.00276096 -0.00396095 
C 10.4656 29.4724 4.8961 12.011 -0.00207881 0.000714481 -0.00202431 
C 42.3008 17.554 37.9356 12.011 -0.00644819 0.000791725 0.00609745 
C 33.4547 23.5836 32.3822 12.011 -0.00139555 -0.00723246 0.0027075 
C 22.9311 46.7924 21.7408 12.011 -0.00349276 -0.00497834 -0.00322003 
C 6.77217 5.65753 4.03092 12.011 -0.00957686 -4.08262e-05 0.0038045 
C 22.6319 5.98822 24.5809 12.011 -0.00839106 0.0053259 0.00293054 
C 7.47597 7.53282 35.5363 12.011 0.00195083 0.00256321 0.00741787 
C 19.6102 18.7783 34.9015 12.011 -0.00469446 0.000903611 -0.00362037 
C 3.34314 22.6543 5.69086 12.011 0.000601471 0.00945052 -0.00374167 
C 50.0585 42.998 40.2453 12.011 0.00148343 0.000538291 0.000665767 
C 46.8872 31.1293 13.2034 12.011 0.00802605 -0.00441309 -0.000480556 
C 42.9645 31.4615 10.5598 12.011 0.0040021 -0.00634792 -0.000819615 
C 41.8692 18.7623 37.274 12.011 0.00164466 0.00327479 0.00282437 
C 10.4792 33.2452 15.6579 12.011 -0.00719179 0.000189275 0.0030038 
C 50.9897 28.5335 35.0259 12.011 0.000143445 0.0063549 0.00134656 
C 43.6164 49.3243 6.09657 12.011 0.00311583 -0.00603951 0.00197328 
C 13.3948 37.5106 9.06551 12.011 0.00614084 0.00532931 0.0105016 
C 13.7309 14.5149 7.32948 12.011 0.000764812 0.00396702 0.00295887 
C 24.8938 35.5989 14.1923 12.011 -0.0115344 0.00367217 0.000169027 
C 16.0968 30.4618 50.6692 12.011 0.00196646 0.00423001 -0.002087 
C 42.2349 20.3751 35.4977 12.011 -0.013612 -0.00114082 0.00667056 
C 50.6165 37.2017 2.21342 12.011 -0.000238538 -0.000527184 -0.000449938 
C 13.4801 22.5617 20.2291 12.011 0.00245487 0.000616669 -0.00150853 
C 0.0149211 39.4546 1.18693 12.011 -7.47024e-05 0.00457797 -0.00335212 
C 25.0188 31.1459 22.1088 12.011 0.00148824 0.00566629 0.00355899 
C 26.5403 33.872 12.8705 12.011 0.00564582 0.000657818 0.00390127 
C 11.2432 8.34756 22.9573 12.011 -0.00125262 0.00627372 -0.000506114 
C 1.33797 3.23064 21.3758 12.011 0.00991983 -0.00519309 0.0053777 
C 30.8372 16.7182 27.1639 12.011 -0.00154882 0.000329184 0.00118121 
C 1.82159 47.0008 3.59542 12.011 -0.00375695 0.00250591 0.00236836 
C 36.9681 33.1358 31.8292 12.011 -0.00420071 0.000275729 0.000717209 
C 46.833 41.4435 48.42 12.011 0.00311502 -0.00115991 0.00281895 
C 23.3139 22.7802 32.4198 12.011 0.00287413 -0.00688723 0.00476316 
C 24.1171 24.1158 28.6706 12.011 -0.00675005 -0.00299183 3.51609e-05 
C 36.9163 35.743 3.33492 12.011 0.000227968 -0.00291351 -0.0019434 
C 32.2462 18.7546 40.9465 12.011 -0.000869414 0.00728325 0.000932078 
C 48.0813 2.53094 12.3504 12.011 0.00234419 0.000870336 0.00655778 
C 19.3251 6.23875 27.1222 12.011 0.00159849 0.00353738 -0.00776893 
C 43.5285 8.45935 12.2972 12.011 -0.00104339 0.000474065 0.00535837 
C 35.3588 43.4159 27.0186 12.011 -0.00623975 -0.00395724 -0.00377184 
C 13.2612 43.6236 10.0129 12.011 -0.000740069 -0.00523538 0.00162209 
C 39.4292 45.3314 17.0984 12.011 -0.00458767 0.000172001 -0.00386443 
C 5.4407 16.7754 22.9457 12.011 -0.000828358 -0.00184295 0.00638202 
C 30.1013 50.5581 46.7192 12.011 0.00132328 0.00132546 -0.00105348 
C 50.2731 8.27515 23.5809 12.011 -0.00241813 -0.00490085 9.95985e-05 
C 42.8466 47.3496 40.2404 12.011 -0.00144208 0.00392608 0.00106599 
C 18.3148 38.7195 20.8058 12.011 -0.00493356 -0.001755 -0.0018787 
C 32.0344 23.4928 35.8128 12.011 0.00277099 0.00164815 -5.42207e-05 
C 44.229 36.4048 21.1091 12.011 -0.00332076 0.00731168 -0.000942613 
C 1.69098 47.9483 21.9909 12.011 -0.00292789 -0.00454073 -0.00283944 
C 24.9558 16.34 35.5027 12.011 -0.00177657 -0.000169612 -0.00420466 
C 43.5354 7.9616 37.8917 12.011 -0.00669898 0.000847382 -0.000823045 
C 21.8246 40.2396 26.5631 12.011 -0.00545025 0.000146421 0.000834666 
C 31.5562 0.932598 39.4196 12.011 0.00188621 0.0017671 0.00536387 
C 40.4887 43.6552 48.9916 12.011 -0.00904157 -0.00354194 -0.00452843 
C 41.9719 3.67741 45.6395 12.011 0.00401827 -0.00866233 -0.00428762 
C 50.252 32.0619 40.1382 12.011 0.00342335 -0.00691201 -0.00147989 
C 47.0565 34.8341 30.8042 12.011 0.00393061 0.00342053 0.00115145 
C 10.1082 24.8871 36.8434 12.011 -0.00194978 0.00454956 -0.00181714 
C 39.0391 21.7551 45.3665 12.011 0.00290584 -0.00267052 0.00407587 
C 43.9045 37.8128 7.58452 12.011 -0.00652846 0.0069503 -0.0027561 
C 3.67422 25.7384 46.3651 12.011 -0.00440261 -0.0041734 -0.00625871 
C 4.47018 17.5313 28.2917 12.011 0.00786245 -0.00571962 0.00147809 
C 40.5298 16.0257 29.8035 12.011 -0.00283522 0.00305013 0.00378386 
C 22.7517 41.307 41.3001 12.011 -0.00218159 0.000253988 -0.00784447 
C 39.6139 50.448 17.7482 12.011 -0.00506755 -0.0025319 -0.00125795 
C 30.5679 15.3072 0.112985 12.011 3.82638e-07 -0.000772079 0.00309247 
C 41.6914 6.9595 18.8842 12.011 -0.000443677 -0.000507321 0.00153235 
C 29.5333 1.57971 49.7083 12.011 -0.00368511 -0.00201135 0.0077758 
C 41.7522 50.1221 42.1785 12.011 0.00111979 0.000410599 -0.00347114 
C 7.94654 27.333 40.876 12.011 0.00339331 0.00370524 0.00480455 
C 43.0446 25.2779 29.8014 12.011 0.0111332 -0.000756048 0.00310519 
C 49.8117 7.58056 3.16933 12.011 -0.0076215 0.00500829 0.00600329 
C 41.7491 31.476 32.1989 12.011 -0.00635813 -0.00155929 0.00359748 
C 34.1656 4.10743 36.4581 12.011 0.00283298 -0.00134387 0.00401457 
C 42.609 22.2802 2.80454 12.011 -0.00150965 -0.00378155 -0.00609483 
C 41.9428 44.768 50.713 12.011 0.00529993 0.00665742 0.00124965 
C 21.8352 31.943 17.4327 12.011 -0.00394698 0.00524027 -8.29972e-05 
C 11.6344 29.3994 33.7598 12.011 0.00148508 -0.00568287 0.000921779 
C 6.24945 26.4298 37.6639 12.011 -0.00482821 0.00331515 -0.00313416 
C 45.6254 16.1917 19.3187 12.011 0.00274347 -0.00101144 0.00812176 
C 44.9255 15.2485 10.8446 12.011 0.00298587 -0.00585917 0.00169111 
C 13.4399 5.47378 26.8681 12.011 0.0012355 -0.00763337 -0.00504626 
C 18.0347 18.43 38.4223 12.011 -0.00333051 0.00164578 -0.00326137 
C 50.0384 30.9644 41.1127 12.011 0.000320639 0.00140117 -0.00708591 
C 50.0437 41.4491 2.17763 12.011 -0.00161456 0.000129472 0.0049339 
C 27.3169 44.6652 28.816 12.011 -0.0023612 -0.00452901 0.00355483 
C 50.4508 43.7802 27.1908 12.011 0.0117677 0.00243627 -0.00131781 
C 42.531 48.2628 39.1304 12.011 0.00334696 -0.00878678 0.00297604 
C 25.7083 38.9381 47.0619 12.011 0.00594503 0.000587582 0.0026042 
C 20.0302 9.34668 33.3141 12.011 0.00389986 0.00469588 -0.00161727 
C 9.8103 47.6702 46.4165 12.011 0.00422613 -0.00417442 0.004609 
C 29.0914 5.01682 25.4398 12.011 0.00140346 -0.00224427 -0.00953153 
C 12.0846 43.3733 14.8686 12.011 -0.00480133 -0.00465797 0.00411917 
C 35.8181 24.3365 31.8129 12.011 0.000144185 0.00782171 -0.0107904 
C 37.3133 36.7659 16.7201 12.011 0.000549103 0.000929121 0.00278539 
C 41.6969 13.5443 1.36413 12.011 0.00354424 -0.000311991 -0.00532073 
C 33.3727 7.60107 21.1585 12.011 -0.00627617 0.00226615 -0.000909306 
C 7.6661 11.7779 49.7702 12.011 -0.000387718 0.00312286 0.000475313 
C 43.3763 46.3074 26.8867 12.011 0.00188944 -0.00393907 -0.00197528 
C 37.6024 32.299 15.3945 12.011 0.00761578 -0.00544761 0.00667408 
C 4.63959 38.7121 18.4941 12.011 -0.000962208 -0.00398441 -0.00051305 
C 16.8958 29.7053 42.0742 12.011 -0.00208068 0.00463086 -0.000526108 
C 20.8822 13.5101 11.6112 12.011 -0.00149741 0.00663509 -0.00340687 
C 10.4575 25.9668 34.6365 12.011 -0.00332405 0.0039221 -0.00214277 
C 20.6466 21.2818 49.401 12.011 -0.00933759 0.00251776 0.0036414 
C 37.4328 4.63507 10.5674 12.011 -0.00195134 -0.00537737 -0.00114131 
C 3.9612 17.6059 35.7844 12.011 0.0008935 0.00202542 -0.00183253 
C 38.3735 3.95184 1.42677 12.011 -0.00665117 -0.00238924 0.00114122 
C 48.1826 19.0742 30.1621 12.011 0.00038624 0.00327796 -0.00233417 
C 39.8659 25.0776 7.93105 12.011 -0.000136783 -0.00815536 0.00713887 
C 33.9931 11.2037 20.0996 12.011 0.00095913 -0.000487618 -0.00988287 
C 33.8699 44.9418 2.52568 12.011 0.00953907 0.00698902 -0.00249881 
C 0.44943 24.549 49.7494 12.011 0.000707415 0.00182002 0.00122168 
C 43.1817 40.4199 37.8453 12.011 -0.00327449 0.0019959 -0.000840436 
C 25.6447 18.4227 36.5183 12.011 -0.00325804 -0.000609626 -0.00221267 
C 37.9415 44.6199 34.7826 12.011 0.00203118 -0.0063783 -0.00128607 
C 16.098 33.068 3.02223 12.011 -0.00199215 -0.00653283 -0.000160503 
C 17.382 23.2205 23.4789 12.011 0.00225668 0.011823 -0.00278917 
C 22.9329 36.6433 48.5114 12.011 0.00429109 -0.00175348 0.000676459 
C 24.3385 16.5716 22.442 12.011 0.00147386 -0.000483437 -0.00088899 
C 13.152 47.3413 8.34093 12.011 -0.00148676 0.000730137 -0.00497662 
C 31.5118 14.7504 11.0004 12.011 0.000112906 0.00490599 0.000421476 
C 25.8365 29.6656 43.4957 12.011 0.000711462 -0.00661934 -0.00327899 
C 7.31372 7.86489 38.48 12.011 -0.00654106 -0.00351036 -0.000439304 
C 45.7091 19.1802 46.7272 12.011 -0.00156488 0.000321735 0.00528428 
C 8.32572 23.4275 10.7827 12.011 -0.0108344 -0.00370375 0.00162369 
C 21.6425 24.0099 40.7773 12.011 0.000116428 -0.00246828 -0.00694072 
C 12.2351 11.0786 8.28393 12.011 0.00279359 0.00168696 0.0035636 
C 45.4644 40.9424 33.7902 12.011 0.00941305 0.00129222 0.00384309 
C 50.771 30.3924 38.3128 12.011 -0.0008201 -0.00186529 0.0017548 
C 27.8873 12.4413 36.9571 12.011 0.00493079 -0.00552359 -0.000197437 
C 48.2515 34.1084 49.945 12.011 -0.000664861 -0.000872539 0.00263376 
C 48.2077 43.9462 17.0348 12.011 0.000425388 0.00210955 -0.00162335 
C 28.8333 47.3495 34.2488 12.011 -0.00382062 0.00504812 0.000699772 
C 1.04408 42.556 50.2674 12.011 -0.00691536 0.00669802 -0.00249983 
C 14.428 49.4971 12.8236 12.011 0.000755752 -0.000313975 -0.000334601 
C 38.3838 35.8507 9.5658 12.011 0.00235755 0.000248263 0.00109179 
C 11.854 1.17738 41.1294 12.011 -0.00235667 -0.00149287 0.00526184 
C 36.075 7.74293 41.5449 12.011 -0.000450231 -0.00387831 0.000456118 
C 41.8392 0.769551 28.7469 12.011 -0.0025992 -0.00422958 0.00628794 
C 50.7105 20.4212 37.373 12.011 -0.00824286 0.00339994 0.00575838 
C 7.31883 7.01114 3.79807 12.011 -0.00188229 0.00419939 -0.000903087 
C 26.812 47.9081 6.7519 12.011 0.00374509 0.000718836 0.00353366 
C 36.1973 10.8756 5.38968 12.011 -0.000347189 0.00933652 -0.00540306 
C 30.6844 37.1737 18.1482 12.011 0.00559711 0.00632488 0.00545052 
C 2.43604 3.11519 46.1664 12.011 0.0018431 -0.00197451 -0.000433474 
C 20.402 41.0259 24.6384 12.011 -0.00113552 -0.00922696 -0.00810312 
C 46.271 43.3312 10.361 12.011 -0.00460293 -0.00326187 -0.000784677 
C 43.508 9.74596 30.0038 12.011 0.000553656 -0.00438087 0.00452656 
C 36.8714 13.2704 40.2154 12.011 0.00290844 0.00577896 -0.00139912 
C 31.5968 34.3418 29.5272 12.011 -0.00135412 -0.00296805 -0.000337296 
C 10.1476 33.4727 40.3389 12.011 -0.000557679 0.000351528 0.00282087 
C 26.2382 49.9256 42.6366 12.011 0.00667096 0.000596772 0.002846 
C 4.05831 13.3598 40.1942 12.011 0.00515897 0.00474687 0.00490202 
C 36.7234 23.5304 2.75583 12.011 0.00117297 -0.000552261 0.00079415 
C 15.0321 6.63508 46.5044 12.011 -0.00108879 3.82465e-05 -0.00147123 
C 12.0911 3.35336 35.4435 12.011 -0.00287312 0.00582183 0.00623752 
C 2.04537 40.8086 41.2744 12.011 0.00107273 0.000227011 0.00929612 
C 24.1028 23.1904 50.8531 12.011 -0.00193512 0.00370328 0.00255873 
C 6.50475 43.3213 36.201 12.011 0.000103643 0.00632117 -0.00212422 
C 33.7018 12.9532 28.6571 12.011 -0.00127802 -0.00431218 -0.00629241 
C 19.9977 20.5606 24.2368 12.011 0.00695095 0.00778129 0.00107628 
C 26.1103 37.4571 13.0663 12.011 -0.000995862 -0.0022607 0.00914885 
C 44.9178 12.8755 8.00461 12.011 -0.000968857 0.000161206 -7.93011e-05 
C 21.7693 49.6773 50.1314 12.011 -0.00503756 0.00229172 0.00358871 
C 44.534 50.41 33.7476 12.011 -0.00500437 -0.00599025 0.00102273 
C 18.202 15.235 27.8809 12.011 0.00766245 0.000690961 0.00475226 
C 49.878 40.5376 23.1036 12.011 -0.00319211 -0.00495372 -0.00294561 
C 20.6253 6.35462 27.6715 12.011 -0.00208496 0.00061763 -0.00314384 
C 27.3826 21.2632 38.6625 12.011 0.00477089 -0.0038219 0.0065519 
C 22.8686 20.6391 4.39163 12.011 0.00343474 -0.00321258 -0.00861189 
C 33.8511 22.6267 49.6197 12.011 0.00319981 -0.00528725 0.00127711 
C 15.4019 28.2402 43.4552 12.011 0.000815371 -0.00104482 -0.00138971 
C 23.8587 41.3283 40.386 12.011 -0.00448159 0.0040171 -0.0043356 
C 44.1287 18.1332 14.6658 12.011 -0.000238385 -0.00530693 0.00160331 
C 3.01723 46.6175 18.1528 12.011 0.00158634 -0.00614202 -0.00057396 
C 38.4176 25.744 46.4471 12.011 0.00239428 0.0026469 0.00730776 
C 47.7863 42.2755 45.9356 12.011 -0.000859058 -0.00226449 -0.00712279 
C 38.7265 12.2161 20.9969 12.011 -0.00864318 -0.00651825 0.000984678 
C 41.8519 13.4664 46.0786 12.011 0.000770098 0.000366863 0.00483366 
C 10.3517 25.7945 31.8104 12.011 -0.00107252 -0.000180765 -0.00222933 
C 33.4129 7.08074 9.57773 12.011 -0.00107873 0.00566663 -0.00024311 
C 26.986 34.4968 31.2531 12.011 -0.00349862 0.00059413 -0.003733 
C 37.1418 14.7436 24.6341 12.011 3.78879e-05 -0.000313315 0.00154966 
C 16.2793 42.1505 6.375 12.011 -0.00104293 -0.0038452 0.00611339 
C 3.25447 11.9789 28.9971 12.011 0.00291063 -0.00287176 -0.000867474 
C 6.96633 36.322 22.3569 12.011 -0.00224108 0.00455326 -0.000442554 
C 12.7028 11.1615 27.6288 12.011 -0.00527347 -0.000168772 -0.00268455 
C 2.55064 19.7564 1.60965 12.011 0.00555742 0.00165952 -0.000829282 
C 41.1272 21.2117 35.9231 12.011 -0.00577227 -0.00201293 0.00839597 
C 49.5522 0.637462 35.3825 12.011 -0.00342372 -0.00288912 -0.00236836 
C 35.3843 40.5578 50.3385 12.011 -0.00134996 0.00064682 0.00115017 
C 20.4157 14.2374 18.4939 12.011 0.00223549 0.00513482 -0.00279556 
C 18.1293 18.6202 41.2649 12.011 -0.00206264 -0.00522907 0.00224999 
C 3.76277 15.6411 26.0048 12.011 0.00670479 -0.00222459 -0.000350432 
C 11.0569 47.5216 45.6403 12.011 -0.00600135 0.00348478 -9.11182e-05 
C 32.0245 28.208 18.0166 12.011 0.00148014 -0.00404933 0.00747736 
C 44.1902 36.8063 12.7446 12.011 -0.000222052 0.00110529 -0.00791551 
C 13.5076 1.78907 2.25459 12.011 0.00200457 0.00506629 -0.00147182 
C 47.4412 46.8342 35.7306 12.011 -0.00300883 0.00531707 -0.00192764 
C 11.4065 35.7253 34.8279 12.011 -0.0050012 -0.00832676 0.00647257 
C 15.7692 8.26613 16.3375 12.011 -0.00821911 0.00108576 0.00241896 
C 34.6252 22.8269 1.4578 12.011 -0.00261902 -0.0110663 0.00139601 
C 42.5573 6.92781 19.9752 12.011 -0.00658286 0.00120948 -0.00476321 
C 16.7376 39.5924 31.1395 12.011 -0.00466069 -0.000519926 -0.00295337 
C 28.6432 15.3252 40.8717 12.011 0.00352192 -0.00213822 0.00599982 
C 33.5557 28.387 8.80798 12.011 -0.000380942 0.00373008 0.00240824 
C 33.427 13.3761 1.95276 12.011 0.0013581 0.000935671 -0.00243652 
C 4.36158 1.76592 36.672 12.011 0.00516756 -0.0026165 -0.00670369 
C 20.9948 43.5585 36.1237 12.011 -0.00653211 0.00198502 -0.0135067 
C 37.391 30.2336 42.9948 12.011 0.00253928 -0.00845255 0.00320518 
C 8.29122 13.7059 22.1213 12.011 0.00132799 -0.00850366 -0.00252088 
C 0.614012 17.9393 40.0622 12.011 0.0019032 0.0030327 0.000445054 
C 0.439098 27.8068 34.0189 12.011 0.0103783 0.00721805 0.00504835 
C 4.63514 11.5167 41.8471 12.011 -0.00473635 -0.00199846 -0.00675172 
C 30.0786 43.1867 46.186 12.011 -0.00911229 0.00609134 -0.00373492 
C 48.3723 47.633 1.20853 12.011 0.00348988 0.00538309 -0.0064245 
C 28.1341 43.8857 40.2541 12.011 -0.00363887 -0.00447283 0.00103081 
C 41.381 17.7161 44.2829 12.011 -0.00148049 0.00255003 0.000265395 
C 37.1234 6.76516 5.97002 12.011 -0.000476658 0.00649475 -0.000194944 
C 8.16887 16.4314 48.8465 12.011 -0.00493418 0.00409367 -0.000480021 
C 21.1718 24.9312 35.9802 12.011 -0.0069242 -0.00409436 -0.00775986 
C 47.2138 7.6111 47.8486 12.011 -0.00413854 -0.00170236 0.0112337 
C 9.53833 17.3081 33.4223 12.011 -0.0109008 -0.00664168 -0.00605494 
C 31.796 20.1612 3.11889 12.011 -0.0054224 0.00629533 -0.00575284 
C 41.4324 14.4358 51.0187 12.011 -0.00543046 -0.0041537 0.0112982 
C 34.9534 21.3389 5.75574 12.011 0.0090836 -0.00394199 0.00213649 
C 9.67672 28.445 42.7755 12.011 -0.00205492 -0.0017104 -0.00296261 
C 10.1287 34.5995 11.0986 12.011 0.0109552 0.00968625 0.000331382 
C 12.2973 20.5733 27.2351 12.011 0.00119615 0.00327975 0.00260437 
C 0.67652 35.2587 1.08473 12.011 0.00292431 0.000615415 -0.00483002 
C 7.45997 14.4375 3.13918 12.011 0.000102985 -0.0011579 -0.00346601 
C 34.0891 34.6822 8.62919 12.011 -0.00226054 -0.00271885 -0.00450644 
C 19.0773 20.7922 4.25084 12.011 0.00518857 -0.00829151 0.00191003 
C 46.6711 17.5088 41.6044 12.011 -0.00151718 -0.00194019 0.00420125 
C 32.0727 46.2439 20.3361 12.011 -0.000267165 0.000957674 0.00464946 
C 1.14607 10.0468 18.9482 12.011 -0.00024072 0.00130094 -0.00392996 
C 42.8905 0.198588 46.5937 12.011 0.00188815 -0.000777573 0.00211003 
C 49.7009 48.0283 32.5161 12.011 0.00150803 0.0054964 -0.000651078 
C 9.69613 2.19533 30.4027 12.011 0.00414776 -0.00437561 0.000810539 
C 19.6192 48.0139 49.9759 12.011 0.000152867 0.00703843 0.00527309 
C 41.3653 46.1268 15.8243 12.011 -0.00651739 0.00517107 -0.00775915 
C 43.5922 28.5013 34.0929 12.011 0.000864948 0.00140616 0.00511196 
C 9.12424 20.7291 15.01 12.011 -0.0058482 0.00112416 -0.00315073 
C 28.0683 10.4095 18.8245 12.011 -0.0046563 -0.00677101 0.00227645 
C 47.1651 9.30711 49.665 12.011 0.00346572 -0.00567863 0.000717315 
C 36.2558 45.5105 3.01205 12.011 -0.00366099 0.000695237 0.00398166 
C 4.97847 0.987565 34.5575 12.011 -0.00417415 -0.00616859 0.00475229 
C 21.2127 41.1397 31.3695 12.011 -0.00594102 -0.00207739 0.00497364 
C 27.4663 29.354 2.05403 12.011 -0.00411849 -0.00278256 0.00435041 
C 23.4424 22.3342 20.0553 12.011 -0.00552628 0.00331586 0.00528249 
C 4.42799 28.6214 3.99499 12.011 0.00350555 0.00132012 -0.000172865 
C 28.7751 48.4892 1.61965 12.011 0.00359128 -0.000556616 -0.00317796 
C 42.4973 28.2438 27.3306 12.011 -0.00626764 0.00187241 -0.00195152 
C 0.338926 9.44895 3.26035 12.011 0.00570958 -0.00442914 -0.00574533 
C 29.5144 40.08 24.4009 12.011 -0.00975432 -0.00141401 -0.000664849 
C 26.549 41.085 48.2758 12.011 0.00219192 0.00188586 -0.000812971 
C 5.41561 19.9385 44.1263 12.011 -0.0037502 -0.00300979 -0.00500037 
C 47.8552 5.08408 0.347924 12.011 0.0018637 -0.00496824 0.000483211 
C 48.4031 24.072 5.62973 12.011 -0.00659914 0.00403158 0.00164215 
C 36.4673 4.99777 46.3328 12.011 0.000285721 0.000494658 -0.00934878 
C 12.3485 8.56882 8.0574 12.011 -0.009581 0.00240186 -0.0110348 
C 34.4495 8.06376 33.0155 12.011 -0.00245878 0.00256081 0.00315978 
C 41.1261 6.83346 47.2542 12.011 0.000785801 0.00607891 0.000437196 
C 46.4694 44.9011 28.4321 12.011 -0.00731566 0.00469493 -0.00121279 
C 16.0577 37.9104 24.408 12.011 0.00687758 -0.00937036 -0.00743969 
C 35.2863 7.79183 0.121511 12.011 -0.0031771 0.00793727 -0.00155448 
C 19.9681 15.3287 50.3887 12.011 -0.00482013 0.000279967 -0.00599011 
C 26.0299 42.4453 39.8651 12.011 -0.000501347 0.0102542 0.000578246 
C 41.8201 40.3308 3.06805 12.011 -0.0124653 0.000796301 -0.00478178 
C 12.0121 3.66528 32.987 12.011 0.00192681 0.00187383 0.0029817 
C 24.9973 48.402 10.6436 12.011 0.005865 0.00264624 0.00926956 
C 33.0684 24.509 26.0654 12.011 0.00356112 -0.00250324 0.00061222 
C 47.9151 0.997859 1.06783 12.011 -0.0024841 -0.00160936 -0.00809276 
C 45.6731 41.6697 50.6419 12.011 0.00331203 -0.00184933 -0.00694701 
C 23.2067 36.1755 46.2016 12.011 -0.00515514 0.000168587 -0.00281317 
C 13.2059 48.2359 14.7377 12.011 -0.00154214 0.0052626 0.00175409 
C 12.2473 1.08238 2.13129 12.011 -0.00639463 -0.00596095 -0.00264221 
C 10.2512 9.53495 8.28167 12.011 -0.000505634 -0.00637839 0.00213161 
C 4.39091 4.31396 4.08189 12.011 -0.00480445 -0.00667752 0.00278565 
C 47.3122 33.0552 6.87282 12.011 -0.00250207 -0.00710063 -0.000401009 
C 26.106 13.0473 17.4142 12.011 0.00282458 0.00755746 0.00401119 
C 10.135 20.8437 14.0456 12.011 -0.000651083 -0.00879632 -0.0130324 
C 49.6692 39.182 3.35402 12.011 -0.00328399 -0.00406227 -0.00765466 
C 44.3546 15.559 4.35188 12.011 -0.00107447 -0.0042296 0.00257617 
C 2.27994 26.5141 39.1621 12.011 0.00882446 -0.00351513 -0.0018814 
C 20.8958 20.9076 35.1445 12.011 -0.00107197 -0.0037612 0.00108436 
C 45.7729 4.01677 31.1327 12.011 -0.00232504 -0.00987538 -0.00536511 
C 15.3724 50.7108 10.9586 12.011 -0.00425803 -0.00790556 -0.000574794 
C 47.2734 36.6469 42.9807 12.011 0.00120403 -0.00343991 0.00461367 
C 7.33356 15.9209 8.52375 12.011 -0.00214881 -0.00114165 0.00508348 
C 31.2662 46.2398 31.3489 12.011 0.00377563 -0.00282973 0.00383721 
C 47.7632 0.910692 32.1776 12.011 0.00691069 -0.00134969 -0.00871738 
C 46.0432 19.248 5.10301 12.011 0.00325521 -0.000892187 0.00574757 
C 40.2632 49.5929 31.2032 12.011 0.00332322 -0.00121291 -0.00196641 
C 24.3654 19.137 25.1346 12.011 -0.000709665 0.000716326 0.00501613 
C 2.35209 19.9938 6.06653 12.011 0.00557001 0.00541252 0.0089705 
C 47.1761 39.6076 34.847 12.011 -0.000326172 0.00678131 0.00266483 
C 50.268 37.0312 5.79156 12.011 0.00015281 0.00299191 0.00892409 
C 10.6188 37.27 40.0247 12.011 0.0046184 0.0048662 -0.00704005 
C 1.02682 42.3949 39.0388 12.011 0.000195418 -0.00449704 0.00339648 
C 11.4165 37.2108 3.00179 12.011 0.00405057 0.0046281 0.0039105 
C 3.34292 3.67089 23.058 12.011 -0.00370989 -0.0108889 -0.0025588 
C 5.46839 22.1298 29.9425 12.011 -0.0065826 0.00173962 8.2493e-05 
C 41.1462 20.7093 9.3199 12.011 -0.00135132 -0.00376866 -0.00834764 
C 28.9225 6.77484 20.957 12.011 -0.00710154 -0.0133657 -0.00443679 
C 6.48171 44.8455 28.3221 12.011 0.00249685 0.00300037 -0.00590279 
C 10.0576 2.55805 34.1195 12.011 -0.00563559 0.000756871 0.00275491 
C 17.5722 6.80363 44.0548 12.011 0.00166006 0.00150545 -0.000190321 
C 33.2636 23.0322 1.51774 12.011 0.00456081 0.00130485 -0.00239843 
C 26.4799 47.8836 4.2488 12.011 -0.00445636 0.00235368 0.00151973 
C 48.8016 36.0445 40.7549 12.011 0.00116584 0.00240335 0.00662328 
C 11.5965 20.5841 28.5285 12.011 0.00341633 -0.00232349 -0.00265255 
C 22.3224 15.5343 18.3946 12.011 -0.00119737 -0.0039806 0.00824661 
C 0.497946 12.6233 2.50351 12.011 0.00390284 5.98072e-05 -0.00605121 
C 44.0804 21.0379 46.0641 12.011 -0.00516251 -0.0032437 -0.00105577 
C 13.6828 41.1994 9.54386 12.011 -0.0056377 -0.00929326 -0.00294603 
C 17.0472 12.3951 48.4113 12.011 -0.00275328 -0.000138067 0.0046401 
C 4.56799 10.2179 3.74691 12.011 -0.00595242 -0.00194344 0.00744677 
C 38.5638 45.1985 25.2976 12.011 0.00670987 0.00446236 -0.00867617 
C 13.0508 23.8283 12.6011 12.011 -0.000713426 0.00582125 0.00546546 
C 14.3464 24.8213 3.80214 12.011 0.00295283 -0.00915378 -0.000640266 
C 35.7505 28.0619 47.5227 12.011 -0.00341985 0.00298909 -0.00437208 
C 42.5537 12.5151 8.25923 12.011 -0.000676304 0.00236423 -0.000639135 
C 16.0202 40.828 6.706 12.011 0.000704215 -0.000212658 -0.007983 
C 29.3757 23.024 38.9942 12.011 0.00305224 0.00482756 -0.00288828 
C 25.579 23.9005 26.9852 12.011 0.0036796 0.000260109 0.00158241 
C 25.1264 18.05 41.2254 12.011 0.00555014 0.00261025 0.00304654 
C 9.61369 48.7356 14.1792 12.011 0.000962136 0.00388774 -0.0101532 
C 13.0006 12.3349 8.13895 12.011 1.32899e-06 0.00367884 -0.000934619 
C 21.4214 3.92555 35.1717 12.011 0.00747634 0.00044131 0.0032297 
C 19.1517 41.3209 24.0289 12.011 -0.00177332 -0.00152463 -4.60368e-05 
C 36.0091 35.4343 10.1277 12.011 0.00231869 0.00292914 0.00462664 
C 8.84371 36.5481 19.1553 12.011 0.00189465 -0.00158411 0.00226811 
C 46.2992 23.4822 28.6765 12.011 -0.00197934 -0.00780935 0.00218149 
C 32.1438 34.0931 30.9179 12.011 -0.00312974 -0.00716098 -0.00378297 
C 39.7543 32.1516 40.8569 12.011 -0.00177762 0.000656268 -0.00353143 
C 4.98484 17.9834 27.0538 12.011 -0.000200315 0.00500374 0.00347975 
C 25.03 14.4083 33.4651 12.011 0.000124253 0.00432729 -0.00413871 
C 34.4673 25.1716 17.8109 12.011 -0.0025313 -0.00579484 0.00064954 
C 41.8755 36.2365 20.4455 12.011 -0.00274888 0.00525011 0.000459564 
C 5.95604 38.8771 17.9224 12.011 0.00259824 -0.00567963 -0.0042879 
C 46.4208 32.5929 19.7665 12.011 -0.00420461 -0.00834336 0.00143 
C 40.9457 40.2501 43.0592 12.011 0.00823381 0.000751049 0.00352282 
C 20.5733 40.0657 40.9376 12.011 0.0106595 0.00206634 -0.00331139 
C 34.3352 3.43383 24.0867 12.011 0.00107988 0.00860971 -0.00284332 
C 23.4052 34.7731 32.6037 12.011 0.00881265 -0.00601643 0.00551008 
C 19.9838 38.465 2.67123 12.011 -0.00288454 0.00977367 0.00414066 
C 48.8225 15.6537 14.6288 12.011 -0.00434054 -0.00300308 -0.00250538 
C 7.15522 49.1729 19.0452 12.011 -0.00675735 0.00299281 4.99325e-05 
C 31.3696 35.7313 13.1504 12.011 -0.00698628 0.00432121 0.00357245 
C 47.5222 37.1022 18.4359 12.011 0.00171487 0.00342327 0.00209832 
C 31.4615 17.84 30.8053 12.011 -0.00430134 -0.000131988 -0.000735285 
C 48.4192 44.4123 39.0256 12.011 -0.00823582 0.0046585 -0.00241556 
C 0.636638 11.1129 31.2509 12.011 -0.000341724 0.00631161 0.00241278 
C 1.29669 43.8174 8.81155 12.011 -0.000790272 -0.00600809 -5.38845e-05 
C 40.7617 27.1373 28.6494 12.011 0.00225725 9.94556e-05 -0.00624976 
C 49.297 20.6953 37.6063 12.011 -0.00419728 -0.00190502 0.00136564 
C 43.2626 48.1041 37.9429 12.011 0.00547737 -0.00275351 -0.0103224 
C 20.7066 28.5701 7.33124 12.011 -0.00563173 -0.000432469 -0.00871812 
C 48.2781 37.8162 33.6286 12.011 0.011455 -0.00392533 -0.000968209 
C 46.319 22.7455 45.6167 12.011 -0.00291183 0.00380757 0.000171903 
C 17.6418 11.1148 21.1513 12.011 1.25636e-06 0.00390947 0.00307625 
C 43.889 36.0732 22.4464 12.011 0.00280137 -0.00140699 0.000365124 
C 29.1086 46.9857 17.8353 12.011 0.00257889 0.000736543 0.00104998 
C 48.5623 21.6205 36.7971 12.011 -0.00149661 -0.00423286 0.00379417 
C 39.4951 21.7466 37.8229 12.011 -0.00306539 -0.000443625 -0.00205431 
C 16.6637 44.8891 5.60529 12.011 0.000557237 -0.00515564 0.00345817 
C 42.2875 41.3708 35.6242 12.011 0.000965194 0.00567981 0.00724315 
C 24.893 14.5828 46.9214 12.011 0.00950929 -0.0023302 -8.63125e-05 
C 6.38644 34.3474 11.5722 12.011 -0.00375916 0.00145472 -0.00100297 
C 33.5853 15.7152 24.0322 12.011 0.0118473 -0.00301268 0.005839 
C 12.1119 32.4587 8.48568 12.011 0.000293735 0.000556614 -0.000640216 
C 30.5616 44.1485 29.4636 12.011 -0.00443935 0.000247348 0.0025628 
C 27.7348 30.0588 18.199 12.011 -0.00268567 -0.00371403 -0.000511907 
C 22.3671 2.68631 9.13562 12.011 0.00206623 -0.00742991 -0.000316705 
C 17.3874 8.04802 46.4402 12.011 0.001161 -0.00668813 0.00124898 
C 3.69462 22.6849 12.402 12.011 -0.00552645 -0.000402474 0.0012969 
C 43.4168 3.55066 50.1922 12.011 0.00285694 -0.0101788 0.00207816 
C 2.22951 38.1415 18.3256 12.011 0.00042346 -0.00712395 0.003083 
C 22.1216 21.6866 0.361572 12.011 0.0120467 -0.00124731 -0.00167426 
C 3.72108 18.7693 23.8123 12.011 0.00336162 0.00152853 0.00675863 
C 48.03 43.6545 41.4152 12.011 -0.00285845 0.000353822 -0.000334529 
C 42.8549 25.9713 2.81811 12.011 -0.0103454 -0.000581676 -0.00419285 
C 29.204 34.4812 34.1122 12.011 0.00206311 -0.000459167 0.00230032 
C 43.9707 3.17942 24.8901 12.011 -0.00195424 -0.000208105 -0.00381152 
C 35.7817 3.03655 5.08903 12.011 0.00322035 0.0021156 0.00111645 
C 35.6899 24.3677 21.5407 12.011 0.00419049 -0.00836642 0.00552668 
C 16.6283 30.8934 49.3935 12.011 0.00255896 0.00271096 -0.000925391 
C 37.4547 34.9504 24.0702 12.011 -0.00432369 -0.0011022 0.00358416 
C 20.2023 46.2708 3.68221 12.011 0.00276484 0.00325156 0.00867663 
C 10.1454 47.5951 1.51825 12.011 0.00120343 -0.0114495 -0.00585802 
C 37.5238 4.18038 48.7874 12.011 0.00926992 -0.00259372 0.00280603 
C 7.44122 45.4123 31.9167 12.011 -0.00226354 -0.00744191 -0.00321654 
C 8.2286 1.66812 20.6688 12.011 0.000952476 0.00297489 -0.00130572 
C 22.3454 22.7724 20.9211 12.011 -0.000824175 0.00977618 -0.00351642 
C 36.6451 33.7583 34.2682 12.011 0.00267403 0.0010126 0.000256665 
C 19.0963 48.0355 12.8426 12.011 -0.00686434 0.000729558 0.00904004 
C 39.4013 14.5148 49.3053 12.011 0.001548 0.00129192 0.00220554 
C 43.9457 46.4777 40.1651 12.011 0.00212279 0.000971611 0.000478781 
C 36.1961 29.2625 19.7952 12.011 -0.00408531 0.000787483 -0.000107434 
C 22.0049 13.5061 12.5337 12.011 -0.0074005 0.00311814 -0.00155111 
C 44.7303 16.0167 35.4719 12.011 -0.00442373 0.00312272 0.000810283 
C 3.69853 15.7354 2.71349 12.011 0.00149473 -0.00272511 0.000547105 
C 50.2014 10.3198 14.9897 12.011 0.00243867 0.00652354 0.00134048 
C 26.9065 3.50183 30.3331 12.011 -0.000457193 0.00414189 7.52485e-05 
C 14.6144 46.0506 18.2826 12.011 -0.000586414 -0.00349227 0.00299038 
C 23.5254 0.371119 1.09522 12.011 -0.00242624 -0.00470827 -0.00800455 
C 40.019 18.2615 1.5607 12.011 0.00286005 -0.00249173 0.00523294 
C 45.2816 21.8948 2.16145 12.011 0.00151783 0.00130604 0.0027042 
C 27.2138 21.1296 40.0419 12.011 -0.00346079 -0.00489866 0.000856403 
C 25.4668 18.6979 38.8971 12.011 -0.00783398 -0.0065484 0.00177688 
C 12.9938 24.7474 50.0244 12.011 -5.26673e-05 -0.00556614 0.000716839 
C 15.0319 4.3376 45.3939 12.011 -0.00352905 -0.00306997 -0.00488102 
C 18.516 10.2705 14.607 12.011 -0.00278805 0.00251034 0.00154368 
C 44.3133 49.4077 2.44371 12.011 0.00586776 -0.00228092 0.000628457 
C 5.51143 25.0014 32.932 12.011 0.00224893 0.00704073 0.00769067 
C 14.0271 44.8151 50.8788 12.011 0.000712425 -0.00161592 0.0069806 
C 37.5395 11.074 38.7274 12.011 0.00021306 -0.00104053 0.00347526 
C 30.7945 48.6719 2.96575 12.011 -0.00798217 0.000285366 0.0026594 
C 13.3685 45.221 35.5281 12.011 -0.00242287 -0.00149534 0.00507133 
C 32.7938 35.8677 13.3082 12.011 0.00309551 0.00336868 0.000519182 
C 27.9403 48.8087 41.3213 12.011 0.00298886 -0.000911327 0.00139946 
C 13.6951 22.5874 50.7069 12.011 -0.00787153 -0.00705427 -0.00498893 
C 45.1149 3.86108 16.8387 12.011 -0.00199797 0.000527889 0.000949839 
C 15.32 29.0271 48.3303 12.011 -0.00624052 -0.00114746 -0.00573916 
C 21.8118 19.8951 6.55306 12.011 0.00417797 0.0048683 0.00216006 
C 51.0004 1.20931 29.4132 12.011 -0.00229283 0.00380359 0.00577157 
C 42.0809 38.1644 5.94332 12.011 0.00510045 -0.00571116 0.00309413 
C 29.5774 1.8184 8.18279 12.011 0.00615471 -0.00464486 0.00540348 
C 35.9329 34.8438 5.33925 12.011 -2.43593e-05 -0.00617279 -0.00723961 
C 15.1393 7.45359 9.22516 12.011 0.00227191 0.00107894 0.00475964 
C 38.9784 44.9831 2.74641 12.011 -0.00204163 -0.00914686 -0.000292742 
C 18.2396 10.1911 45.4909 12.011 0.00394105 -0.00042813 0.00124477 
C 20.1808 34.2986 21.314 12.011 0.00156696 0.000650733 -1.07531e-05 
C 41.9831 30.8797 9.81934 12.011 0.00296675 0.000835445 -0.0008104 
C 3.40998 15.599 40.0343 12.011 0.00403637 0.00290749 0.00405244 
C 24.0118 11.5717 43.7197 12.011 0.00309828 -0.00120039 -0.00746039 
C 30.864 35.7575 24.6207 12.011 -0.00116931 -0.011018 -0.00305024 
C 29.0904 23.2623 5.7809 12.011 0.00668548 -0.00138744 0.0007189 
C 24.9851 15.3126 2.72983 12.011 2.90719e-05 -0.00419231 -0.00307213 
C 30.893 22.9446 31.7791 12.011 -0.000137035 0.00330913 0.00280081 
C 41.8275 6.61382 41.3337 12.011 0.000107945 0.00471097 0.00038439 
C 18.6129 41.3411 22.8643 12.011 0.00475283 -0.00469118 -0.00167289 
C 14.6127 29.5227 12.4608 12.011 0.00572289 0.00521226 0.00311551 
C 26.4978 43.0449 11.2383 12.011 -0.00127705 0.00307521 -0.000245194 
C 46.379 20.5649 19.5335 12.011 0.00155529 0.00751861 0.00911095 
C 32.2407 44.4431 38.7541 12.011 0.00404696 0.000258736 0.0037638 
C 40.5056 38.6232 3.95787 12.011 0.00855367 -0.00931487 0.00346667 
C 4.40611 41.2984 5.05522 12.011 0.0135153 0.00135908 -0.000722644 
C 26.8808 42.737 8.79072 12.011 0.00432892 0.00937337 -0.00407126 
C 23.9928 25.8377 43.3364 12.011 -0.00155071 -0.00116666 -0.00480211 
C 13.2016 42.2723 10.3426 12.011 0.00316937 0.00163188 -0.0129321 
C 11.4931 37.7764 47.4832 12.011 0.00920197 0.00490531 -0.000637622 
C 29.0775 19.9599 48.2211 12.011 -0.00492482 0.00201594 0.00319205 
C 33.8031 43.3582 23.308 12.011 0.00603798 -0.00480507 -0.00562965 
C 1.1643 15.0544 15.627 12.011 -0.00388453 -0.0135713 0.000912835 
C 30.6013 34.8899 26.9145 12.011 0.000101156 0.00128459 0.00224001 
C 22.1429 16.349 15.738 12.011 0.0131663 -0.00538795 0.00183799 
C 6.64225 28.9659 31.7849 12.011 -0.000430935 0.00986877 0.00532067 
C 23.545 46.6691 20.4309 12.011 -0.00257192 -0.000547554 -0.000699746 
C 15.8629 8.3566 22.6944 12.011 -0.0042587 -0.00556174 -0.00257704 
C 15.3671 39.6232 15.49 12.011 0.000284632 -0.00932627 0.00464142 
C 36.3873 19.9386 24.9285 12.011 0.00551146 -0.00425456 0.00515603 
C 28.8733 36.3744 16.5607 12.011 -0.00355012 0.00281881 0.00305597 
C 46.7339 14.329 8.81755 12.011 0.00786248 -0.00864902 -0.00283025 
C 47.7396 8.38968 13.2626 12.011 0.00600369 0.000778106 -0.00433568 
C 5.76573 6.52113 47.6182 12.011 -0.00214048 -0.000139031 -0.000901572 
C 24.5574 17.4913 39.0014 12.011 -0.00437188 0.00512371 -0.00220322 
C 23.1686 14.2779 12.2114 12.011 -0.00200845 -0.00322662 0.000147875 
C 20.4605 35.1643 31.4461 12.011 0.0015701 0.00373068 0.00066203 
C 36.4455 46.8441 45.5399 12.011 -0.000372566 -0.0021601 -0.000454385 
C 26.2236 18.1326 28.882 12.011 0.00473588 -0.00208982 -0.00380223 
C 47.4782 17.3136 47.0341 12.011 0.00172354 0.00425741 -0.00227622 
C 16.2355 38.2795 28.1336 12.011 -0.00330825 0.00244885 -0.00314595 
C 2.1671 41.6484 39.0233 12.011 -0.00201734 -0.00399924 0.000584059 
C 37.2481 28.3288 2.77106 12.011 -0.00229776 0.00424822 0.00564322 
C 11.2636 31.2234 44.9423 12.011 -0.000854765 0.0104853 -0.00410047 
C 13.2163 49.2826 13.5279 12.011 -0.00200061 -0.00480218 0.00139214 
C 18.7562 6.95034 22.8995 12.011 -0.00113318 -0.00192034 -0.00167129 
C 1.41317 22.7303 23.3926 12.011 -0.00249519 -0.00977598 0.00195614 
C 40.8805 50.1491 8.39854 12.011 -0.00294042 -0.00206262 0.000509053 
C 10.0773 28.0502 10.2842 12.011 0.00279044 0.007587 0.00483836 
C 29.1909 33.0546 10.5622 12.011 0.000353244 0.0118057 3.80877e-05 
C 3.13162 42.4243 48.7506 12.011 0.00707 0.00207719 -5.18222e-05 
C 14.0531 30.7526 13.0093 12.011 -0.00291548 -0.00336572 -0.00103397 
C 45.5097 43.1875 12.6823 12.011 0.00251409 0.00191845 -0.00247136 
C 42.31 36.4931 14.7997 12.011 0.00506393 0.000769283 -0.000209383 
C 36.6829 41.8741 19.8452 12.011 -0.000521065 -0.00384921 -3.46664e-05 
C 20.2441 20.5171 45.1884 12.011 0.00747827 -0.00179083 -0.00013982 
C 13.9222 9.57901 50.6656 12.011 0.00539242 0.00151281 -0.00419163 
C 33.1763 3.32156 4.67914 12.011 0.0023747 -0.00387321 0.00429883 
C 28.9843 24.5126 45.8655 12.011 -8.39477e-05 0.0054766 -0.0010497 
C 41.0262 47.4517 16.1217 12.011 -0.00371102 0.00414542 0.00600323 
C 45.7188 19.2473 21.6089 12.011 0.00151232 -0.00142074 -0.000748294 
C 28.7145 42.8753 17.1527 12.011 0.00192443 0.000667464 0.00563125 
C 33.9577 0.194473 4.68955 12.011 -0.0038808 0.00324703 0.00840482 
C 27.9552 17.5327 47.7176 12.011 -0.00119913 0.00758381 -0.000645112 
C 39.5301 24.8432 31.5066 12.011 -0.00363704 0.00362899 0.00124801 
C 34.7719 29.8607 10.3655 12.011 0.0056603 0.00726012 -0.00211368 
C 1.94136 26.9975 42.0018 12.011 -0.000550578 -0.00147423 0.00221023 
C 30.4342 44.0179 12.6705 12.011 -0.00133163 0.0040715 0.0065796 
C 39.3842 31.0972 48.0913 12.011 0.00576737 0.0010638 -0.00700375 
C 11.5596 13.8695 15.852 12.011 -0.00512691 -0.0042165 -0.00200287 
C 19.0902 19.1669 36.3048 12.011 -0.000993517 -0.00156139 -0.00224159 
C 9.10028 43.0797 22.3898 12.011 0.00643894 -0.00388666 -0.00737722 
C 2.45701 9.10073 45.0425 12.011 -0.00493289 -0.0016391 -0.00282046 
C 16.4091 46.5181 41.0045 12.011 0.0113654 0.00148328 0.00575969 
C 32.898 12.6809 29.8652 12.011 -0.00275295 -0.00199406 0.000274606 
C 15.5053 50.9958 4.19399 12.011 -0.00127803 0.00637632 0.00270051 
C 6.09304 1.33126 22.005 12.011 0.00381629 -1.03526e-05 -0.00671709 
C 38.7075 2.98759 18.3901 12.011 0.000199062 -0.000621756 -0.00625802 
C 15.3293 16.0145 5.03678 12.011 3.77955e-05 -0.000752533 -0.000458636 
C 42.5405 18.0354 11.2411 12.011 -0.000914349 0.000651728 -0.00603171 
C 35.3027 44.5845 12.1967 12.011 0.00129642 0.00282154 -0.00200806 
C 28.6662 30.7728 9.6948 12.011 0.004938 0.00437999 0.00130988 
C 35.3902 36.3604 21.4044 12.011 -0.006389 -0.00471776 0.00767008 
C 45.3171 3.72873 22.7267 12.011 -0.00360945 0.00523173 0.00111334 
C 19.088 0.313525 7.58382 12.011 -7.38917e-05 0.00144867 -0.00223642 
C 23.918 0.246976 45.3225 12.011 -0.00305912 0.00336552 0.00751342 
C 0.276831 36.2405 8.01698 12.011 0.00078545 0.0037679 0.00231996 
C 4.90272 3.24267 11.7332 12.011 -0.00123419 0.0034988 0.00802321 
C 15.0663 33.9167 40.7561 12.011 0.000596315 -0.0013356 -0.000296082 
C 20.6547 47.7865 49.0528 12.011 0.00348306 0.00293957 -0.00182822 
C 25.4921 10.7405 18.2595 12.011 0.00267117 0.00454264 0.00752008 
C 35.724 18.812 27.0225 12.011 -0.00854063 -0.00494956 0.00188832 
C 18.2372 12.3273 21.4989 12.011 -0.00239865 -0.00363096 -0.00971526 
C 12.4115 29.4905 14.3329 12.011 0.00548577 0.00108121 -0.00756773 
C 11.8768 4.10136 28.0447 12.011 0.00413084 0.00132449 0.00250076 
C 21.4757 19.5793 33.3655 12.011 0.00762954 0.0058663 -0.00169099 
C 30.4476 22.3001 3.76369 12.011 -0.000107905 0.000262898 0.00249002 
C 1.95497 33.5777 24.0722 12.011 -0.00198788 0.00339091 -0.00176581 
C 34.147 45.0826 29.4426 12.011 -0.00656937 0.0071786 0.0072714 
C 43.8168 30.252 32.5692 12.011 0.00450162 -0.0050828 -0.00433387 
C 15.8125 3.84717 3.02688 12.011 -0.000822244 -0.00587684 0.0045519 
C 33.7662 24.7892 6.57413 12.011 9.49716e-05 -0.00392287 0.00688532 
C 26.0816 5.97724 20.7747 12.011 0.000867251 -0.00287595 0.00548334 
C 43.0049 39.2788 44.0548 12.011 -0.00153849 0.00773799 -0.00123062 
C 49.7515 24.4153 5.47569 12.011 0.00168823 0.00468474 -0.00501373 
C 10.564 1.47152 41.5689 12.011 -0.00304518 0.00120862 0.00717526 
C 23.946 37.6102 48.3353 12.011 -0.0009594 0.0100273 -5.90393e-06 
C 25.534 33.2571 13.5879 12.011 0.00609481 -0.00414076 -0.0030149 
C 31.0514 30.5272 12.3175 12.011 -0.00129823 -0.00337453 0.00499743 
C 42.4926 45.9202 15.0098 12.011 0.00126451 0.00410961 0.00148704 
C 18.4613 47.8279 23.15 12.011 -0.000647198 0.00117946 -0.000409051 
C 45.3737 15.6371 5.39129 12.011 -0.00387021 -0.00303388 0.00750731 
C 32.654 11.7473 20.0877 12.011 0.000519285 -0.00394208 -0.00772813 
C 48.7035 23.1672 45.2621 12.011 -0.00340863 0.00552988 0.00127694 
C 8.09207 10.7118 16.6361 12.011 -0.00306448 -0.00645547 0.00424019 
C 50.0849 30.3738 25.356 12.011 -0.00154012 -0.00429139 -0.00130699 
C 14.1601 1.29135 43.1372 12.011 0.00102712 -0.0136475 0.00134477 
C 31.0541 17.6296 15.7265 12.011 0.000837572 0.00323849 -0.00099043 
C 20.7637 39.8655 29.5027 12.011 -0.00688844 -0.00167103 -0.00328794 
C 22.7191 15.4172 41.7409 12.011 -0.000733176 0.00243537 0.00141315 
C 19.0598 19.6884 24.8975 12.011 -0.00627156 -0.000111856 -0.00610054 
C 29.8552 0.417995 16.6447 12.011 -0.0141561 0.00278616 -0.00424764 
C 12.8928 9.78691 8.6095 12.011 0.00466154 0.00102031 -0.000848751 
C 18.447 8.85937 35.6641 12.011 -0.000120467 0.00576149 -0.00222714 
C 42.6185 15.2895 47.7078 12.011 -0.00122967 -0.00428777 -0.00262926 
C 1.13675 37.6846 17.5003 12.011 0.00357046 -0.000568643 -0.00504342 
C 25.9553 32.0584 42.824 12.011 0.000900837 -0.000948414 -0.0080841 
C 25.4665 21.4114 13.0154 12.011 -0.00576811 0.00247434 -0.00581549 
C 14.722 33.4593 32.0435 12.011 0.00129893 -0.00213627 -0.00118084 
C 46.9829 3.27192 42.8618 12.011 0.00145591 0.00373003 -0.00340582 
C 46.171 47.1729 29.9415 12.011 -0.00355643 0.000414868 -0.00348818 
C 11.1251 28.1433 31.6848 12.011 0.0020053 0.00508429 0.00643282 
C 0.613268 14.4834 10.7037 12.011 0.00205719 -0.00323082 0.0104451 
C 26.9133 4.02552 4.60601 12.011 0.00606276 -0.00384549 -0.00687178 
C 22.6866 23.0371 44.123 12.011 0.00380025 0.00546999 0.000110764 
C 47.4404 10.2633 14.7949 12.011 0.000917627 0.00233035 -0.00131089 
C 2.78253 20.4337 12.5527 12.011 0.00268082 -0.000192497 0.00555992 
C 36.1532 46.0405 10.4639 12.011 0.00702929 0.0023646 -0.00368168 
C 16.9908 32.5676 0.66282 12.011 0.000875115 0.00498942 -0.00565492 
C 50.9334 41.2412 23.7037 12.011 0.00425663 0.0025435 0.00258268 
C 41.4404 2.18271 40.013 12.011 -0.00412835 0.00476857 -0.00453457 
C 46.3183 25.7129 26.9661 12.011 -0.00301164 0.00632004 0.00493506 
C 27.5385 33.9043 16.7595 12.011 -0.00151402 -0.00126206 0.00530087 
C 13.9121 17.03 45.6796 12.011 -0.00541345 0.0026982 -0.00111711 
C 10.5342 24.858 38.2073 12.011 0.00343478 -0.00427612 -0.000542017 
C 19.0573 14.1259 47.8392 12.011 0.0060802 0.00371825 -0.00311897 
C 30.0666 37.6162 46.9033 12.011 -0.00147261 0.00144612 0.00212278 
C 13.2441 7.56734 7.5703 12.011 -0.00244886 0.00222598 -0.00419429 
C 7.63895 29.3135 33.9883 12.011 -0.000348929 -0.000976765 0.000513778 
C 35.8595 15.074 22.5514 12.011 -0.00216699 -0.00247561 -0.00208778 
C 17.6097 40.5885 15.4302 12.011 -0.00830193 -0.00047446 -0.00302212 
C 7.55534 18.3859 46.8558 12.011 0.00600065 0.00253471 0.00373431 
C 43.7567 4.33816 16.8565 12.011 -0.00305448 0.00539498 0.00889858 
C 21.4055 15.1701 7.72061 12.011 -0.00247937 -0.0034701 0.00286408 
C 37.373 22.4193 6.68857 12.011 -0.00563916 0.000636776 0.000744833 
C 34.1893 49.5731 9.44385 12.011 0.00189724 -0.0023674 -0.00707842 
C 28.2167 37.1941 20.993 12.011 0.0044884 -0.00113775 0.00238852 
C 5.68065 19.0614 20.1113 12.011 0.00411974 -0.0109274 -0.00455012 
C 27.0381 12.6528 38.0574 12.011 0.000740938 -0.000691147 0.0033158 
C 14.8922 14.4525 41.7316 12.011 -0.0051666 0.00478874 0.00251155 
C 3.50261 1.97445 3.84852 12.011 -0.0070907 -0.00336438 0.00283459 
C 27.4408 24.6399 10.2458 12.011 0.000605002 -0.00018299 0.00338432 
C 24.3031 19.8956 10.8946 12.011 0.000455233 -0.0002312 -0.00341398 
C 42.6047 9.53758 4.03437 12.011 -0.00509574 0.00517266 0.00443353 
C 32.8708 28.1506 44.2099 12.011 -0.00378751 0.00286762 0.000235005 
C 49.5364 28.9789 43.7864 12.011 0.00261334 0.00370776 -0.00640909 
C 20.8213 47.6073 3.38099 12.011 -0.00473771 0.0060599 -0.000237822 
C 9.89328 11.9603 7.98707 12.011 -0.00471999 0.000809677 -0.00671019 
C 25.1531 48.8203 1.90606 12.011 0.00104992 -0.000625558 0.00861494 
C 19.0498 15.3487 5.93281 12.011 0.000699439 -0.00236493 -0.00158067 
C 17.2736 41.6765 34.2727 12.011 -0.00513551 -0.00255811 -0.00245155 
C 24.4507 40.3589 37.997 12.011 0.00060981 0.00125375 0.00375496 
C 35.0638 25.3703 7.04454 12.011 0.00178318 0.0048593 -0.0054483 
C 26.1047 17.9762 33.9879 12.011 0.00351244 0.00376781 0.000179767 
C 37.0101 18.2334 6.06206 12.011 0.00398012 -0.00473586 4.00737e-05 
C 49.8588 15.1176 8.46828 12.011 -0.00211242 0.00971042 -0.00355511 
C 25.1938 31.6876 41.6412 12.011 0.000210221 -0.00410279 0.000767466 
C 10.8643 30.3787 9.46855 12.011 -0.00332213 0.00306977 0.00604064 
C 5.65016 30.8753 16.3902 12.011 -0.00723997 0.00255214 0.00203914 
C 25.6586 38.8002 29.3804 12.011 -0.00393144 -0.00769336 -0.000538795 
C 0.887303 17.217 27.3352 12.011 -0.00589935 0.000678571 0.00539064 
C 31.1151 6.71405 22.0696 12.011 0.00717837 0.00139248 0.00398703 
C 13.296 4.97613 17.5079 12.011 0.001977 -0.00385929 0.000235937 
C 34.7774 19.3722 40.7089 12.011 -0.00327486 0.00429175 -0.00287862 
C 7.37038 50.2776 20.0391 12.011 -0.00677138 0.000560735 0.00414414 
C 30.254 36.7519 16.8256 12.011 -0.000234006 0.00522764 0.000384165 
C 9.1252 34.6548 42.2322 12.011 0.00419474 0.00144496 0.00519269 
C 11.0397 24.4329 14.333 12.011 -0.00330118 -0.000149149 0.00203303 
C 20.1129 3.93232 35.593 12.011 0.00124182 0.00161687 0.00493823 
C 18.9767 10.204 40.5914 12.011 0.00404528 -0.00226202 -0.00240009 
C 19.6503 31.7566 40.5718 12.011 0.00400716 -0.00354306 0.00327764 
C 50.6765 32.8982 36.3885 12.011 0.00505271 -0.00194344 -0.00225729 
C 50.2716 30.5792 35.758 12.011 -0.0058902 0.00586125 2.00407e-06 
C 26.1182 7.85883 38.2713 12.011 -0.00379599 -0.00647491 -0.00474424 
C 13.1387 0.712794 43.938 12.011 0.0041016 0.000967522 0.00760439 
C 35.6714 36.3214 13.877 12.011 -0.00547109 -0.00194287 0.00411709 
C 38.6851 36.3461 33.6585 12.011 0.00188074 0.00813724 0.00324117 
C 3.53353 3.34634 11.9873 12.011 -0.00327448 0.00141457 -0.00119858 
C 37.6336 49.9791 20.9651 12.011 0.00115388 -0.00341346 0.00158054 
C 22.02 16.6941 25.2649 12.011 -0.00210036 0.00183558 -0.00308324 
C 34.3738 28.3835 18.4684 12.011 -0.00854097 0.00181937 0.00215646 
C 20.9911 14.2628 10.4046 12.011 -0.00709529 0.00117344 0.00446353 
C 29.0622 21.8562 3.35099 12.011 -0.00774589 0.00656485 0.00196917 
C 42.8782 2.1985 15.9233 12.011 -0.00638606 0.00465936 0.000806033 
C 47.589 33.8716 5.71941 12.011 -0.00151982 0.0058946 0.0021902 
C 5.08628 33.2964 27.605 12.011 0.0023467 0.000291645 0.0177098 
C 21.9448 36.4871 28.1192 12.011 -0.000520384 0.000297649 0.00390145 
C 30.0987 5.08402 6.69898 12.011 0.00412009 0.00588393 0.00108274 
C 35.9541 18.1502 47.8064 12.011 -0.00376888 0.00415183 0.0015676 
C 12.1672 46.4875 33.7395 12.011 -0.00609888 0.00346297 -0.00152807 
C 1.41395 21.4617 44.3168 12.011 -0.00206151 -0.00243606 0.00502434 
C 46.9892 12.2408 22.6075 12.011 -0.000355765 4.61204e-05 -0.000272687 
C 2.0959 40.5012 49.4885 12.011 -0.00531586 0.00533397 0.00617751 
C 13.3263 33.7674 46.8255 12.011 -0.00809005 0.00289744 0.00476797 
C 10.5793 21.9078 30.2923 12.011 0.00059171 -0.00414345 0.00244816 
C 50.1688 47.9623 47.7258 12.011 -0.00113897 -0.00570315 0.00451277 
C 38.4484 27.4499 40.8674 12.011 -0.0050922 0.00531452 -5.6163e-05 
C 36.2137 2.23944 9.51989 12.011 -0.00712591 0.000180562 0.000518284 
C 36.822 22.2143 15.8518 12.011 0.00399203 -0.00248349 -0.000118929 
C 13.4415 32.1834 44.3077 12.011 -0.00141806 0.00392014 -0.00419858 
C 18.379 6.45398 29.5276 12.011 0.00723474 0.000744433 -0.00875101 
C 23.7861 2.70306 45.072 12.011 -0.00117234 -0.00499739 -0.00373387 
C 36.3486 20.3713 44.5512 12.011 0.00522408 -0.0074521 0.00167416 
C 50.816 20.6186 1.16313 12.011 0.000241307 -0.00427509 0.00624033 
C 21.7043 29.9327 32.709 12.011 0.00409937 -0.000586009 0.00762351 
C 9.22068 8.44128 3.11558 12.011 -0.00149347 0.00903675 -0.00245144 
C 31.0729 3.02559 41.9629 12.011 -0.00211791 -0.0145579 6.91695e-06 
C 21.3041 47.443 13.9766 12.011 -0.00464677 0.00308629 -0.000843997 
C 0.260394 14.0348 2.27514 12.011 -0.00159169 -0.000302369 -0.00536482 
C 45.7031 50.3865 24.8222 12.011 -0.0026219 0.00290196 0.00441362 
C 16.7663 41.268 48.6619 12.011 -0.00246469 0.000568027 -0.00755264 
C 23.1934 30.6824 37.9738 12.011 -0.00593253 -0.00436938 -0.0107741 
C 9.52445 29.0906 41.5199 12.011 0.000213769 -0.000589664 0.00168633 
C 50.2492 25.8062 5.29812 12.011 -0.00188778 -0.00426873 0.0095623 
C 20.1702 36.7746 19.8968 12.011 -0.00372319 0.0036834 -0.00658667 
C 25.5506 27.3563 44.3423 12.011 0.00440381 0.00918658 0.00359869 
C 26.6488 35.6224 19.9876 12.011 -0.0024959 0.00758648 0.00668992 
C 10.2608 45.0775 23.0539 12.011 0.000384658 -0.00597026 -0.00836843 
C 32.0834 50.3636 9.51062 12.011 0.00427462 -0.00239661 0.00617451 
C 47.3109 43.4429 9.29915 12.011 -0.00612655 0.00873132 -0.0066876 
C 38.372 43.029 45.7974 12.011 0.00335551 -0.00622014 -0.00701023 
C 18.1715 32.1071 48.0253 12.011 0.00183577 0.00326126 -0.00678614 
C 15.6342 5.87109 28.0067 12.011 -0.00107517 0.00796735 0.00102552 
C 33.1657 12.0467 10.464 12.011 -0.00432321 0.00262042 0.0024059 
C 8.79322 15.6721 17.566 12.011 -0.00435741 0.00378186 -0.000925099 
C 49.8258 15.8901 16.5982 12.011 -0.00266257 0.00326193 -0.00567461 
C 7.74546 46.3527 47.2733 12.011 0.00131142 0.00186151 0.00108382 
C 33.9344 14.3803 2.84728 12.011 0.00959793 0.00475264 0.000249838 
C 4.82206 16.2029 8.34813 12.011 -0.00315643 0.00458831 -0.00407724 
C 2.44209 24.6092 41.4656 12.011 0.00387382 -0.00304624 0.00484159 
C 5.15274 37.287 43.5603 12.011 0.00264098 -0.000344575 0.00324162 
C 19.6872 11.9482 13.161 12.011 -0.00182069 -0.000693962 0.00345938 
C 37.4013 37.6722 48.8235 12.011 -0.00373007 -0.00175686 -8.20544e-05 
C 39.216 29.757 40.8715 12.011 0.000293936 -0.00136094 0.00047923 
C 12.0249 26.0224 26.0585 12.011 0.00208026 -0.00952493 -0.00234829 
C 24.5379 36.2174 41.3135 12.011 0.00181865 -0.000129873 -0.00393356 
C 26.672 29.2584 20.5338 12.011 -0.00492209 0.00326536 0.000278732 
C 47.8598 5.96865 27.1638 12.011 0.00175916 0.0018719 -0.00505991 
C 35.0181 41.8579 18.0498 12.011 -0.000730629 -0.0132255 -0.00462965 
C 29.2536 18.8866 49.1599 12.011 0.00239636 0.00605249 -0.00929882 
C 2.19222 24.5808 12.5929 12.011 -0.00146854 -0.000972237 0.00251759 
C 50.1847 40.0409 2.22716 12.011 0.000400793 -0.00556462 0.0049485 
C 43.8671 30.6277 23.854 12.011 0.00408966 -0.00492239 -0.00423529 
C 32.6345 41.6946 18.4548 12.011 0.00354087 0.00754234 0.0119771 
C 39.81 23.1903 19.1119 12.011 -0.00202516 0.003627 0.00775583 
C 11.4251 3.48549 29.2565 12.011 -0.00576986 0.00492535 -0.002544 
C 4.04544 12.9557 37.7506 12.011 -0.00171034 -0.000495432 -0.00229305 
C 13.0045 25.3826 23.7858 12.011 -0.00521619 -0.00249803 0.00382871 
C 6.67047 1.87649 44.4736 12.011 0.00338709 -0.000202089 0.00135375 
C 12.8782 14.7867 45.7269 12.011 0.000191212 -0.00330052 0.001163 
C 30.1411 12.8591 34.0969 12.011 -0.00251769 -0.00297875 -0.00375106 
C 39.4728 21.1841 22.238 12.011 -0.000369194 -0.00194538 -0.00538211 
C 18.9116 35.0405 1.4781 12.011 -0.000682514 0.00175809 -0.0051093 
C 18.6359 41.2895 15.9931 12.011 0.00168736 -0.00773402 -0.00255617 
C 41.7102 20.6548 45.5743 12.011 0.00988495 -0.000782714 -0.00424713 
C 44.211 35.3519 46.3916 12.011 -0.00851065 -0.00454698 0.00119694 
C 13.9783 4.6058 31.7461 12.011 0.00106204 -0.00577254 -0.00265153 
C 24.2607 3.79196 4.70679 12.011 7.5219e-05 0.000126872 -0.0018092 
C 40.443 36.3766 12.9137 12.011 0.00207439 0.00193552 7.23437e-05 
C 40.8829 32.4917 34.3946 12.011 -0.00580062 -0.00419261 0.00287084 
C 2.02394 31.4182 1.82873 12.011 -0.000180491 -0.00400539 0.000161979 
C 2.64549 35.5918 50.5489 12.011 -0.0080102 0.00134458 0.0118271 
C 45.151 14.8232 0.5014 12.011 -0.0108841 0.00256316 0.000556036 
C 18.941 48.4574 27.4121 12.011 -0.00806121 -0.0100833 -0.00584626 
C 14.0441 38.3731 23.0875 12.011 0.00213561 0.00668317 -0.00790376 
C 13.2285 46.9437 43.7815 12.011 0.00409534 0.0013236 0.00488474 
C 20.8526 42.2726 17.4848 12.011 0.00712145 0.0129674 0.0036893 
C 39.2146 22.0728 21.1901 12.011 -0.00576447 0.00299022 -0.00217992 
C 20.8109 1.63122 37.559 12.011 0.00104189 -0.00669203 0.00396139 
C 11.566 33.4935 3.3487 12.011 0.00316649 0.00402023 -0.00105501 
C 12.192 16.4793 7.3678 12.011 -0.00330379 -0.00870188 -0.00519025 
C 30.7007 35.5963 47.8372 12.011 0.0115655 -0.00736017 -0.00797229 
C 34.1525 33.1997 5.10347 12.011 -0.00396518 -0.00192659 -0.00303661 
C 1.51691 41.3044 6.45066 12.011 -0.00460324 0.00274483 -0.00441821 
C 34.258 45.6288 45.2176 12.011 0.00463859 -0.00225138 -0.00409648 
C 9.93074 33.3786 35.2776 12.011 0.000386652 -0.000200003 -0.000959786 
C 46.0821 42.9571 16.7891 12.011 0.0096886 -0.00788872 0.0154514 
C 1.9175 18.725 6.39853 12.011 0.00162094 -0.00170057 0.0057406 
C 16.7636 6.76675 11.1595 12.011 -0.00280611 -0.00695203 0.00880334 
C 31.7882 25.5942 42.4543 12.011 0.00566754 -0.00158356 -0.00732147 
C 39.124 48.3013 32.9782 12.011 0.00664885 -0.00309778 -9.01362e-05 
C 23.0138 15.2593 39.3105 12.011 0.00536581 -0.000448597 -0.00174473 
C 4.75146 41.6315 24.3399 12.011 0.00652788 -0.0035872 0.00327866 
C 32.1253 4.55145 37.7946 12.011 0.00291159 0.00330669 -0.000564695 
C 21.2703 18.6915 32.3705 12.011 -0.00352722 -0.0091401 0.00773262 
C 50.2142 21.2513 45.284 12.011 0.0108769 -0.00232217 0.000697456 
C 15.573 3.34376 39.4702 12.011 -0.00334284 0.0069997 0.00732831 
C 21.4247 4.59785 15.2766 12.011 -0.00315134 -0.000882231 -0.00809709 
C 3.87405 16.6788 34.7513 12.011 0.00073843 0.0076838 -0.00758833 
C 11.7472 32.2832 1.17418 12.011 -0.00324976 0.00384265 0.00202183 
C 26.7227 1.27775 13.0734 12.011 0.00276157 0.00373382 0.00609425 
C 9.93386 11.0798 2.32634 12.011 0.00131745 0.000646703 -0.00533488 
C 24.8828 25.5264 45.7591 12.011 -0.00358633 0.0016287 -0.0112007 
C 3.85934 50.9633 30.658 12.011 0.00557296 0.00366301 -0.00301127 
C 23.8052 20.6573 21.8258 12.011 -0.00158048 -0.00374958 0.00174344 
C 41.3221 38.0676 37.3706 12.011 -0.00391719 0.00316592 -0.006698 
C 25.7303 47.4125 1.9354 12.011 0.0012016 -0.00247887 0.000768861 
C 20.6092 46.8285 15.0328 12.011 0.00336771 -0.0026627 0.00166113 
C 44.264 4.07731 23.7839 12.011 -0.00334938 -0.000937859 0.00371991 
C 42.2918 47.829 41.4295 12.011 0.0056459 0.00532823 0.00401422 
C 32.2047 33.6441 48.0105 12.011 0.00401482 -0.000992011 -2.84482e-05 
C 42.981 44.7719 29.6952 12.011 -0.00406157 0.00249663 -0.00135 
C 4.99584 25.6874 45.8613 12.011 0.00410726 0.00509271 -0.0038242 
C 29.4323 41.8306 45.9762 12.011 0.000931588 0.0075232 -0.00447043 
C 38.9565 22.7338 2.94486 12.011 0.000466277 0.000925525 0.00455562 
C 4.10485 12.6916 3.45342 12.011 -0.0039593 0.00542137 -0.00442633 
C 26.3467 27.8539 12.9128 12.011 0.00763498 -0.0025912 0.00171724 
C 25.3606 37.3357 6.11193 12.011 -0.00575187 0.00517167 -0.000669897 
C 27.5031 0.623859 35.8379 12.011 -0.00751742 0.00439625 0.00596159 
C 15.7165 1.11785 8.95242 12.011 -0.000161895 -0.00103959 -0.0103019 
C 49.6183 16.8993 6.78529 12.011 -0.00415653 0.00209002 -0.00205068 
C 7.96257 36.4812 47.9059 12.011 -0.00166664 -0.00095087 -0.00523179 
C 32.3507 22.3736 0.586452 12.011 -0.000981088 4.55878e-05 0.00134874 
C 26.0553 39.6949 25.8724 12.011 0.000321963 -0.00852407 0.00606313 
C 10.6027 32.0367 5.05349 12.011 0.00680707 -0.00120523 0.000371511 
C 10.4444 8.66475 2.40053 12.011 0.00529565 0.00137048 -0.00752088 
C 36.2815 42.5885 26.3263 12.011 0.000126436 -0.000867535 -0.00160678 
C 44.3701 14.415 18.2526 12.011 -0.000486279 0.00400844 -1.09866e-05 
C 28.7828 14.4155 6.60898 12.011 -0.00110609 0.00177631 -0.00790698 
C 15.9687 0.292926 39.9632 12.011 0.00937912 0.00658703 -0.0016559 
C 42.0639 5.05151 39.4669 12.011 -0.00560725 0.00675036 -0.00590955 
C 38.4003 30.8224 10.427 12.011 -0.00651312 0.00010588 0.00115811 
C 23.9799 23.8646 47.3217 12.011 0.00376983 0.000505869 0.00565205 
C 21.5423 45.9844 32.9525 12.011 0.00172554 0.00229195 0.00485123 
C 16.7576 9.00666 21.7977 12.011 0.00481847 0.00117126 0.00501785 
C 43.2656 42.8048 14.4773 12.011 0.00152684 0.00503057 -0.00810076 
C 48.2725 32.4295 23.1632 12.011 0.00668726 0.0024345 0.00229776 
C 45.7654 23.864 13.9058 12.011 0.010942 -0.00528692 0.000213197 
C 48.0426 32.0532 24.4841 12.011 0.000402366 -0.000789517 -0.00216377 
C 46.5074 2.62845 41.6776 12.011 -0.00151114 0.000812157 -0.00451935 
C 4.20349 33.578 18.2054 12.011 -0.00361235 -0.000439096 -0.00302781 
C 41.3027 8.14061 50.6542 12.011 -0.00431036 -0.00320857 0.000955047 
C 0.382618 47.2439 13.4617 12.011 -0.00226337 0.00452358 -0.00184898 
C 50.9375 30.3334 10.5958 12.011 -0.00374254 0.00477986 -0.00192475 
C 35.5505 18.1553 38.7649 12.011 -0.00404831 -0.00351941 -0.00916095 
C 33.7016 28.1199 2.17834 12.011 -0.00266128 -0.00471 -0.0145871 
C 9.40401 27.9307 16.0659 12.011 0.004317 0.0029697 -0.00158533 
C 14.9829 33.9651 33.3375 12.011 -0.000161137 0.000280693 0.00229695 
C 49.2388 10.0967 22.2976 12.011 -0.00708025 0.00278665 0.00453212 
C 8.71023 31.9013 50.2905 12.011 0.00306382 -0.00230727 0.00625457 
C 31.9809 37.1373 18.8761 12.011 0.00527552 0.00260157 0.000438104 
C 4.88989 31.0096 1.3454 12.011 -0.00589674 0.0095862 0.0038691 
C 20.9737 30.997 7.87037 12.011 0.00933264 0.00590157 0.00484156 
C 23.5391 37.0295 8.25835 12.011 -0.00416372 -0.00197656 0.000327265 
C 41.4712 43.9771 11.4692 12.011 0.00762844 0.004468 -0.00494399 
C 6.95346 24.554 48.6999 12.011 0.00819537 0.00681757 0.00615945 
C 48.6958 17.7935 6.1633 12.011 0.00155844 0.00288864 0.00573999 
C 35.8071 48.1024 45.1452 12.011 -0.0016097 -0.00332279 -0.00191256 
C 25.8637 39.8253 48.1895 12.011 0.00269842 -0.00353042 -0.00281875 
C 7.35786 2.24678 24.2635 12.011 -0.00192223 0.00528183 -0.00428892 
C 39.1964 36.8815 5.15919 12.011 0.00132891 0.00565482 -0.00487023 
C 29.9004 4.48819 47.4821 12.011 -0.00288375 0.00426363 -0.00177636 
C 3.55427 1.5791 24.3324 12.011 -0.00381115 0.00586129 -0.00383054 
C 27.6041 41.8196 19.9204 12.011 -0.00478505 0.0121357 -0.00423404 
C 9.36846 24.4993 18.7762 12.011 -0.00400966 0.00395689 0.00331742 
C 39.7142 47.1487 32.4913 12.011 -0.00061265 0.00126076 0.00689846 
C 4.03317 39.3057 42.2638 12.011 0.00368458 0.00528202 0.00240052 
C 36.4034 30.2389 50.3119 12.011 0.00419306 -9.0236e-05 0.0018315 
C 50.1055 29.7003 34.699 12.011 -0.000625272 0.00196542 0.00861865 
C 13.8966 31.4268 40.6267 12.011 0.00359729 0.0041046 -0.00473007 
C 36.5393 14.5978 5.65557 12.011 0.000786287 0.00143974 -0.00523275 
C 46.9172 20.0096 5.62322 12.011 0.00144968 -0.00353901 -0.00135709 
C 40.0016 43.5757 33.6255 12.011 -0.00277529 -0.00133275 -0.000827318 
C 25.8477 44.8139 31.2565 12.011 0.00281409 0.00446027 -0.00702975 
C 30.2856 18.027 0.262792 12.011 0.000795512 0.00202366 -0.00179391 
C 10.3621 46.223 1.48596 12.011 -0.00332729 -0.00482387 -0.00377224 
C 24.466 3.75711 37.2317 12.011 0.000594231 0.00139499 0.0023817 
C 25.125 46.1775 22.7991 12.011 0.00852496 0.000119152 -0.00375035 
C 24.5643 5.79294 41.0231 12.011 -0.00207732 0.00666375 0.00905449 
C 20.7914 30.7582 28.4468 12.011 -0.00702963 -0.00214597 0.0012526 
C 42.2591 29.842 8.87876 12.011 0.00408294 -0.00595357 -0.00128203 
C 33.385 4.71695 9.30648 12.011 0.00116715 0.000370301 -0.00262725 
C 49.4358 40.3665 45.6902 12.011 -0.00978105 0.00177095 0.00100023 
C 49.3767 10.9555 16.0168 12.011 -0.00705416 0.00191945 -0.00211788 
C 34.2405 23.493 48.4322 12.011 -0.00564707 -0.00350752 0.0061933 
C 13.9152 11.5213 35.2807 12.011 0.00526348 0.000450404 0.00550908 
C 49.68 34.8427 2.36002 12.011 0.00377152 0.00102805 -0.00712701 
C 40.5563 9.96009 49.1457 12.011 0.0164556 0.00142295 -0.00335354 
C 29.154 25.6726 48.2586 12.011 -0.00337343 -0.000646487 0.00461614 
C 47.037 9.66533 25.1934 12.011 -0.000417561 0.000968134 -0.00247979 
C 43.7825 11.7879 28.4936 12.011 0.00534428 0.00262411 -0.00543931 
C 6.54989 17.4852 47.3635 12.011 0.00463346 -0.00795918 0.00415404 
C 34.4082 43.1828 44.5958 12.011 0.00783053 0.00437455 0.00310715 
C 42.094 32.6283 17.0356 12.011 0.00352918 0.0100085 0.00264646 
C 21.5261 40.0081 37.8904 12.011 0.00271872 0.00104906 -0.00278601 
C 23.6443 21.859 2.40042 12.011 -0.00476838 0.00728528 9.19487e-05 
C 2.64956 39.9219 42.2626 12.011 -0.00392053 -0.0069428 0.00209998 
C 22.2039 38.0855 10.193 12.011 -0.00247602 -3.7049e-05 -0.0118454 
C 47.4478 25.4332 33.5146 12.011 -0.00191046 0.00324962 -0.00499722 
C 38.5478 12.623 46.015 12.011 0.00399196 -0.00479939 -0.00297078 
C 34.3018 43.8393 1.76193 12.011 -0.00337236 0.00263064 2.80869e-05 
C 3.67679 49.5454 22.069 12.011 -0.00722267 5.24877e-05 -0.00158718 
C 46.8408 37.1635 20.8827 12.011 0.00345073 0.00291665 -0.00561277 
C 16.5077 16.6773 41.5485 12.011 0.00352867 -0.0019917 0.00495656 
C 20.5434 28.7592 19.6711 12.011 -0.0101064 -0.00502838 0.0049887 
C 4.74113 28.9718 28.4516 12.011 -0.00497802 -0.00275159 0.00648676 
C 45.487 34.3488 29.0145 12.011 0.00291806 -0.00128937 0.00359779 
C 19.1487 6.32246 25.6955 12.011 0.00860875 -0.00502992 0.00652816 
C 17.6932 31.397 46.8676 12.011 -0.00513107 -0.00503323 -0.00308684 
C 50.1311 43.7043 11.6776 12.011 -0.00516061 -0.00118172 0.00480872 
C 6.61472 27.1751 33.455 12.011 0.00224056 0.000835013 -0.00391199 
C 37.6634 44.6159 11.7108 12.011 -0.000714278 0.00428207 -0.000265089 
C 35.6224 9.84845 42.7435 12.011 0.00341341 -0.00106352 -0.00144885 
C 36.8646 47.622 4.25118 12.011 0.00572698 -0.00660572 -0.00544278 
C 38.3738 42.3981 15.3125 12.011 0.00319632 0.00420139 0.0027549 
C 3.84224 14.0654 47.8362 12.011 0.00308549 -0.00233184 -0.000501184 
C 7.65292 7.53868 34.1152 12.011 0.00203248 0.000889905 -0.00661744 
C 11.4968 23.7186 47.6871 12.011 -0.0130042 0.000768736 -0.000214477 
C 16.271 15.8482 13.476 12.011 -0.0050082 -0.00584389 -0.00219246 
C 37.2415 35.9927 38.4757 12.011 -0.00335904 8.90623e-05 0.00142546 
C 32.4928 5.05525 23.8964 12.011 -0.00568961 0.00317132 0.00563719 
C 22.3817 39.4821 36.891 12.011 0.0100402 -0.00225108 -0.00635908 
C 16.9457 27.0157 23.8597 12.011 -0.00343536 -0.00243619 -0.00195128 
C 27.1273 4.85915 26.8077 12.011 -0.0041655 -0.00558707 0.00372132 
C 47.4261 32.6291 20.828 12.011 0.000340192 -0.00262962 0.00246385 
C 49.6496 31.2206 16.5486 12.011 -0.00142757 -0.00434597 -0.000787376 
C 41.16 36.4929 10.5267 12.011 0.0013806 0.00047559 -0.00447735 
C 36.0401 4.58735 10.2632 12.011 -0.00389902 -0.00650858 -0.00300449 
C 19.5862 43.3183 4.1269 12.011 -0.00345928 0.00287039 0.00322859 
C 4.04257 4.78383 46.8772 12.011 0.00167055 0.00547968 -0.00216695 
C 50.0894 31.8189 25.5381 12.011 0.000500659 0.00134662 -0.00352747 
C 21.991 14.2264 41.9405 12.011 0.00100774 -0.00121196 -0.00385409 
C 21.2483 47.5019 25.5374 12.011 -0.00290505 -0.00382013 -0.00262973 
C 35.3141 13.3874 20.381 12.011 -0.00241759 -0.000805889 -0.00327691 
C 34.4336 17.3418 14.0486 12.011 0.00320716 0.00315611 -0.00400023 
C 34.4967 9.86266 1.17138 12.011 0.00384616 0.00101118 -0.00594656 
C 42.1608 43.5045 0.355739 12.011 -0.00106741 0.00180742 -0.00541758 
C 12.1744 36.465 32.1559 12.011 -0.00522996 0.00474526 0.000945544 
C 9.55173 14.548 17.0012 12.011 -0.00357772 -0.00206325 0.000525497 
C 49.2244 11.6329 34.0012 12.011 0.00711141 0.00723419 -0.000145757 
C 47.2993 15.2692 1.55169 12.011 -0.000841534 -0.000807964 0.0011005 
C 41.6511 3.41328 44.1923 12.011 -0.000873371 -0.00335117 0.00352944 
C 21.6879 46.5375 47.2582 12.011 -0.00765375 0.00365088 0.00225641 
C 26.62 25.3683 12.391 12.011 0.00540401 0.00612636 -0.00134414 
C 47.4358 14.9842 11.1837 12.011 0.00494658 0.00360182 0.000934818 
C 22.0512 18.67 31.0982 12.011 -0.000311698 -0.0032444 -0.00649829 
C 15.1932 38.1673 7.12078 12.011 0.00415682 0.00730263 -0.000368203 
C 11.2288 46.7762 28.9678 12.011 0.000328906 -0.00211105 -0.000392925 
C 0.638542 2.3135 39.3274 12.011 -6.23664e-05 -0.00345675 0.00227624 
C 42.0551 22.0847 11.6744 12.011 -0.00531443 -0.00308678 0.000935609 
C 43.4282 12.7776 16.7741 12.011 -0.00447954 0.00228544 4.51541e-05 
C 37.7447 8.54167 38.4213 12.011 0.00131928 -0.000517053 -0.00504389 
C 38.3179 22.4229 15.6334 12.011 0.00764618 0.00300702 0.00149871 
C 5.12926 44.4662 28.444 12.011 0.00815608 0.00298825 0.00264695 
C 9.11087 23.1488 15.1692 12.011 -0.00318038 -0.00170473 -0.000860864 
C 7.04377 10.5231 9.6471 12.011 0.00172329 0.00670676 -0.00423808 
C 15.93 35.7919 41.9262 12.011 -0.00753794 0.0063587 -0.00694972 
C 34.596 48.0638 19.3844 12.011 -0.00303789 -0.00465404 -0.00109933 
C 22.4191 35.1858 25.9525 12.011 -0.0152918 0.00316918 -0.00419349 
C 43.5242 23.5565 14.6788 12.011 -0.00101377 -0.00958583 -0.00204368 
C 23.8101 2.97772 0.994357 12.011 0.00734929 -0.00242168 -0.000714764 
C 14.8869 34.357 12.9562 12.011 0.00844865 0.00315712 0.00277588 
C 42.1341 49.6525 43.4844 12.011 -0.000398208 -0.00341465 0.00649903 
C 0.788893 7.12137 4.00968 12.011 -6.09774e-05 -0.000179032 6.95914e-05 
C 28.2534 32.0774 45.1245 12.011 -0.00258771 0.00624063 -0.00614759 
C 7.87646 0.942332 31.4607 12.011 0.000470933 -0.00458226 -0.00638021 
C 46.7258 48.9954 50.706 12.011 -0.00149842 0.00199494 0.00219786 
C 45.1007 11.3175 26.489 12.011 0.0018339 -0.00140075 0.00535507 
C 16.7757 21.1567 49.3992 12.011 -0.00457046 -0.00350116 -0.00310128 
C 46.2527 44.9196 40.1109 12.011 0.00389874 -0.00161082 0.00379345 
C 44.6696 31.7033 12.6403 12.011 -0.00524426 -0.00282642 0.00204145 
C 9.86209 9.07202 40.87 12.011 0.00538455 0.00488349 0.00731043 
C 25.0728 19.0953 19.6946 12.011 0.00265511 0.00325782 -0.00583651 
C 10.5429 35.7485 4.65086 12.011 -0.00218305 -0.00196864 0.000655525 
C 20.977 9.48714 32.3155 12.011 0.000207803 0.00431119 -0.00626647 
C 35.4013 38.4429 29.3567 12.011 0.00487564 -0.00210169 -0.00264042 
C 22.3411 15.4941 23.0453 12.011 -0.00121349 0.000668246 -0.00707872 
C 49.7209 4.83012 12.3277 12.011 -0.00152908 0.000895488 -0.00952992 
C 50.8709 26.3747 48.0207 12.011 0.00302315 0.00838395 -0.00440944 
C 24.1268 20.2529 6.39655 12.011 -0.0100167 -0.000822133 -0.00301739 
C 13.5946 25.3858 0.0795148 12.011 -0.0023255 0.00270255 -0.00123999 
C 40.47 37.3609 39.8919 12.011 -0.0032533 0.00152066 -0.00174506 
C 29.5343 13.7254 29.0078 12.011 -0.00210538 0.000337421 -0.00134136 
C 24.636 46.3533 44.1463 12.011 0.00238249 -0.00217971 -0.00485878 
C 0.530121 32.9116 19.3721 12.011 -0.00487608 -0.000943252 -0.00195894 
C 15.2293 3.60728 16.7936 12.011 0.000259591 -0.00385294 -0.000455098 
C 36.6981 13.9189 13.3801 12.011 0.00348076 0.00186526 -0.0039692 
C 34.1589 31.4837 45.5601 12.011 0.000163757 0.00143779 0.000907779 
C 16.2809 37.9544 43.0357 12.011 0.00594702 0.00457447 -0.00583908 
C 44.7255 12.3281 17.3299 12.011 -0.000242472 -0.00144302 0.00467702 
C 28.5202 30.4122 17.0952 12.011 -0.00821241 -0.00624083 0.0027661 
C 25.902 21.28 9.2686 12.011 0.0040123 0.00302026 0.00320066 
C 12.5167 10.3532 30.4891 12.011 -0.00767155 0.000550823 -0.00905715 
C 4.78652 20.3464 31.5807 12.011 0.0047118 0.00221123 0.00404842 
C 40.0637 40.7861 35.081 12.011 -0.00614704 0.00825812 -0.000330801 
C 40.1938 22.4737 20.2664 12.011 -0.00229845 0.00663933 -0.00322826 
C 42.8121 12.0916 15.5852 12.011 0.00028459 0.00543493 0.0109174 
C 48.7543 0.935505 36.5893 12.011 0.000870955 0.000721315 0.0103792 
C 21.226 31.3773 23.8544 12.011 -0.00387208 0.00298474 0.00144707 
C 1.37274 44.3493 35.7461 12.011 -0.00277156 -0.00301735 0.0069636 
C 21.3724 40.9896 13.2261 12.011 -0.000435923 0.00221221 -0.00329403 
C 17.5017 40.9823 33.0559 12.011 0.000693547 0.00084072 -0.00384919 
C 47.1121 41.7494 4.03327 12.011 0.000623196 0.00585098 -0.000976792 
C 39.0517 13.1974 21.9933 12.011 0.00187208 -0.00628234 0.00795258 
C 16.448 48.84 27.6301 12.011 0.00267636 -0.00158775 -0.00526536 
C 37.1412 49.0175 23.9572 12.011 0.00689751 0.00031166 0.0151163 
C 49.7287 36.822 4.5432 12.011 0.000792246 -0.00102478 0.00364345 
C 25.1614 44.9539 32.553 12.011 -0.00308142 0.000623899 -0.00220875 
C 26.977 43.5877 13.9969 12.011 0.000110753 -0.011183 0.0025327 
C 18.3508 8.98129 38.0689 12.011 -0.000630026 0.00675138 0.00646693 
C 5.81056 2.50586 38.3136 12.011 0.00340898 0.00406877 0.000692102 
C 8.90001 9.32545 8.62756 12.011 0.0010448 0.00232382 -0.00583756 
C 22.9512 4.85954 17.1881 12.011 0.00872637 0.00167804 0.00458537 
C 48.189 1.15374 22.837 12.011 0.00652368 -0.0033192 -0.00582734 
C 30.4052 5.76231 44.1812 12.011 0.00588684 -0.00554567 0.00176599 
C 41.2108 43.3655 25.5607 12.011 -0.0012525 -0.00525804 0.00756599 
C 22.4768 15.6992 2.18424 12.011 -0.000710749 0.00619274 -0.00290086 
C 25.0598 10.8863 29.1047 12.011 0.00418654 0.00293092 -0.00484609 
C 21.8364 39.2883 16.0447 12.011 -0.00285235 0.00081454 -0.00671133 
C 34.1338 47.2602 10.1583 12.011 0.00638086 0.0072069 0.00823073 
C 5.34673 34.4894 26.8693 12.011 -0.00212831 0.0083548 -0.00264562 
C 34.1263 24.2708 30.1319 12.011 -0.000284341 0.00408362 -0.00162241 
C 0.128429 5.7672 3.8355 12.011 -0.00470747 -0.00357513 -0.000854731 
C 6.46504 23.8418 28.3317 12.011 0.00371071 0.00106827 -0.00497507 
C 9.14785 24.5516 21.3866 12.011 0.000382452 -0.00663944 0.000638427 
C 11.7544 23.7113 44.5551 12.011 0.00484289 -0.000717002 -0.0114857 
C 21.9596 31.3057 32.2352 12.011 0.00020041 -0.00231876 -0.000360598 
C 23.1361 45.5972 31.3481 12.011 0.00377797 2.00181e-05 0.00246743 
C 27.0566 2.43847 40.4327 12.011 0.00298388 0.00951513 -0.00761938 
C 33.8006 23.464 6.08801 12.011 0.0111201 -0.00322322 0.00348418 
C 19.4986 19.426 8.10764 12.011 -0.00255515 0.00298716 0.00479915 
C 45.1732 45.6186 7.02029 12.011 0.00473875 -0.00127366 0.00300479 
C 32.5441 32.8749 0.540315 12.011 -0.00683811 -0.000245047 0.00103067 
C 15.702 33.6247 30.9736 12.011 -0.00502631 -0.00129569 -0.00374059 
C 23.3045 35.4102 41.3794 12.011 -0.00244956 -0.00486888 6.0124e-05 
C 12.9954 25.1494 46.322 12.011 0.000288519 0.00213181 -0.00590362 
C 41.5899 31.1495 46.9581 12.011 -0.00319468 0.00472224 -0.00262223 
C 48.8586 46.3571 1.1222 12.011 0.00381977 -0.00757605 0.00219848 
C 36.6723 23.8294 38.0948 12.011 0.00210106 0.00487232 -0.00260595 
C 29.8848 6.88539 47.7693 12.011 0.000430031 0.000769468 -0.00420142 
C 35.6837 23.1217 22.2479 12.011 0.00494576 -0.00668805 0.000948055 
C 47.4461 3.85421 11.9049 12.011 -0.00509706 0.00320102 -0.00319918 
C 33.7529 16.9356 3.43125 12.011 0.000525923 -0.00440636 -0.00696393 
C 33.0782 23.7974 31.0535 12.011 -0.00491503 -0.00153372 -0.0022066 
C 26.2647 39.0294 28.1779 12.011 -0.00692586 0.00186639 0.00807929 
C 5.73161 24.8177 29.1036 12.011 0.00160368 0.0074176 0.00231016 
C 40.963 7.16842 45.8835 12.011 -0.00534072 0.00371785 0.00291489 
C 25.918 1.58642 9.03123 12.011 0.00124995 -0.00670659 0.000203015 
C 16.3267 7.00008 16.2027 12.011 0.00362498 -0.0085516 0.0016936 
C 27.921 34.4108 30.2104 12.011 0.00441072 0.00405554 -0.00480415 
C 16.1148 34.9687 33.3919 12.011 -0.0035455 0.00265944 0.00158632 
C 38.2136 18.1467 50.8724 12.011 -0.00318162 -0.00216011 0.00528833 
C 18.2189 15.8809 3.80218 12.011 -0.00062669 0.00440259 0.00726819 
C 24.9379 32.6269 5.01344 12.011 -0.00300894 -0.00649678 -0.00354853 
C 41.736 39.9267 44.1338 12.011 -0.00107743 -0.00513181 0.00223275 
C 7.40437 13.6255 23.2441 12.011 -0.00226681 -0.00362428 -0.00673044 
C 4.554 38.378 7.25687 12.011 -0.000496989 0.00150136 0.000783499 
C 41.5749 16.9329 42.0017 12.011 0.00568605 -0.0063907 -0.00241875 
C 37.634 28.8876 23.4594 12.011 -0.00543878 0.00593411 0.00124461 
C 25.7969 21.6917 11.6735 12.011 0.0055906 -0.00741658 -0.00077786 
C 41.7272 48.2771 29.5444 12.011 -0.00114545 -0.00210427 -0.0078719 
C 13.88 11.83 25.1923 12.011 0.00887782 -1.68086e-05 -0.0104138 
C 20.7542 35.6464 19.3044 12.011 -0.0060745 -0.000708692 -0.00199902 
C 50.7391 36.658 12.6627 12.011 -0.00236993 0.00168076 0.000673009 
C 18.1115 0.0394776 0.51751 12.011 -0.00498317 -0.00217442 -0.000788323 
C 32.4763 45.2725 2.8014 12.011 -0.00268357 0.00595884 6.5307e-05 
C 19.8456 35.5763 23.4246 12.011 0.00351223 0.000441193 0.0003963 
C 36.8828 10.8409 39.967 12.011 -0.000142947 0.000970182 0.0107143 
C 31.4463 13.236 8.93517 12.011 -0.000815947 -0.00222282 0.00572097 
C 0.201173 45.7812 30.0563 12.011 -0.00175104 0.0107267 0.00892763 
C 11.7912 12.4025 46.8997 12.011 -0.00254913 -0.00545286 0.00159798 
C 3.16652 43.475 26.9988 12.011 0.00141781 -0.00648811 -0.00191729 
C 46.9061 7.93708 49.1412 12.011 0.00236105 -0.00575307 -0.00848432 
C 42.3432 33.4231 3.02329 12.011 -0.000559994 0.0073493 -0.00400572 
C 17.6109 43.9349 5.2107 12.011 0.0130388 -0.0106719 0.000575963 
C 13.395 14.1931 0.799761 12.011 -0.0046038 0.00746029 0.00172821 
C 33.9231 41.457 18.961 12.011 -0.00711026 -0.00555519 -0.00942724 
C 25.3067 31.7462 13.6045 12.011 -0.00016628 0.00309234 0.00166813 
C 27.095 16.8956 45.2267 12.011 -0.0033875 -0.0042767 -0.00653852 
C 43.7837 39.3883 42.7918 12.011 -0.000262718 -0.00696217 -0.00355491 
C 18.7544 7.42784 21.4226 12.011 0.00180984 -0.00103901 0.00646525 
C 36.2983 4.91749 43.9096 12.011 0.00509139 -0.000492093 0.00281686 
C 31.6406 37.7093 48.7988 12.011 0.00306681 0.00567194 0.00172233 
C 20.9306 50.1287 8.49398 12.011 -0.00734961 0.0106353 0.00766129 
C 30.9621 43.1536 15.3352 12.011 0.00272455 0.00645876 -0.000838693 
C 5.90032 9.64755 40.8375 12.011 0.00149607 -0.00402128 -0.000153033 
C 40.7662 42.4715 14.9174 12.011 0.000334941 0.00131361 -0.00349009 
C 2.31544 14.3156 47.4084 12.011 0.0067945 -0.000939182 -0.0033423 
C 17.3626 6.2999 30.5776 12.011 0.00571316 0.00197717 -0.000610807 
C 36.3425 25.2705 29.5439 12.011 0.00593866 0.00665044 0.000750206 
C 5.22423 1.27653 47.5151 12.011 -4.60582e-05 -0.000208433 0.000263351 
C 7.43592 35.6334 43.6729 12.011 0.00348302 0.00494716 -0.00144846 
C 40.2844 11.4898 23.38 12.011 -0.00723117 -0.0010454 0.00115034 
C 36.3984 41.3141 43.1055 12.011 0.000138798 0.00934159 0.00977145 
C 12.2248 24.6719 42.2973 12.011 0.00668925 -0.00781523 -0.00311712 
C 31.4409 8.01135 35.3912 12.011 0.0048804 -0.00393286 0.00540741 
C 15.7601 15.4632 41.0375 12.011 0.00401567 0.000672516 -0.00617068 
C 0.55224 4.12597 20.7499 12.011 5.75274e-05 0.00113152 -0.00917705 
C 32.0039 42.4048 37.3423 12.011 0.00524833 0.00020448 0.00601474 
C 31.9922 42.9643 1.82867 12.011 0.00479819 0.000606771 -0.000560015 
C 42.4602 22.1775 19.3674 12.011 0.00186236 0.000301715 -0.00379833 
C 38.6307 6.48227 29.8904 12.011 -0.00658278 0.00261552 0.00463636 
C 19.7721 12.7541 11.9217 12.011 0.00292559 -0.0033552 0.00554261 
C 2.65128 8.69839 3.98353 12.011 0.00699998 0.000795632 0.00657149 
C 8.80379 16.9623 16.8843 12.011 0.00270746 -0.00678762 0.00063519 
C 45.5496 12.9336 24.6084 12.011 0.00284065 -0.00155869 0.00308128 
C 29.7148 14.3567 7.69458 12.011 -0.00107146 -0.00254297 -0.00880557 
C 23.1668 16.8279 16.5792 12.011 -0.00231746 -0.00330428 -0.000811878 
C 48.2274 3.82228 42.4713 12.011 0.0018253 0.00830373 -0.0048974 
C 38.6868 40.986 34.7402 12.011 0.00111576 0.00648793 -0.00276981 
C 28.028 46.2601 41.289 12.011 -0.00152474 -0.00702253 -2.481e-05 
C 11.4576 32.2145 49.7731 12.011 0.00185168 0.00311822 0.00152844 
C 29.8761 23.4928 47.844 12.011 0.00101107 -0.00250237 -0.00258554 
C 30.2348 4.63049 46.1309 12.011 -0.000955216 -0.000734158 -0.00624318 
C 34.3802 43.4221 14.1127 12.011 0.00133638 -0.00211526 0.000514435 
C 26.7174 6.15826 22.0395 12.011 -0.00579405 0.00205955 -0.00255107 
C 43.6657 6.00629 20.1603 12.011 0.000150254 0.00712221 0.00824409 
C 29.4832 16.2313 17.5235 12.011 -0.000195154 0.00553322 -0.00199267 
C 9.05351 3.53911 23.1242 12.011 0.000186325 -0.00177587 -0.0101418 
C 9.04411 40.4364 39.3528 12.011 0.00258998 0.00478649 0.000606257 
C 12.2813 9.21579 23.2427 12.011 0.00399127 -0.0037905 0.00521476 
C 41.5017 22.2036 40.279 12.011 -0.00525115 -0.000672156 -0.000624864 
C 40.7053 11.6691 0.270149 12.011 0.00660837 0.00252632 0.000152135 
C 23.1111 10.4012 31.3485 12.011 -0.00598848 0.00329475 0.000925358 
C 22.2765 27.0295 29.7649 12.011 0.0020727 0.00364599 0.00211218 
C 20.977 39.149 17.0704 12.011 -0.00400069 -0.00174673 -0.000286204 
C 38.1955 38.4727 0.413501 12.011 -0.00928089 0.00143055 -0.000891515 
C 2.77422 13.9968 11.5988 12.011 0.00331611 -0.00717753 -0.000776707 
C 37.4628 17.8273 28.4505 12.011 0.00210778 0.000482875 0.00364815 
C 4.95218 16.7809 24.2773 12.011 0.00666031 0.000681972 0.00540938 
C 38.5852 13.8423 36.526 12.011 -0.00123309 -0.00364585 -0.00181869 
C 18.1263 21.0818 49.7195 12.011 -0.0103068 -0.0035394 -0.00078537 
C 2.8688 8.86441 35.3664 12.011 0.00671134 0.00759036 0.00861872 
C 13.5811 31.6404 38.3483 12.011 0.00211518 0.000391342 -0.00363292 
C 10.8698 37.4849 18.3557 12.011 0.00672923 0.00230553 -0.00564335 
C 9.96118 24.7643 34.0141 12.011 -0.00503572 0.00304841 -0.000621827 
C 14.1125 28.351 12.9174 12.011 0.00389204 0.00131726 0.00444401 
C 44.1193 34.7551 1.74997 12.011 0.00385073 -0.00384065 -0.00945451 
C 15.722 48.3652 30.7035 12.011 -0.00146368 -0.00363487 -0.00611277 
C 34.2418 9.81926 20.3401 12.011 0.00770856 -0.00252534 -0.00601105 
C 39.7916 3.68142 30.159 12.011 -0.00446964 0.00115466 0.000971753 
C 26.0174 32.6779 4.13013 12.011 -0.00368573 0.00538088 0.00578924 
C 19.4367 10.8037 39.4144 12.011 -0.00414087 0.00796833 0.000530081 
C 4.09132 36.3131 9.14346 12.011 0.00560902 -0.00119333 -0.00821079 
C 45.7132 24.287 1.83413 12.011 0.0043049 0.00335516 0.00124333 
C 11.9852 6.78533 3.1579 12.011 0.00369875 0.00103455 0.000591814 
C 8.0476 36.8735 6.48799 12.011 -0.00171409 -0.000747385 0.00076747 
C 8.29863 24.7533 24.9738 12.011 -0.00181508 -0.00128792 0.00193496 
C 3.98772 13.825 38.8478 12.011 -0.00679967 -0.00159267 -0.00580947 
C 2.23081 21.7125 43.3007 12.011 0.00396947 0.00180123 -9.98308e-05 
C 13.6992 11.2129 36.6254 12.011 0.000765673 0.00575183 -0.00146935 
C 10.6267 45.9389 24.0984 12.011 0.0100258 -0.00585916 0.00157366 
C 18.0325 27.8345 23.432 12.011 -0.00522364 -0.00170085 -0.00415633 
C 45.8561 45.4874 46.9475 12.011 -0.00642192 -0.00642327 -0.00188495 
C 41.1785 47.2911 8.90055 12.011 -0.00642807 0.00778401 0.00367268 
C 46.0685 36.8095 14.3509 12.011 0.00230782 0.0065343 -0.00539317 
C 27.0143 46.465 18.9889 12.011 -0.00961687 -0.000256719 -0.00535014 
C 10.6073 13.7385 48.4835 12.011 -0.00697832 0.000865839 -0.00591186 
C 16.5359 39.3238 42.4902 12.011 -0.00315752 -0.00711803 0.00314054 
C 23.8409 7.35593 42.842 12.011 -0.000333435 0.00321103 -0.00446503 
C 45.6472 39.036 5.89829 12.011 0.000711174 -0.00151584 0.000608161 
C 33.362 37.5415 38.7891 12.011 0.00209726 -0.00222235 -0.00283091 
C 29.3014 16.923 32.5611 12.011 0.00145394 -0.0035225 -0.00463301 
C 15.0069 0.622361 10.0115 12.011 0.0089971 -0.00356759 -0.000410969 
C 39.4632 20.7877 7.64893 12.011 0.00872448 -0.00200205 -0.00602983 
C 10.3236 9.67271 43.1645 12.011 0.0055331 0.0054509 -0.00188993 
C 45.1112 23.3258 36.9956 12.011 -0.00492207 -0.00146375 0.000544809 
C 40.5825 1.64736 16.7747 12.011 -0.00201309 -0.000653785 -0.0023953 
C 49.418 24.1903 34.3762 12.011 -0.00563872 0.00271849 0.00698972 
C 29.5164 42.8716 3.01014 12.011 -0.00307112 -0.00524256 -0.00839445 
C 41.3835 39.5423 39.3539 12.011 -0.00672137 0.00108299 0.000732723 
C 10.355 31.0904 42.4588 12.011 0.00162803 0.0012104 -0.0121189 
C 8.72623 7.14995 3.47672 12.011 -0.00261958 -0.00183894 -0.00353589 
C 23.2337 1.68965 49.9924 12.011 0.00682532 -0.000165923 0.00231378 
C 29.8808 29.1019 8.73553 12.011 0.00498007 0.000746333 0.00720088 
C 17.7276 36.5147 34.6004 12.011 -0.00297072 0.00451208 -0.00516425 
C 41.5706 32.4588 47.337 12.011 0.00414307 0.00281154 -0.00126978 
C 23.0516 44.1981 3.17451 12.011 -0.0074194 -0.00384885 0.00295559 
C 44.6581 46.3173 38.9287 12.011 0.00237789 -0.0065226 -0.00020057 
C 37.7164 12.8914 6.87707 12.011 0.00637707 -0.00442763 -0.0075185 
C 26.33 33.3588 43.2741 12.011 0.00422103 0.00315207 0.00178972 
C 36.3466 30.6371 43.9271 12.011 -0.00265784 0.00574233 -1.34575e-05 
C 50.1537 14.4862 31.0761 12.011 0.00427196 0.00374645 0.0110757 
C 14.7677 27.6692 42.2362 12.011 -0.00301411 -0.000548371 -0.00686565 
C 40.915 33.1325 27.4513 12.011 -0.00102103 0.00140747 0.00643201 
C 3.05553 41.879 37.9815 12.011 0.000542699 -0.00868286 -0.0023091 
C 26.3385 35.2404 36.6841 12.011 -0.00321434 -0.00014332 0.00229539 
C 35.1821 0.939883 38.1292 12.011 0.00052224 -0.00329752 -0.000826827 
C 24.3774 35.3925 29.8722 12.011 0.00317674 0.00046653 0.00217571 
C 21.9421 29.194 36.5501 12.011 -0.00514488 0.00262236 -0.0039007 
C 20.2818 10.1913 34.5112 12.011 0.00233448 0.00137624 -0.000901207 
C 39.834 29.2139 9.01476 12.011 -0.00209406 0.00129668 -0.00591272 
C 38.6004 23.0401 7.18433 12.011 -0.00277443 0.00393761 -0.0032424 
C 40.1835 5.03707 10.2493 12.011 -0.00654434 0.000497068 -0.00803319 
C 12.3793 27.4668 27.7667 12.011 -0.00297009 0.000269917 -0.00041462 
C 33.1666 35.884 23.7101 12.011 -0.000195952 0.00641208 -0.00265766 
C 27.7979 28.4447 20.0387 12.011 -0.00217931 0.00424309 5.79224e-05 
C 19.6415 5.23452 5.99594 12.011 0.00568797 -0.000634596 -0.00164809 
C 28.9288 50.2655 49.2724 12.011 0.00228606 -0.00593525 0.00482528 
C 46.5438 21.4084 46.009 12.011 0.0102013 0.0015204 0.00306323 
C 36.0315 9.15315 41.5889 12.011 0.000783401 0.00337191 -0.00295622 
C 14.9168 33.615 5.23995 12.011 0.00200308 0.00273826 -0.00104565 
C 21.3739 35.4645 49.8548 12.011 -0.00266675 -0.00148364 -0.005382 
C 7.67153 26.9471 4.93271 12.011 -0.000465662 -0.00774252 0.003092 
C 22.8299 41.9013 21.9167 12.011 -0.00836312 0.00600902 0.000961826 
C 6.19062 0.957402 3.6103 12.011 0.00481648 -0.00183773 -0.00248453 
C 15.3032 15.5632 1.23323 12.011 -0.00270535 -0.00384766 -0.00122779 
C 40.8107 9.37781 50.3897 12.011 0.00105976 0.00605263 -0.0012757 
C 15.5651 14.1689 38.8771 12.011 0.00133531 -0.00073123 0.0083385 
C 6.75888 35.8862 19.8201 12.011 0.000939545 -0.00488839 0.00271179 
C 50.9742 9.16443 36.6741 12.011 -0.00750965 0.00345697 0.00190699 
C 30.8237 4.30048 42.4855 12.011 -0.0116954 0.00311335 -0.00312592 
C 20.9554 8.50908 31.2718 12.011 0.00473556 -0.00447751 0.00156912 
C 10.4955 30.6799 15.4254 12.011 0.00734756 0.00522574 0.00285551 
C 2.15768 26.1418 37.8083 12.011 0.00381442 -0.00014641 -0.000358031 
C 37.5164 12.7692 13.2865 12.011 0.00455499 -0.0048677 -9.47766e-05 
C 2.75755 47.2216 48.1483 12.011 -0.00197104 -0.00262356 -0.00200909 
C 48.0857 24.4409 13.1467 12.011 0.00665425 0.000507487 0.00248899 
C 41.8126 21.0567 21.5447 12.011 -0.00068663 -0.00610265 0.00276696 
C 9.5883 31.4949 0.291703 12.011 -0.00293137 0.00675242 -0.000484459 
C 31.9132 34.7632 27.0274 12.011 -0.00635365 0.00224595 -0.000440664 
C 43.1888 26.3882 28.8808 12.011 -0.000650788 -0.00279939 0.00794496 
C 13.6168 3.18924 37.7523 12.011 -0.00323305 0.00340409 -0.00347962 
C 36.0713 28.3938 8.81643 12.011 -0.00318986 0.00573946 -0.00843839 
C 23.0291 0.373433 47.947 12.011 0.0046096 -0.00698033 -0.00165739 
C 49.8262 28.1523 4.30671 12.011 0.00145738 0.0125577 0.0023933 
C 17.3222 37.8807 12.8929 12.011 -0.00239103 0.00373148 -0.00564056 
C 42.7542 3.53454 16.3364 12.011 0.00962645 0.00484577 0.00170477 
C 23.4272 47.6728 45.8925 12.011 -0.00234858 -0.00215294 0.00201662 
C 19.2753 47.2507 20.8314 12.011 0.00323422 -0.00437753 -0.00459712 
C 1.27534 27.3551 39.7304 12.011 -0.0023216 0.0109794 -0.00672519 
C 39.8734 9.36717 12.4862 12.011 0.00249704 0.00125029 -0.00438873 
C 14.1337 21.1058 7.19329 12.011 0.00554202 0.00259952 -0.00454616 
C 44.4916 7.54759 11.6769 12.011 -0.00232878 -0.00383265 0.00289769 
C 4.66812 18.4663 29.3964 12.011 0.00426274 0.00291136 -0.00298338 
C 25.7453 19.2989 22.1462 12.011 0.000743438 -0.000716151 -0.0022899 
C 9.72904 30.9426 10.2153 12.011 0.0014849 -0.000951648 0.00484082 
C 11.3001 3.08672 19.0723 12.011 -0.00535286 -0.00326193 0.00560673 
C 28.0906 40.0052 24.5001 12.011 -0.00506086 -0.00024175 0.000499041 
C 33.8188 33.4456 6.49657 12.011 0.0100284 0.00631091 0.00258479 
C 42.9283 2.72971 47.9359 12.011 0.000873364 0.000726968 0.00572184 
C 21.5046 28.502 18.6749 12.011 -0.00402132 -0.00469607 0.00418883 
C 43.6524 50.0515 34.9049 12.011 0.00482442 0.000790251 0.003201 
C 19.756 29.9658 19.8171 12.011 0.00130922 -0.000931554 -0.00610558 
C 19.5311 30.8587 25.4119 12.011 -0.00264199 0.000557898 0.00307284 
C 22.1076 10.4165 32.3887 12.011 -0.00584475 -0.0040218 0.00297767 
C 21.4241 2.95577 10.1247 12.011 0.00236372 -0.00157411 -0.00229011 
C 26.3802 30.5819 20.141 12.011 0.0024293 -0.00299676 -0.003062 
C 41.6783 32.4923 18.3557 12.011 -0.00247429 0.00325856 0.00372831 
C 11.0856 22.739 45.3386 12.011 0.00130495 -0.00400987 -0.00026394 
C 0.0221145 32.5644 24.8662 12.011 -0.00268181 -0.00360671 -0.00275262 
C 30.4139 43.671 28.1384 12.011 -0.00207215 0.00163246 0.00151892 
C 46.0022 10.209 14.6278 12.011 -0.00228649 0.00336923 -0.00828884 
C 26.1975 13.4497 31.5231 12.011 0.00129849 0.00288842 -0.0130312 
C 20.9417 14.329 19.8064 12.011 0.00381008 -0.00389488 -0.000829217 
C 21.494 41.7262 22.3612 12.011 0.00232665 -0.00650118 0.007158 
C 37.1123 10.5281 6.374 12.011 0.000695327 0.00526151 0.00944899 
C 46.7204 14.209 45.0343 12.011 -0.000792142 0.008539 0.00171259 
C 48.8408 31.3128 33.511 12.011 0.000441295 -0.00518807 -0.00661917 
C 30.8449 0.44098 31.1287 12.011 0.00181385 0.00449276 -0.00796064 
C 11.3919 24.7286 9.11369 12.011 -0.00830453 0.000642014 0.0101202 
C 20.3141 20.7909 46.571 12.011 0.000136825 -0.000172607 0.00632335 
C 45.7914 39.5552 49.5981 12.011 0.0040913 -0.000269099 -0.00343093 
C 23.2132 46.6455 24.1881 12.011 -0.000366908 -0.00184038 0.00386211 
C 16.5456 48.8422 4.3629 12.011 0.00975875 -0.00741057 0.00225297 
C 40.5279 30.5492 38.9336 12.011 -0.00447886 -0.00348569 0.00476018 
C 2.2411 12.8994 31.8163 12.011 -0.00339533 -0.00129217 -0.00976452 
C 20.2254 40.5288 30.677 12.011 -0.00535825 0.00656671 0.00310784 
C 45.6973 37.5578 9.3349 12.011 -0.000552893 0.00434393 -0.00514565 
C 25.3623 48.7758 4.40134 12.011 -0.00252087 0.00211595 -0.000219792 
C 24.5951 42.8774 17.8843 12.011 0.00104096 0.0063043 0.00155832 
C 43.5293 26.442 35.3973 12.011 0.00556316 -0.00214247 0.0043528 
C 10.0738 20.4194 46.6751 12.011 0.000137542 0.00640131 -0.00647525 
C 33.2132 27.451 18.3094 12.011 -9.11023e-05 -0.00417978 -0.00600125 
C 35.6052 35.0858 50.9764 12.011 0.00230318 0.00910871 0.00575366 
C 47.5486 13.2238 45.523 12.011 0.00224709 -0.000539962 0.0120743 
C 32.4955 3.51069 25.7078 12.011 0.000654201 -0.00106959 0.0129054 
C 4.45775 47.7885 14.814 12.011 -0.00482746 -0.00151972 -0.00749608 
C 30.1948 0.484287 39.8542 12.011 -0.00295994 0.00246532 -0.00304313 
C 23.4593 33.6018 6.74156 12.011 0.0080148 0.00482138 -0.00321216 
C 45.064 32.4388 20.1217 12.011 0.00118243 -0.00498344 0.00285614 
C 41.2731 2.0644 28.9478 12.011 0.00672528 -0.00849945 -0.00371981 
C 30.4058 6.63545 43.0674 12.011 -0.000840569 0.00276273 0.000869632 
C 20.4048 3.94004 10.0097 12.011 0.00404371 0.00333255 0.00327975 
C 1.06041 8.2115 13.9468 12.011 -0.00213211 0.00277161 -0.00747543 
C 50.9549 1.39266 37.1427 12.011 -0.00254322 0.00392189 -0.00209747 
C 22.6136 38.2274 15.6426 12.011 0.00308398 0.00174244 0.000894853 
C 31.3195 22.5259 49.5325 12.011 -0.000918417 0.00911151 0.000945484 
C 3.9889 13.9234 27.6807 12.011 -0.0103214 -0.000640296 0.00085742 
C 34.5387 39.6666 49.6727 12.011 -0.00671981 -0.00576385 0.00287887 
C 16.6017 21.8329 3.31248 12.011 -0.00371183 0.00130196 0.000638583 
C 20.294 17.3138 30.1069 12.011 -0.0041692 0.00350785 0.00371815 
C 37.892 39.8641 34.3811 12.011 -0.00141475 0.00204708 0.00660366 
C 48.9803 19.1009 28.964 12.011 0.00407236 -0.00090947 0.00260798 
C 10.1745 36.6969 25.1242 12.011 0.00194102 -0.00185534 0.0071187 
C 43.4745 6.00051 22.525 12.011 -0.00380882 -0.00497152 -0.00356212 
C 13.3266 45.361 18.2467 12.011 -0.00268947 -0.00150296 0.0034994 
C 35.0503 45.4362 11.1415 12.011 0.0041303 -0.00480882 0.000944745 
C 8.94858 45.6737 31.8729 12.011 -0.00115286 0.00391687 -0.00134687 
C 35.5665 29.1632 1.27464 12.011 -0.00232792 -0.00336513 -0.00261358 
C 17.7402 48.1498 4.08529 12.011 7.56112e-05 -0.00084171 0.00689137 
C 34.6468 1.5047 40.5957 12.011 0.00253699 -0.00667534 0.00755918 
C 3.94584 42.5032 4.55683 12.011 -0.001042 0.000354182 0.00986778 
C 5.30384 37.6413 16.0178 12.011 0.00642245 -0.0102432 0.00257462 
C 21.0826 50.9693 6.16168 12.011 0.00503926 0.00679746 -0.00279223 
C 2.83417 13.0378 34.2523 12.011 0.00131803 0.00890531 -0.000775504 
C 8.07938 20.1666 44.9978 12.011 0.000877152 0.00777831 -0.00823492 
C 18.2726 38.6728 38.3237 12.011 -0.00451513 -0.00569763 0.00213406 
C 6.64801 7.27647 33.1672 12.011 -0.00686005 -0.00353099 0.000225639 
C 44.3749 1.38326 49.5002 12.011 -0.0045986 0.00907994 0.0106367 
C 12.8566 38.6527 18.1001 12.011 0.000316092 -0.00379166 0.00376545 
C 14.5465 3.42378 5.22058 12.011 0.00514861 -0.00145754 -0.00807258 
C 15.4842 21.1187 9.9588 12.011 0.00225001 -0.00124258 -0.00352309 
C 1.24311 0.207064 3.45209 12.011 0.00706491 0.000222491 -0.00644645 
C 20.6698 5.43519 50.8233 12.011 -0.00416375 -0.00557587 0.00562294 
C 47.4508 37.2858 31.2952 12.011 0.00780201 0.00657382 0.00853082 
C 11.8952 0.850384 18.9134 12.011 -0.00223062 -0.00951251 0.00654158 
C 7.3597 19.3248 34.9005 12.011 -0.00124843 0.000711751 0.0016718 
C 25.5373 48.5943 6.85517 12.011 0.00573394 -0.00777235 0.00423585 
C 11.9786 21.663 12.7904 12.011 -0.00359576 0.00246269 -0.00670384 
C 6.55913 28.0849 11.4141 12.011 0.00374311 0.00370058 0.00613489 
C 21.8007 26.2696 19.5329 12.011 0.00760371 0.00727788 -0.00414474 
C 15.1925 43.1965 43.3477 12.011 0.000977772 0.0037453 -0.00504124 
C 25.0811 34.8515 26.3915 12.011 -0.00207251 -0.00195939 0.000550698 
C 35.6209 30.2743 17.595 12.011 -0.00205002 -0.00461983 0.000829783 
C 8.65178 26.7148 16.2601 12.011 -0.0041706 0.000550363 -0.00192106 
C 3.31191 17.0919 2.39049 12.011 -0.000505223 0.00351367 0.00249282 
C 6.44884 49.1317 3.15974 12.011 -0.00190903 -0.00707099 -0.00204845 
C 46.1722 7.36182 27.8944 12.011 0.00535946 -0.00762485 -0.00523458 
C 10.1594 6.76231 47.8663 12.011 0.00194859 -0.00890361 -0.00126915 
C 33.7856 41.6916 0.462266 12.011 -0.0062579 0.00362767 -0.000790809 
C 17.4632 30.8293 10.3638 12.011 -0.00824938 0.000630168 -0.00585746 
C 49.0095 15.1875 43.4183 12.011 -0.012496 0.000269945 -0.00249505 
C 29.2133 40.6899 22.1169 12.011 -0.00625735 0.00452657 0.00720571 
C 39.3167 49.7271 47.4563 12.011 -0.00505414 0.000789117 -0.00129386 
C 12.017 34.8314 2.82231 12.011 0.00216987 0.00348741 0.00135754 
C 32.7503 26.9131 49.1792 12.011 0.00278813 0.00684965 -0.00151773 
C 45.8459 47.7205 48.7273 12.011 -0.00304108 -0.00774926 -0.00599536 
C 24.3721 17.0773 40.3516 12.011 -0.000282157 0.00174351 -0.000323891 
C 32.1853 13.1768 19.945 12.011 -0.00169643 -0.00225273 0.00326691 
C 45.868 14.2478 49.2232 12.011 -7.32664e-05 -0.0026945 -0.0125389 
C 29.878 44.6373 23.6254 12.011 0.00212154 -0.00465512 -0.0023318 
C 7.20333 27.7203 35.7807 12.011 -0.00410614 0.000242487 -0.00683222 
C 24.0307 4.11986 16.5197 12.011 -0.000572592 -0.00441787 -0.00126855 
C 42.7969 50.0477 6.97726 12.011 -0.00275505 0.00278948 0.000766871 
C 50.7277 11.4672 44.474 12.011 -0.000577278 0.000463021 -0.00468202 
C 46.4275 22.4515 29.592 12.011 -0.00209958 -0.00317408 0.00568867 
C 40.1635 40.4365 0.720652 12.011 0.000862006 -0.000764699 -0.00848863 
C 1.7359 20.3911 23.9436 12.011 -0.00192293 0.00112453 -0.00518219 
C 34.1886 33.2302 2.33372 12.011 0.00415886 0.00288403 0.0021489 
C 5.60683 37.3662 7.45286 12.011 -0.00245442 0.00132376 -0.00831717 
C 9.20173 30.4082 15.8386 12.011 0.00235977 0.00602454 -0.00358209 
C 34.7517 0.849223 41.9024 12.011 -0.00438983 -0.00539143 0.00213991 
C 37.5454 50.0255 45.721 12.011 0.00290982 -0.00148037 -0.000266467 
C 34.7486 22.8789 23.2998 12.011 0.00120768 0.00616862 0.0023094 
C 16.8519 6.55958 33.0634 12.011 -0.00533159 -0.00331078 0.00216392 
C 40.0811 7.20061 11.4221 12.011 0.000757103 -0.00554192 0.000170588 
C 35.2736 34.1437 34.2478 12.011 0.00645762 0.00386128 -0.000832959 
C 0.780594 18.7384 14.3427 12.011 0.00370573 -0.000597816 0.00505305 
C 0.215692 38.6314 45.0013 12.011 0.00582793 0.00413534 0.000634548 
C 33.9138 17.9978 30.2703 12.011 -0.010725 0.000980428 -0.0023156 
C 50.566 19.4587 5.98349 12.011 -0.00345344 0.000214469 -4.69271e-05 
C 44.8195 2.94354 32.9748 12.011 0.00749347 0.00257179 -0.00367883 
C 22.8571 45.2344 36.0531 12.011 0.000471201 -0.00431044 -0.00415391 
C 13.1785 11.8562 50.9287 12.011 0.000408759 -0.00136792 -0.00417994 
C 47.2087 23.7812 14.1099 12.011 0.00160002 -0.0106046 -0.000425633 
C 16.2394 44.3713 35.7756 12.011 0.00551213 5.66941e-05 -0.000259419 
C 17.2074 4.18157 41.4252 12.011 -0.001152 5.49112e-05 0.00213383 
C 28.2166 37.007 18.6801 12.011 0.00018467 -0.00483674 0.00337701 
C 34.7362 18.3291 27.9306 12.011 -0.00376906 -0.00031576 -0.00837694 
C 37.3258 46.1798 28.1537 12.011 -0.00815361 0.00525014 -0.00300188 
C 24.2034 35.2517 27.4515 12.011 -0.00487627 0.000395918 -0.00402883 
C 42.5114 15.5605 2.55173 12.011 0.00466776 0.00419101 -0.00323671 
C 50.087 39.5592 21.9704 12.011 -0.00622862 -0.00195572 -0.00644266 
C 13.5255 32.4111 34.6888 12.011 -0.00475601 -0.0026984 0.000922222 
C 24.8534 20.1248 13.2931 12.011 0.000888789 -0.00508613 -0.0035994 
C 40.1087 44.5029 11.1634 12.011 0.00576917 0.0054644 0.00511006 
C 6.89135 9.06104 27.9055 12.011 0.00149862 0.0082698 0.00109342 
C 10.2753 11.2342 48.5536 12.011 0.00206375 -0.00239037 0.00460832 
C 35.9568 30.3297 10.9676 12.011 -0.000976955 -0.00556396 0.00257645 
C 30.5317 36.1969 14.3349 12.011 0.000254048 0.00152241 0.00227323 
C 26.1492 42.3685 10.0296 12.011 -0.000557579 -0.000213055 -0.00605631 
C 41.8349 36.4421 13.4202 12.011 0.00953706 -0.00459581 -0.0004085 
C 7.77777 9.13522 44.6561 12.011 -0.00531919 -0.00567117 -0.00370794 
C 8.70558 28.8047 39.1467 12.011 -0.00523555 0.0033234 -0.00552359 
C 35.9793 12.8109 27.5748 12.011 0.00200666 -0.00283723 -0.00541565 
C 45.2305 42.8826 19.1791 12.011 0.00174303 -0.00336555 -0.00364278 
C 49.5917 36.861 35.9408 12.011 0.00409434 0.00156247 -0.00559259 
C 13.4224 13.4427 43.6013 12.011 0.00385639 0.00275553 -0.000113093 
C 23.7155 33.7341 15.3961 12.011 -0.00493978 0.00282173 -0.00645461 
C 45.2168 8.09846 28.611 12.011 -0.00348707 0.000467743 0.0038172 
C 11.2355 36.4112 27.2561 12.011 -0.000572917 -0.00191712 -0.0043799 
C 44.5026 43.7783 22.6661 12.011 -0.00128514 -0.000348647 -0.000680227 
C 48.7902 29.842 25.0836 12.011 0.0008093 0.00293444 0.00180366 
C 50.5009 38.1454 19.4612 12.011 0.00714538 0.00243385 0.00653037 
C 12.2801 12.3679 45.5402 12.011 -0.00531688 0.00514051 0.00518965 
C 49.2575 23.8383 25.6214 12.011 0.00408945 -0.00302899 -0.0113496 
C 20.8537 16.038 25.3339 12.011 -0.00191977 0.00234189 -0.00029596 
C 44.1551 5.10066 32.6024 12.011 -0.00118024 -0.0103042 0.00336545 
C 48.8614 18.6672 1.74155 12.011 -0.000623102 -0.00642853 0.00128534 
C 38.4771 20.0305 14.9368 12.011 0.00167464 -0.00985414 -4.28105e-05 
C 21.5293 34.5717 45.1825 12.011 -0.00387182 0.00246625 -0.000538898 
C 25.5653 15.4574 5.0887 12.011 0.000137893 -0.00154888 -0.000958131 
C 1.52443 4.70326 12.4914 12.011 0.00702538 -0.00299412 -0.0039662 
C 40.4779 20.9058 37.1694 12.011 -0.0041838 -0.000199944 -0.00255249 
C 26.3572 35.1423 21.2667 12.011 -0.0017311 0.0104324 -0.0064056 
C 15.4807 31.2447 28.0484 12.011 -0.00583326 -0.00146462 -0.00231971 
C 10.0598 41.4995 17.4829 12.011 -0.00105133 0.00113614 0.00794362 
C 32.1135 29.2533 17.0749 12.011 0.00666728 0.000933775 0.00350318 
C 25.1944 45.4458 27.6685 12.011 0.00174653 -0.000748462 -0.00758337 
C 15.3044 4.90749 36.7398 12.011 0.000212563 -0.00273426 -0.000734076 
C 9.69781 26.2029 46.5651 12.011 -0.00185783 0.00688796 0.00451182 
C 13.9106 1.81615 39.7113 12.011 0.00870963 -0.00518575 -0.00628587 
C 49.0758 15.818 7.45347 12.011 0.00110836 0.00019848 -0.00234698 
C 6.99306 9.65477 49.23 12.011 0.00951448 0.00664069 -0.00268826 
C 18.5723 36.4368 33.4297 12.011 0.00138627 -0.00102692 -0.000941562 
C 26.7653 46.2393 42.0685 12.011 -0.00510057 0.00267341 -0.00650323 
C 49.7153 9.34858 14.0802 12.011 -0.00788056 0.000297223 -0.00601912 
C 20.0037 47.9216 28.2627 12.011 -0.0044484 -0.00993537 -0.00151877 
C 28.3094 22.3458 38.2584 12.011 -2.33556e-05 0.00682485 -0.0042002 
C 50.2174 36.7709 27.8663 12.011 -0.000129127 -1.92903e-05 0.0028153 
C 9.48 8.38212 17.5353 12.011 0.00305537 -0.00328771 0.00339743 
C 11.9491 46.0736 21.5964 12.011 0.000601722 0.00949203 0.00345829 
C 47.4008 38.7109 7.47864 12.011 -0.00554931 -0.00621902 -0.00101574 
C 13.4629 47.5374 22.7713 12.011 0.00646319 -0.00169119 -0.00546453 
C 15.242 44.4024 50.242 12.011 -0.00350148 0.000162698 0.00424198 
C 30.0428 2.02962 46.9308 12.011 -0.00188116 0.00510683 0.00258051 
C 30.0306 12.3675 19.0622 12.011 -0.00252918 -0.00514616 -0.00400233 
C 15.0258 13.0555 50.2687 12.011 0.0029429 0.00303018 -0.00187947 
C 26.9696 15.9386 11.1327 12.011 0.00184038 -0.00626404 -0.00186573 
C 36.9013 50.3727 23.4716 12.011 -0.0032737 0.000135964 -5.4394e-05 
C 50.4055 0.00497764 23.1955 12.011 -0.000801616 0.00341314 0.0073615 
C 24.44 27.7912 15.5919 12.011 -0.0047831 -0.00431841 -0.000542209 
C 17.8709 0.868903 7.82181 12.011 0.00131724 -0.000353232 0.00443311 
C 19.739 4.52085 11.1093 12.011 0.00333809 -0.00146505 -0.00591145 
C 26.6025 4.50159 28.0756 12.011 -0.00599617 -0.00410341 -0.0031976 
C 2.51336 16.6055 40.4372 12.011 0.00159258 -0.00450352 0.00474303 
C 41.7688 26.7657 3.25805 12.011 0.00335719 0.00605628 -0.0013623 
C 19.7687 8.86805 16.2053 12.011 0.000719833 0.00237739 -0.00508011 
C 3.28915 22.2414 40.9087 12.011 0.00576207 -0.00289538 0.00212719 
C 13.2816 3.52048 5.87128 12.011 0.003975 -0.0026207 -0.00825653 
C 16.4739 46.1815 16.7401 12.011 -0.00302615 0.000767994 0.00145621 
C 48.1653 17.8531 31.0227 12.011 0.00767564 0.000167688 -0.00176627 
C 25.2675 12.7842 41.8946 12.011 0.00382469 0.00109319 0.00233067 
C 27.6851 47.492 10.4805 12.011 -0.00407631 0.00697568 -0.00674265 
C 19.7998 16.7144 28.8618 12.011 -0.00655765 0.00394769 0.00244049 
C 38.9698 11.0033 7.69142 12.011 0.0039538 -0.00301235 0.00100424 
C 15.8739 2.53097 40.5974 12.011 0.0024006 0.00533992 -0.00131287 
C 31.0466 36.6446 15.5987 12.011 0.000810827 -0.00372401 -0.00216619 
C 37.0668 1.1345 21.8669 12.011 -0.00807586 -0.00109613 -0.00144234 
C 4.0223 17.2442 37.1697 12.011 -0.00215562 0.00308861 0.00990603 
C 27.8957 21.8442 4.24132 12.011 -0.00293618 0.000148549 0.00678112 
C 29.4011 37.9576 40.2266 12.011 0.00527506 0.000899895 -0.000148649 
C 40.1808 42.7353 26.1685 12.011 -0.0013015 -0.00258313 0.0023119 
C 9.57052 15.9216 2.74987 12.011 0.000995785 0.0067996 0.000180319 
C 32.5531 22.5471 50.24 12.011 0.00163883 0.0020206 0.0036931 
C 2.7569 27.2603 25.7454 12.011 0.00740237 -0.00085164 0.00384006 
C 23.8671 25.6326 26.7684 12.011 -0.00688971 -0.00439866 -0.0023555 
C 10.8604 5.90264 7.22321 12.011 -0.0010759 -0.00470765 -0.00148735 
C 4.83442 15.667 25.0737 12.011 -0.00466671 0.00361348 0.00195097 
C 42.9619 5.40689 7.80964 12.011 -0.00128291 0.000737947 -0.00286323 
C 13.9575 27.718 25.8592 12.011 0.00122928 -0.0020035 -0.00543635 
C 34.3337 18.1611 38.0711 12.011 0.00527783 0.00103299 0.0078509 
C 50.2777 22.2308 14.5643 12.011 -0.00505791 0.000652662 -5.66443e-05 
C 16.2097 11.3602 48.9771 12.011 0.00324145 -0.000113643 -0.00414024 
C 13.5861 30.9734 29.5673 12.011 0.00244331 -0.00651681 0.0022858 
C 21.4016 32.8832 39.3656 12.011 0.00501094 0.00078224 -0.00182542 
C 31.749 31.38 46.0435 12.011 -0.00611174 -0.000690676 0.000266574 
C 5.17726 20.77 30.2942 12.011 0.00158169 0.0023488 -0.00219967 
C 35.8973 12.2124 41.9397 12.011 0.000819596 -0.00687387 0.00123023 
C 3.46101 8.94666 30.4557 12.011 -0.000391734 0.003887 0.00574761 
C 38.4126 45.8575 34.1918 12.011 -0.00109012 -0.00570459 -0.00221945 
C 29.3843 18.4761 22.8292 12.011 0.0079409 0.00813026 0.00119722 
C 50.7743 2.1192 3.15931 12.011 -0.00149545 -0.0138572 0.00156644 
C 23.8638 3.96857 3.26992 12.011 0.00352436 -0.000949726 0.00225276 
C 44.8814 41.9474 31.4995 12.011 0.00785104 -0.00424826 0.00150877 
C 41.7375 17.1185 45.6126 12.011 0.00872781 -0.00790555 -0.00145323 
C 49.7387 14.6876 12.1311 12.011 -0.00233127 -0.00398285 0.00615942 
C 1.48712 28.5704 11.4023 12.011 0.00557838 -0.00253849 -0.00215889 
C 16.3774 6.77538 9.69226 12.011 -0.00619553 -0.00524776 0.00613327 
C 29.1093 24.1724 6.91668 12.011 -0.00497693 -0.00401877 -3.29812e-05 
C 29.3381 34.3095 30.3853 12.011 0.00477522 -0.00588704 0.00393009 
C 49.2173 42.8933 41.3811 12.011 -0.00675982 -0.00491005 0.00352913 
C 32.3021 17.9353 15.0529 12.011 0.00298878 -0.00705296 -0.00395796 
C 40.6848 32.665 13.4749 12.011 0.000430623 0.000398935 -0.000817588 
C 23.8452 42.9474 42.7037 12.011 -0.000329938 0.00133372 0.000787009 
C 24.219 18.4962 27.4634 12.011 0.00387007 -0.00741527 0.007293 
C 2.79657 17.6637 6.71372 12.011 0.00448451 -0.00169066 -0.00401893 
C 38.5451 26.9331 27.8513 12.011 -0.00060396 0.00529581 -0.00119472 
C 6.85749 49.9606 47.2467 12.011 -0.0070297 0.00150292 -0.00144335 
C 25.6884 31.4886 20.8925 12.011 0.00255734 0.00207974 -0.000599702 
C 21.9984 7.20135 29.4629 12.011 0.00110638 0.00638196 -0.00121284 
C 43.9525 46.1119 7.71467 12.011 0.00494232 0.00901411 -0.0022477 
C 25.0673 4.52523 40.6385 12.011 0.00171927 -0.00507893 0.00183276 
C 26.2197 28.5891 44.2762 12.011 0.00450972 0.0019131 -0.00388577 
C 19.8672 41.5322 15.2581 12.011 -0.00681135 -0.00465076 -0.00351846 
C 46.9695 39.7742 25.9956 12.011 0.00103801 -0.00816609 2.19424e-05 
C 23.3324 47.1909 15.4029 12.011 0.000928376 0.00354764 0.00115181 
C 28.6356 23.0646 23.4668 12.011 0.000300665 -0.00017762 -0.00040958 
C 46.7545 38.7148 48.9625 12.011 0.00691432 -0.0021554 -0.00386072 
C 25.408 34.623 35.8064 12.011 -0.00483364 0.00909462 -0.0066552 
C 37.362 25.3121 40.2817 12.011 0.00139827 -0.00866654 0.00148937 
C 17.9115 8.63532 18.3522 12.011 -0.00513632 -7.23304e-05 0.000306398 
C 28.9842 12.305 49.2811 12.011 -0.00680494 -0.00521691 -0.00717599 
C 38.971 50.8105 32.8773 12.011 -0.00549012 -0.00161176 0.00826458 
C 31.5136 28.674 1.27535 12.011 -0.00636633 -0.00258745 0.00645555 
C 36.4309 39.603 41.2018 12.011 0.00550076 -0.00302162 0.000135652 
C 30.6953 37.0185 0.233761 12.011 0.00116487 -0.00494045 -0.0012432 
C 21.523 2.5602 11.4612 12.011 -0.00802117 0.00435232 -0.00284696 
C 38.5601 34.7799 44.8352 12.011 -0.000268233 -0.00229663 0.00694537 
C 10.1757 43.0163 36.6765 12.011 0.000132394 0.00633771 -0.00753342 
C 35.8232 25.6091 28.2791 12.011 0.00132001 0.00562524 -0.00647308 
C 26.9527 47.4883 14.2984 12.011 0.00148686 -0.00238094 0.00725696 
C 40.3022 2.29254 30.0997 12.011 -0.00278647 0.000991729 0.00262628 
C 16.3271 45.3439 49.9298 12.011 0.00324619 -0.00220137 0.000838177 
C 10.9118 7.11758 23.0798 12.011 0.000335206 0.000560262 -0.00809171 
C 17.9133 10.7518 46.8193 12.011 0.00840804 0.00172166 0.00625877 
C 43.1305 12.5312 29.5995 12.011 0.00382227 0.00578593 0.00203788 
C 31.7998 23.4417 30.7523 12.011 0.0062898 -0.00565027 0.0076846 
C 15.9678 4.70732 16.6356 12.011 -0.00962232 -0.00123543 0.000489621 
C 42.7675 49.8225 27.8423 12.011 0.00248079 -0.00375679 0.0026663 
C 24.6737 22.4287 17.8827 12.011 0.00436958 -0.00114542 0.00159972 
C 40.1037 26.2359 29.5804 12.011 -0.00198942 -0.00991541 -0.00322224 
C 3.07737 26.7753 11.8954 12.011 0.00285262 -0.00333962 0.00238472 
C 24.0846 16.552 20.1946 12.011 -0.00126918 0.00345806 -0.00241152 
C 42.7975 12.1057 4.13074 12.011 0.00541256 0.000920415 -0.005494 
C 12.2174 29.3356 36.5222 12.011 -0.0011071 -0.000713345 0.00355487 
C 46.1526 15.3826 11.6026 12.011 -0.00411303 -0.0041236 -0.00177645 
C 5.37947 33.8442 46.096 12.011 0.00695399 -0.00671291 0.000524065 
C 6.44046 27.617 32.1458 12.011 -0.000473537 -0.00583398 0.00501266 
C 31.9183 18.2772 38.6304 12.011 0.00349447 -0.00298008 0.00546992 
C 13.2372 25.574 42.7634 12.011 7.59806e-05 0.00128089 -0.00719974 
C 42.6475 24.0234 38.4715 12.011 0.00483381 0.00323279 -0.00254917 
C 33.1181 25.5225 42.1799 12.011 -0.00426102 -0.000145847 0.00322148 
C 38.6907 46.1525 3.39 12.011 -0.00450744 0.00316564 -0.00200781 
C 35.9288 30.9394 12.3089 12.011 0.00193782 -0.00528484 0.00132196 
C 11.4981 9.89935 29.5608 12.011 -0.000459668 5.5749e-05 -0.00280929 
C 17.5664 15.5118 0.21086 12.011 0.00252231 0.00338676 -0.00582221 
C 3.90704 37.6266 16.4895 12.011 0.00379929 0.00289848 0.00480089 
C 25.8287 45.7374 23.9488 12.011 0.00809629 -0.00185651 0.00819286 
C 40.5665 19.3363 39.2569 12.011 -0.000842647 -0.00218176 0.00351036 
C 27.6511 2.68695 31.2843 12.011 0.00581458 -0.00715927 0.00547054 
C 42.6521 27.0202 36.2495 12.011 0.000734007 -0.00157156 -0.000510593 
C 12.2032 50.7663 1.53673 12.011 0.00429135 0.00459643 -0.00223311 
C 29.3746 0.501781 48.7644 12.011 -0.00166815 0.00195678 -0.00700822 
C 37.0639 33.9091 26.4506 12.011 0.00333374 -0.00399844 -0.000153786 
C 25.8653 40.6553 38.0067 12.011 -0.00732943 -0.00327642 0.00477214 
C 25.6646 17.9632 42.6284 12.011 9.15056e-05 0.00397928 0.00255754 
C 37.9196 16.5353 49.1345 12.011 0.00386304 0.00109008 0.00420147 
C 19.5406 28.2929 21.8358 12.011 0.00643871 0.000913118 0.000877957 
C 15.2064 42.0478 35.9477 12.011 0.00525723 0.00213688 0.0106051 
C 18.7367 15.3362 26.5681 12.011 -0.000192073 0.00324277 0.00055166 
C 33.7919 24.7827 41.0346 12.011 -0.000876815 -0.00443853 -0.00389626 
C 18.7446 14.3815 15.7755 12.011 0.00126073 0.00624471 -0.00575266 
C 34.0416 41.9715 35.9548 12.011 -0.00497592 0.00230327 0.00334663 
C 41.6133 17.0678 16.0886 12.011 0.00389632 0.00298077 -0.00387939 
C 1.45037 14.2176 11.9062 12.011 -0.00481987 0.00015925 -0.00582702 
C 36.6246 31.781 14.4089 12.011 0.00608282 0.00747561 -0.00259623 
C 28.7274 13.383 36.3592 12.011 0.00446613 0.00451703 0.00619185 
C 7.59233 2.4031 39.6338 12.011 0.00100982 -0.00230365 -0.00766752 
C 21.6919 21.6616 48.5115 12.011 -0.00299302 0.0027399 0.0016367 
C 12.6387 11.916 26.2605 12.011 -0.000325495 -0.00432036 -0.00396218 
C 48.7536 37.9312 38.527 12.011 -0.000482628 0.00761651 -0.00528258 
C 0.657459 20.5199 24.8753 12.011 -0.00394477 -0.000643477 0.00407729 
C 14.295 26.7602 2.40178 12.011 -0.00184186 0.000412696 0.00478423 
C 29.3253 45.2379 3.32167 12.011 0.00289636 -0.00243779 0.00419615 
C 47.4531 2.56465 40.5966 12.011 0.00743301 0.00223763 -0.00283542 
C 45.5648 16.877 1.85939 12.011 -0.00142484 -0.00243762 -0.000569643 
C 28.7745 45.9342 9.1951 12.011 -0.00842742 0.00356048 -0.00321757 
C 41.2102 32.7069 15.9362 12.011 -0.0017009 -0.00487875 -0.00453895 
C 43.5253 30.2967 8.18333 12.011 0.0106402 -0.0039399 0.008694 
C 11.8205 49.5166 13.2382 12.011 0.000353312 0.00445118 0.00647638 
C 50.7023 34.1749 38.3082 12.011 0.00811864 0.00736405 0.00729017 
C 18.9213 41.7294 21.6019 12.011 0.00223839 -0.00150577 0.00317701 
C 13.3639 47.2096 33.5242 12.011 -0.00338468 0.00342262 0.00507243 
C 28.7494 2.54009 16.8628 12.011 0.00620761 0.00333922 -0.00196456 
C 33.0199 23.9548 24.7853 12.011 -0.00202563 -0.000253361 0.00391305 
C 21.802 43.6194 33.8096 12.011 0.00363146 0.00131526 -0.00652398 
C 46.5578 29.3865 44.6788 12.011 -0.000263787 0.00353001 0.00369248 
C 39.8245 16.3856 50.9519 12.011 0.00659231 0.00332636 -0.00458922 
C 42.8155 10.4435 31.0064 12.011 -0.00587415 0.00322357 -0.00131986 
C 27.612 0.567971 12.2101 12.011 0.00122839 -0.00684792 0.00151087 
C 2.06034 21.4666 23.0411 12.011 0.00801723 -0.00727183 -0.00277287 
C 9.09861 21.1626 5.3043 12.011 0.00106693 0.00571631 0.00088423 
C 7.895 12.8703 17.5631 12.011 -0.00387558 -0.00100518 0.00418702 
C 22.3231 3.34779 36.1546 12.011 -0.000103693 -0.00309067 0.00973139 
C 5.48783 35.2184 19.5686 12.011 0.00279335 -0.00614232 0.00472788 
C 41.491 30.593 23.061 12.011 0.00250083 -0.00102777 -0.00316225 
C 43.3579 7.95373 5.88063 12.011 0.000900476 0.00331897 -0.000807905 
C 6.22758 4.00283 47.6386 12.011 0.000872164 -0.00182962 -0.0036474 
C 12.8564 13.5535 44.9355 12.011 0.00530549 -0.00061796 -0.00324628 
C 9.74715 27.123 45.4399 12.011 -0.00468713 0.00903895 -0.00810245 
C 47.3139 16.2685 32.731 12.011 0.0069351 0.00240736 -0.00403588 
C 27.1957 14.1371 42.5749 12.011 0.00642666 0.000185277 -0.00515437 
C 21.5657 47.1583 21.9216 12.011 0.00665472 0.00651411 0.00215103 
C 7.65748 4.58029 3.81033 12.011 0.00115898 0.00609406 0.003895 
C 26.3892 3.29345 16.3746 12.011 0.00161184 0.00582763 0.0027 
C 30.5559 34.4726 34.4282 12.011 -0.00592103 0.00402552 0.00219827 
C 44.2167 24.3857 29.7987 12.011 -0.00266952 -0.00061029 0.00365924 
C 24.0318 23.2218 2.33559 12.011 -0.000629532 0.00101487 0.00465168 
C 23.2757 1.55504 37.294 12.011 0.00497005 0.0022784 0.00277638 
C 33.7114 21.0271 24.5913 12.011 0.00319523 0.0050296 -0.00476922 
C 14.689 42.8827 8.07491 12.011 -0.00615911 0.000707177 -0.00306719 
C 7.32131 43.5639 2.9632 12.011 0.00160279 -0.00127598 -0.00735878 
C 0.282872 9.99465 33.2447 12.011 0.0012202 -0.00314192 -0.00225384 
C 28.0054 27.6289 45.9197 12.011 -0.00257414 0.0108689 0.00364839 
C 50.3637 48.004 2.68177 12.011 -0.000938814 0.00297341 -0.00238911 
C 9.84541 23.3207 32.0469 12.011 0.00626099 -0.00640385 -0.00880201 
C 36.1053 27.2544 8.03948 12.011 -0.00290997 -0.00193765 0.00581049 
C 40.6518 9.08373 48.0238 12.011 -0.00529116 0.000162654 0.00446288 
C 2.7139 29.5975 26.7183 12.011 -0.00738153 -0.00384189 -0.00436075 
C 43.4156 38.3391 6.33197 12.011 0.001718 -0.0014595 0.000165618 
C 38.8702 38.5875 1.66813 12.011 0.00583844 0.0105856 -0.00528375 
C 42.2666 10.8987 3.65855 12.011 0.00302633 -0.00369181 0.0014946 
C 20.3056 44.4371 38.6311 12.011 -0.00244433 0.00360138 -0.0111637 
C 16.166 32.2847 28.8252 12.011 0.00133633 -0.00826058 0.00280444 
C 5.55627 22.5415 0.440808 12.011 -0.00015803 -0.00220582 0.00557259 
C 2.53742 40.2927 6.65447 12.011 -0.00266413 0.006858 0.00168272 
C 50.108 27.7646 24.8483 12.011 -0.00293605 -0.00310069 0.00037531 
C 38.1942 50.7195 34.0793 12.011 -0.00121582 0.00773561 0.000248117 
C 1.05511 5.26464 24.5061 12.011 0.00581806 -0.00927661 0.00869508 
C 22.7283 29.1502 16.811 12.011 0.00154791 0.00216002 0.00185485 
C 33.01 19.096 15.5218 12.011 -0.0024239 0.00591496 -0.00634187 
C 38.0645 5.88192 11.0157 12.011 0.000946386 0.00207085 0.0013099 
C 28.245 6.54238 37.5982 12.011 0.00303517 -0.00970661 0.00385331 
C 8.54254 36.9648 41.9785 12.011 0.00334051 0.0030244 0.00324738 
C 47.5936 12.2948 46.7292 12.011 -0.000244694 0.00562197 -0.00543566 
C 45.3687 16.1126 47.8498 12.011 -0.00574343 0.00539742 0.00390865 
C 32.5097 23.6687 37.1533 12.011 -0.00327935 0.0114428 0.00812881 
C 38.7232 19.7852 24.1124 12.011 -0.00779568 0.00183066 -0.00251779 
C 47.839 1.82452 39.3501 12.011 -0.000581944 0.00231959 0.00456434 
C 27.0618 3.57024 39.527 12.011 -0.00625819 -0.00192356 -0.00122748 
C 4.2737 22.6142 20.2016 12.011 0.00570461 -0.00346719 -0.00640096 
C 13.7624 38.8516 8.91982 12.011 0.00292858 -0.000407219 -0.00138012 
C 43.1631 43.818 30.7434 12.011 -0.00770241 -0.00857587 -0.00291552 
C 14.1179 31.9466 41.9576 12.011 0.000203676 -0.00344614 -2.68565e-05 
C 14.4906 28.8905 26.587 12.011 0.00705278 -0.00192998 -0.00267102 
C 34.4156 48.0294 44.8552 12.011 -0.000642155 0.0012725 0.00228645 
C 4.96041 20.4231 1.43582 12.011 -0.00228444 -0.00598989 -0.00777836 
C 41.5061 36.4723 15.9379 12.011 0.0110979 -0.00158886 -0.00111753 
C 26.1069 39.2273 35.8222 12.011 0.00080059 0.00148286 -0.00182819 
C 14.3844 49.3958 5.6615 12.011 0.0069143 0.00179804 0.00435014 
C 11.2704 39.2137 38.8291 12.011 -0.000859416 -0.00459228 0.00903245 
C 25.6553 48.3764 37.1815 12.011 -0.00235117 0.000638079 -0.0021428 
C 46.5635 40.0586 33.5728 12.011 0.0089611 0.00487422 -0.0032435 
C 30.9394 23.6509 48.7672 12.011 -0.00109175 -0.00623827 0.00691826 
C 9.02419 40.4458 17.3896 12.011 -0.00633602 0.00637088 -0.00468246 
C 35.3768 26.7361 21.5707 12.011 -0.000671953 -0.00615114 0.00368923 
C 45.9577 31.4487 8.39054 12.011 0.00230439 -0.00320246 0.00885136 
C 8.11198 31.3115 16.0818 12.011 -0.00306171 -3.07547e-05 0.00526834 
C 32.3 29.7077 10.3707 12.011 -0.000582497 -0.0012045 -0.000808038 
C 41.8866 35.3827 50.9926 12.011 -2.32084e-05 -0.00119921 -0.00614608 
C 23.3828 42.0511 32.5582 12.011 -0.00365153 -0.000460446 0.000315257 
C 50.0783 49.6485 23.5545 12.011 -0.00218136 0.00302119 -0.00498122 
C 8.20041 24.5573 19.3916 12.011 0.00863568 -0.0118469 0.00739523 
C 50.2234 20.4865 16.2397 12.011 0.00743179 -0.0030819 0.00691993 
C 21.9512 37.7115 33.6547 12.011 0.00203751 -0.00157991 0.00117046 
C 14.577 27.148 12.2625 12.011 0.000695493 0.00833659 0.000175143 
C 17.4706 21.4974 1.04491 12.011 -0.00343132 -0.00316977 0.0128541 
C 17.4716 9.75578 47.7696 12.011 -0.0018697 -0.00137701 -0.00593001 
C 44.4744 33.1259 33.9124 12.011 -0.00201031 -0.00383919 -0.00128277 
C 12.6751 29.2609 37.8967 12.011 -0.00189379 -0.000672237 0.00132857 
C 46.1031 2.60792 23.0379 12.011 0.00360412 -0.00609517 0.00622272 
C 39.8055 0.794848 2.69817 12.011 2.64096e-06 0.0024365 0.00375975 
C 1.6519 46.111 18.5851 12.011 -0.000818375 0.00271271 0.00334187 
C 49.5268 46.9825 48.2899 12.011 -0.00289297 -0.00238092 0.00536386 
C 15.037 24.5665 11.0518 12.011 0.00593969 0.0104641 0.0109861 
C 39.5528 30.4488 9.65238 12.011 3.95148e-06 -0.00433468 -0.00189249 
C 13.1253 20.1234 7.6427 12.011 0.00665971 -0.00302585 -0.00529126 
C 34.6897 8.84 46.2834 12.011 0.00301651 0.000220746 0.00297265 
C 41.2493 42.2345 17.6632 12.011 -4.74145e-05 -0.00459971 -0.00356204 
C 34.3591 40.3326 42.3263 12.011 -0.000483064 0.00280042 -0.00280705 
C 10.3052 29.098 43.9519 12.011 0.00379021 0.00119597 0.0074864 
C 4.65984 11.6616 14.0322 12.011 -0.00371438 -0.000229893 0.00517769 
C 27.1153 1.69286 14.4516 12.011 -0.000527812 0.0005687 -0.00362408 
C 31.973 3.47059 21.3787 12.011 -0.00693791 -0.000989856 -0.00156547 
C 35.4537 26.1034 3.02797 12.011 0.00126794 -0.00343552 0.00508061 
C 47.5778 9.16009 50.9791 12.011 0.00865919 0.00312997 -0.006311 
C 19.951 15.9351 14.1298 12.011 -0.00577868 -0.00131972 -0.000754313 
C 6.0882 1.76178 24.3105 12.011 0.00703857 -0.00716717 -0.00637198 
C 16.7189 16.2641 38.7785 12.011 -0.0067066 -0.00460731 -0.00489466 
C 24.4132 2.59726 43.8087 12.011 -0.000482587 -0.000818913 -0.000587897 
C 39.179 48.3868 4.09667 12.011 -0.00385498 -0.000529276 0.00270659 
C 29.2259 49.5416 12.1411 12.011 0.00560899 0.000171042 -0.00134214 
C 10.7931 19.7469 13.4759 12.011 -0.00488109 -0.00530675 0.00979483 
C 40.4257 34.0107 1.01231 12.011 -0.000445594 -0.00358105 0.00574169 
C 29.2633 24.614 47.2564 12.011 -0.00315955 -0.00509036 0.00358557 
C 8.50033 45.09 26.9665 12.011 -0.0021634 -0.0034559 0.00243418 
C 15.8295 49.4017 50.8091 12.011 0.00141151 -0.00495861 0.00219428 
C 1.75893 7.91954 45.3008 12.011 -0.00731462 0.00184305 0.00199064 
C 50.7568 6.43462 45.0919 12.011 0.00166372 -0.00134546 3.84076e-05 
C 35.9248 42.4819 15.7962 12.011 0.00592838 -0.00218133 0.011531 
C 22.4023 32.3761 33.0278 12.011 0.01219 0.00114855 0.000425092 
C 10.8085 8.68265 38.1183 12.011 0.00183748 0.00432392 -0.00570851 
C 16.1432 19.927 9.58272 12.011 0.00229652 -0.0057358 -1.37842e-05 
C 23.5315 18.3267 28.7358 12.011 0.00253974 0.000765567 0.00561317 
C 29.329 22.8137 24.8052 12.011 -0.00165909 0.00460815 0.00723632 
C 7.42453 5.5066 10.0219 12.011 0.00579083 -0.000901157 0.00274944 
C 18.2882 6.04288 13.0697 12.011 0.00600844 -0.0117154 -0.00411045 
C 41.4088 34.7099 35.3151 12.011 0.00784338 0.00391804 0.0014287 
C 28.4133 22.8598 27.199 12.011 0.000726575 0.00779498 0.00402662 
C 48.1304 45.2688 37.8894 12.011 -0.00711638 -0.00568438 -0.0022535 
C 32.7694 34.259 9.00073 12.011 -0.00265216 -0.00225122 0.00377344 
C 5.80236 25.1761 23.9185 12.011 -0.00119279 0.0130075 -0.00238307 
C 30.2239 34.4545 29.3512 12.011 0.00206794 0.0033638 -0.00177735 
C 34.5246 33.5337 47.339 12.011 0.000238752 -0.00464919 -0.00070966 
C 29.1848 18.0646 24.1489 12.011 -0.00338498 -0.00363531 -0.00438235 
C 38.0566 42.2612 34.6354 12.011 -0.00704089 0.00115247 0.00115441 
C 29.3442 8.30561 36.5169 12.011 -0.00900226 0.00738329 0.00663378 
C 49.0991 29.909 33.6961 12.011 -0.00180827 -0.000180076 0.00266753 
C 34.9583 50.1858 28.3174 12.011 -0.011313 -0.0126433 -0.000759689 
C 0.120188 32.9006 1.80957 12.011 0.00489678 0.00125239 -0.000577975 
C 7.98161 28.4237 36.7579 12.011 -0.0105723 0.00116468 -0.00212507 
C 40.8283 10.6785 34.9751 12.011 0.00575266 0.000446929 -0.00120214 
C 30.8508 37.2545 38.5633 12.011 0.00101916 0.00227012 0.00444426 
C 29.9214 7.55787 5.25858 12.011 -0.0026203 -0.00212449 0.00645028 
C 4.44975 26.1261 17.4336 12.011 0.00161514 0.00854264 -0.000311157 
C 50.5431 25.5026 49.1684 12.011 0.00959306 -0.00585737 0.00225868 
C 42.9934 31.8754 4.83724 12.011 -0.00325269 -0.00110588 -0.00121294 
C 34.8556 27.4623 2.81886 12.011 0.00559937 0.00366419 0.0039157 
C 4.58541 9.79583 28.4354 12.011 -0.00776756 0.00344647 -0.000217269 
C 43.9016 16.1513 25.1102 12.011 -0.00788539 -0.00133878 -0.00529299 
C 3.91035 14.9776 19.5972 12.011 0.00816336 -0.00130216 -0.000396577 
C 33.0735 36.741 21.1358 12.011 0.0026865 -0.00805019 -0.000505468 
C 39.0918 12.6476 25.5443 12.011 0.000751289 0.00284253 0.00677246 
C 45.909 37.2546 23.3519 12.011 0.0034988 -0.00229193 -0.00350415 
C 47.1638 32.2181 22.1618 12.011 0.000372289 0.00087094 0.00145583 
C 7.76958 14.4345 19.4678 12.011 -0.00714876 0.000362357 0.00334392 
C 2.45042 44.5528 9.30122 12.011 -2.79394e-05 -0.00174584 0.000681281 
C 36.258 23.6035 36.822 12.011 3.64342e-05 -7.61633e-05 0.00170607 
C 48.8632 24.7258 50.9014 12.011 -0.00339282 0.00426688 0.000463705 
C 14.1294 46.6436 20.5847 12.011 0.00186184 -0.00136589 -0.00405529 
C 48.268 44.0502 5.51304 12.011 0.00702371 -0.0074545 0.0097215 
C 6.90117 36.7917 14.3645 12.011 0.000628985 -0.00262216 0.00323407 
C 19.9147 20.4346 42.3804 12.011 0.00710365 -0.00139477 0.000100409 
C 26.9953 2.58127 7.05491 12.011 -0.00244498 -0.00176366 -0.00233181 
C 7.51463 49.7223 13.4406 12.011 -0.00309037 -0.0025416 0.00206046 
C 9.20886 46.4082 46.973 12.011 0.00636777 -0.00075112 0.00396867 
C 43.9509 42.5772 18.6341 12.011 -0.00352433 -0.00887607 0.00494601 
C 20.1701 46.6809 18.6868 12.011 -0.00459024 -0.00837882 0.000773498 
C 0.807587 0.0593273 23.0046 12.011 0.0049524 0.0051802 -0.0069832 
C 13.6719 31.9346 6.51011 12.011 0.0036293 0.00107304 0.00567945 
C 43.273 42.1937 2.13781 12.011 -0.00173374 0.00100945 0.00396494 
C 49.3206 48.5029 13.2169 12.011 0.00387091 -0.00100089 0.00728034 
C 14.655 33.2745 41.9818 12.011 0.000470709 -0.0048466 0.00474801 
C 9.7017 21.9828 43.3781 12.011 -0.00119855 0.00220262 0.00427982 
C 35.3379 26.013 42.1679 12.011 -0.000793595 0.00455142 0.00209791 
C 8.22893 23.0438 36.8378 12.011 0.00766316 0.00149395 0.00344032 
C 16.1928 8.86481 49.7955 12.011 0.000120279 -0.00228922 0.00507317 
C 43.4754 31.7035 30.5764 12.011 -0.00493326 -0.00326134 -0.00505272 
C 35.0165 9.45596 2.38931 12.011 -0.000278058 -0.00158907 -0.000590093 
C 38.961 10.1648 36.9606 12.011 -0.000158584 0.00892911 0.00340792 
C 49.3145 12.2149 1.40608 12.011 0.0025157 -0.00625083 0.00249875 
C 38.4998 23.1101 36.0788 12.011 -0.00154168 -0.00366902 -0.000696925 
C 28.7256 23.1757 45.3657 12.011 -0.00636492 -0.00535044 0.00449904 
C 8.6606 21.2622 42.7696 12.011 -0.000178085 0.00741875 -0.0132749 
C 0.887157 21.4286 0.845906 12.011 -0.00578473 -0.00335486 -0.00245137 
C 37.1226 36.5978 1.27231 12.011 0.00196493 -0.00551818 0.00695298 
C 14.4984 0.151245 0.914045 12.011 0.00101179 -0.00120568 -0.00340013 
C 44.6042 0.805963 33.5863 12.011 0.00181467 -0.00783511 -0.000637616 
C 40.1455 28.382 26.5749 12.011 0.00379423 -0.00398923 -0.00372038 
C 29.1301 46.0801 32.3146 12.011 -0.00603039 -0.0015091 -0.00114788 
C 41.0777 27.8978 38.2513 12.011 0.00182723 0.0023319 0.00188866 
C 3.27667 2.24708 38.7086 12.011 0.00155397 -0.00747909 -0.00198924 
C 18.3713 6.28068 0.464955 12.011 -0.00399179 1.8567e-05 -0.0065886 
C 44.1188 13.6527 26.6569 12.011 0.00132669 0.0129139 -0.00381656 
C 10.3435 2.21073 19.7388 12.011 0.00313567 0.00010532 -0.0055446 
C 38.7362 39.5041 47.9779 12.011 0.0007378 0.00496881 0.00956019 
C 37.3568 15.6536 6.21505 12.011 0.00400066 0.00177698 -0.00437036 
C 20.0494 41.359 36.6152 12.011 -0.00740869 -0.00115703 -0.0062981 
C 29.5746 8.95663 3.25836 12.011 0.00294232 -0.00860918 -0.00127738 
C 0.382947 17.1497 41.2574 12.011 0.00406339 0.00134607 -0.00820146 
C 22.1783 18.0059 28.676 12.011 -0.00453723 0.000376408 -0.00291264 
C 37.7213 19.419 25.0564 12.011 -0.00493102 -0.00584742 -0.000584733 
C 30.0432 4.32592 19.8481 12.011 -0.00584935 0.00125065 -0.00445796 
C 2.41953 23.2154 12.8027 12.011 -0.000967314 -0.000273217 0.00239805 
C 48.6162 16.2435 15.9668 12.011 -0.00185476 -0.00407653 -0.00521755 
C 46.0759 45.3498 4.63135 12.011 0.00245644 0.00945915 3.5398e-05 
C 9.24076 18.345 2.14642 12.011 -0.00292725 -0.000717372 -0.00639789 
C 45.6112 44.6401 22.8904 12.011 -0.00267546 0.00375889 -0.00762297 
C 33.3638 42.7984 1.40079 12.011 0.00270214 0.000171965 0.00490916 
C 20.8772 24.4506 21.5034 12.011 -0.00353862 -0.00495247 -0.00319991 
C 42.5427 44.1835 10.5791 12.011 -0.0032191 0.00118429 0.00619092 
C 13.5159 7.44594 16.8851 12.011 0.00199589 0.00600132 0.00276046 
C 3.67369 8.91735 18.0307 12.011 -0.00127887 -0.00315643 0.00221047 
C 44.3486 42.98 30.6315 12.011 -0.00190837 -0.00061534 0.000685293 
C 48.2003 7.29717 1.4308 12.011 -0.000366472 0.00166084 0.00247737 
C 28.5125 36.5286 38.3285 12.011 -0.000859148 -0.00228733 0.00413578 
C 40.059 11.8873 7.94525 12.011 0.00658465 -0.0013811 0.00710667 
C 38.1641 0.062272 4.41568 12.011 0.00108181 -0.00336527 0.00563173 
C 48.3965 37.1858 17.3082 12.011 -0.00421198 -0.00553494 -0.00363542 
C 20.7109 39.085 11.872 12.011 -0.00227283 -0.000468887 -0.0010448 
C 7.66442 3.03763 10.938 12.011 -0.000645961 -0.00766414 0.00188124 
C 0.941398 16.4418 2.11285 12.011 -0.00162855 -0.00192969 -0.000517913 
C 0.125169 13.7054 46.7881 12.011 -0.00107859 0.00389546 -0.00304576 
C 47.8891 7.01897 26.297 12.011 -0.00692689 0.0034841 0.00634477 
C 19.0023 8.46714 33.3296 12.011 -0.00674894 0.00312024 -0.00145419 
C 34.9242 25.7289 47.7558 12.011 0.000285729 0.0052147 -0.00514209 
C 46.4651 1.5573 14.059 12.011 0.00312573 -0.00084444 0.00272287 
C 41.4843 2.78964 41.3787 12.011 -0.00177827 0.00604107 -9.6835e-05 
C 39.0068 12.8276 47.4228 12.011 0.009698 -0.00589496 0.0050888 
C 47.2149 43.8847 42.5323 12.011 -0.0100877 -0.00310331 -0.00570274 
C 44.4024 17.0572 47.4849 12.011 0.0019632 0.00143758 -0.0017155 
C 44.5429 20.408 39.3999 12.011 -0.00312317 0.00180116 -0.00151314 
C 28.6199 33.1912 14.723 12.011 -0.0025979 0.00279336 0.0105958 
C 11.0757 15.6242 7.70024 12.011 0.00153959 0.0030138 0.00142558 
C 23.5969 2.06635 9.45278 12.011 0.00659725 0.000143049 0.00499263 
C 31.343 45.5609 21.3422 12.011 0.00171409 -0.00730698 0.00393377 
C 33.1048 46.8123 39.2143 12.011 0.0025762 -0.00241082 -0.00503625 
C 14.0257 10.927 50.2782 12.011 0.00141536 0.00915052 -0.00216718 
C 38.4829 23.7152 18.9954 12.011 0.00108012 -0.00101162 -4.83748e-05 
C 30.3537 5.26972 39.3314 12.011 -0.0029766 -0.00721733 -0.00255768 
C 47.8092 6.22435 12.3134 12.011 -0.0042322 -0.00038559 -0.00394277 
C 0.7357 44.8425 12.9339 12.011 0.00615461 -0.000894276 0.000285563 
C 31.615 43.5271 27.2678 12.011 -0.00220538 0.00599477 -0.00222532 
C 44.8114 6.19042 30.4999 12.011 0.00120588 0.00366346 0.00339713 
C 4.38352 18.939 31.7172 12.011 -0.00103048 -0.00611646 0.000214903 
C 15.5604 20.9505 6.75544 12.011 -0.00590725 0.00218782 0.00170003 
C 45.4517 4.72678 19.1292 12.011 0.0058518 0.00343219 0.00488401 
C 11.2824 42.7014 46.6721 12.011 0.00642204 0.000306162 -0.00290604 
C 13.8597 39.6969 51.0035 12.011 -0.00371738 -0.0032383 -0.00169603 
C 17.6808 6.97293 15.476 12.011 -0.0086578 0.00633917 -0.00677381 
C 39.5364 11.4978 13.6852 12.011 -0.00317667 0.000786897 -0.0100513 
C 43.4089 29.9146 24.9419 12.011 0.00349421 0.00352056 -0.00129614 
C 40.4996 35.5459 43.2751 12.011 0.0010697 0.00111112 0.00112793 
C 43.3269 1.08298 5.59884 12.011 -0.00261648 0.00965118 -0.00106999 
C 18.9511 33.6818 50.2618 12.011 0.00617541 0.00456941 -0.00756536 
C 20.2665 6.29493 24.8689 12.011 -0.0032374 0.00520269 -0.00910221 
C 0.332899 48.909 3.12104 12.011 -0.00821023 0.00411075 -0.000987071 
C 39.6412 2.18139 0.287877 12.011 -0.000630081 -0.0054443 0.00637284 
C 4.17491 33.9772 10.471 12.011 -0.00354249 0.000878974 -0.00389314 
C 8.58483 33.648 44.3781 12.011 0.00145793 0.00447462 0.00404793 
C 36.9949 1.34477 45.0085 12.011 -0.00100091 -0.00394732 0.00481114 
C 10.7157 40.8282 15.2043 12.011 0.0064608 -0.00209397 -0.00258235 
C 34.0177 34.0438 49.6152 12.011 -0.000898334 0.00621163 0.00282919 
C 41.0788 38.697 46.0913 12.011 -0.00456175 0.00858094 0.00254084 
C 49.4822 2.40039 12.2186 12.011 0.00188341 0.00128399 0.00195607 
C 10.4942 30.8137 4.82343 12.011 0.00531775 -0.0128572 0.00288725 
C 38.6618 46.1401 9.96239 12.011 0.00226991 0.00327445 0.00725817 
C 0.581112 10.6945 16.7378 12.011 0.00237312 -0.00189858 -0.00149571 
C 28.2405 45.6488 6.85153 12.011 0.00651712 -0.00607807 -0.0025681 
C 22.8567 16.2502 24.2171 12.011 -0.00294343 0.00227499 0.00468185 
C 35.8998 37.828 39.4701 12.011 0.00112604 -0.00922891 0.0043945 
C 20.0753 40.9493 13.9689 12.011 -0.00602934 0.00623769 -0.00222754 
C 47.1094 43.9129 7.88216 12.011 0.0034768 -0.00168345 0.00203606 
C 28.2897 47.3978 2.49936 12.011 -0.00557466 -0.000713474 0.000581486 
C 37.2125 44.9443 27.4757 12.011 0.0071729 -0.00154753 -0.000236034 
C 36.1307 20.8933 23.8979 12.011 0.00386719 0.00287536 -0.0127349 
C 8.09919 5.33779 48.0131 12.011 -0.00838149 -0.00269046 -0.00179157 
C 18.7188 10.2882 42.986 12.011 0.00697788 -0.00121771 -0.00786185 
C 41.5337 2.02739 43.7355 12.011 -0.000263629 -0.00766284 -0.00236342 
C 15.0893 6.87499 24.3864 12.011 0.0115397 -0.00483485 0.00232174 
C 4.24281 17.9015 6.64642 12.011 -0.00627457 -0.00145097 0.00173177 
C 26.9464 43.1908 49.1985 12.011 0.000501043 0.00185732 -0.000506749 
C 20.4025 15.5969 5.41833 12.011 0.00537406 -1.92515e-05 -0.00490024 
C 15.4373 25.1482 23.6154 12.011 -0.00485981 -0.000107363 -0.00102529 
C 31.052 5.39756 38.0239 12.011 0.00206707 0.00478166 -0.00570146 
C 28.7684 45.1569 40.6139 12.011 0.00518817 0.00169139 0.00587987 
C 44.7249 21.9533 18.4801 12.011 -0.00328241 0.00208773 -0.0126667 
C 48.3002 9.44448 13.9812 12.011 -0.00311438 0.00506278 -0.000879896 
C 6.64895 39.8675 20.1192 12.011 0.0126599 -0.00401879 -0.00204257 
C 11.0171 26.7238 29.6219 12.011 -0.00899867 -0.0080138 -0.00482711 
C 35.5186 38.0539 30.7688 12.011 -0.00446519 -0.00511421 -0.00366228 
C 50.795 18.8587 39.2765 12.011 0.00466795 -0.00124857 0.00977044 
C 23.2474 13.5096 45.1068 12.011 -0.00286474 -0.00827183 -0.00612644 
C 22.2952 24.9276 19.4936 12.011 -0.00359845 -0.000350464 0.00641734 
C 34.4347 33.5273 31.9541 12.011 0.00531433 0.000650935 -0.00375415 
C 17.3257 41.1776 18.1707 12.011 -0.00631307 0.00102447 -0.00249774 
C 18.5879 16.8198 12.3131 12.011 -0.0044169 -0.0064716 -0.00162738 
C 20.3921 6.68875 48.4368 12.011 -0.000330976 -0.0041422 -0.0056407 
C 20.9829 34.217 46.4438 12.011 0.00330244 -0.00819955 0.00631396 
C 2.43002 20.0781 36.9285 12.011 -0.000850566 0.00183613 0.000932411 
C 3.85952 15.8223 37.4287 12.011 0.00109081 -0.00670839 -0.00262262 
C 43.7343 32.9712 46.4594 12.011 0.0045171 0.00406766 0.00584546 
C 16.6411 44.1044 41.5961 12.011 0.0054299 -0.00102263 0.00210835 
C 46.4124 10.9213 37.3844 12.011 0.000741739 0.00269025 -0.00527719 
C 29.3698 15.0243 18.2947 12.011 0.00218356 0.0029768 -0.00506301 
C 12.4884 16.0456 2.00623 12.011 0.00519125 -0.00697275 -0.0086465 
C 8.81812 11.8162 24.3731 12.011 -0.00477649 0.00179323 -0.0069189 
C 33.8079 20.8765 5.04186 12.011 -0.00229215 0.0120297 0.00396017 
C 5.53764 36.8618 14.8431 12.011 0.00894482 0.00534786 0.00873551 
C 24.1579 18.5793 29.9884 12.011 -0.00697606 -0.00577524 -0.00159189 
C 50.5123 14.9029 47.1247 12.011 0.00187923 0.00374704 -0.00113516 
C 5.23727 11.2383 15.2652 12.011 -0.00144685 -0.00934078 -0.00471691 
C 0.0397836 20.85 5.91684 12.011 -0.00256379 -0.00242219 0.0067062 
C 33.2071 2.45742 26.4096 12.011 -0.00531588 0.000958475 0.00236573 
C 26.7552 42.3565 18.8749 12.011 -0.00308277 0.00254609 0.00153871 
C 31.1363 39.8737 35.3634 12.011 -0.00166467 0.000567345 0.00936137 
C 35.7426 17.4393 34.8083 12.011 0.00207474 -0.00595488 -0.00013341 
C 3.13982 12.485 35.5246 12.011 0.00267302 0.00242273 -0.00720318 
C 44.2078 1.898 0.821198 12.011 -0.00101258 0.000413458 -0.000821193 
C 24.9508 46.4102 20.304 12.011 -0.00525718 -0.00012457 0.00494415 
C 46.9835 27.5613 6.28211 12.011 -0.000674117 0.00729063 -0.0031466 
C 12.9782 22.4954 12.253 12.011 0.00516411 0.00103719 8.70515e-05 
C 2.50489 0.871855 46.9479 12.011 -0.00276628 -0.00544944 0.00341094 
C 3.3239 14.3323 30.0907 12.011 -0.00762144 -0.00444117 0.00327311 
C 50.7182 29.6709 40.7764 12.011 -0.00148909 -0.000706578 0.00529395 
C 29.6782 7.90971 2.20274 12.011 -0.00105454 0.00652132 0.00390062 
C 27.4376 22.6832 28.2836 12.011 -0.00518529 -0.00639811 0.0130707 
C 30.959 0.421884 2.43377 12.011 -0.00154364 0.000618646 0.00227974 
C 44.8683 48.8128 31.398 12.011 -0.00453081 0.00798132 0.00865231 
C 50.8488 44.2343 5.03423 12.011 -0.00508818 -0.00155125 0.00716105 
C 49.5874 32.8568 22.6707 12.011 0.00714358 0.0046086 -0.00930447 
C 45.0625 17.3817 16.8406 12.011 0.00145231 -0.000444669 0.00594858 
C 35.1553 34.8387 24.9823 12.011 0.00167365 -0.0106213 -0.00765938 
C 4.27253 20.767 33.8922 12.011 -0.00231155 -9.35486e-05 0.00642202 
C 34.0766 17.6099 36.7772 12.011 0.00182664 0.000856232 -0.0029776 
C 25.8029 40.6907 7.85189 12.011 -0.00628978 -0.00136577 -0.000942997 
C 5.36885 10.2881 42.0268 12.011 0.0016792 -0.00147638 0.00802307 
C 2.20533 39.1845 7.50351 12.011 0.0013547 -0.00337524 0.00625757 
C 33.1151 8.89795 20.6332 12.011 -0.000416986 -0.00206505 0.00126941 
C 25.9392 11.0174 28.1595 12.011 -0.00134179 -0.00745906 -0.00216518 
C 30.5463 38.3822 31.5582 12.011 -0.000481419 -0.00338407 0.00285332 
C 4.81917 12.9846 11.3201 12.011 0.00631116 0.00655836 -0.0078586 
C 43.7069 8.41457 30.4117 12.011 -0.00267735 0.00400338 -0.00196863 
C 6.9171 9.36129 3.55965 12.011 0.00370722 0.000102756 -0.00753882 
C 27.2154 2.56587 32.6148 12.011 0.00258929 -0.0043328 -0.00311714 
C 11.7295 8.57709 47.2541 12.011 0.00045279 -0.00741541 0.00845587 
C 14.6864 27.2044 24.8127 12.011 -0.00581598 -0.00183725 0.0102921 
C 39.4804 36.1799 8.74991 12.011 -0.00599369 0.00236313 0.00137357 
C 48.3912 29.1412 48.5882 12.011 -0.00324933 0.00434178 0.000928873 
C 49.4643 19.0346 46.1666 12.011 0.00102832 0.0140887 -0.00470317 
C 1.56217 42.5036 5.64257 12.011 -7.00684e-05 -0.00759885 -0.000506282 
C 27.2099 20.5452 33.6355 12.011 -0.00286639 -0.00777196 -0.00563668 
C 29.4466 4.05143 39.0842 12.011 0.000384398 -0.00276842 0.00552484 
C 38.6999 43.4893 34.3466 12.011 0.00316456 -0.00616482 -0.012371 
C 7.55499 49.9774 2.93897 12.011 0.00606075 0.000782342 0.00518463 
C 43.9995 32.4791 29.4795 12.011 0.00293736 -0.00632443 -0.00104742 
C 50.1427 46.1245 21.4966 12.011 0.00478659 -0.00194667 -0.00151094 
C 4.50096 25.1479 23.3613 12.011 0.0025826 -0.00235252 0.00344425 
C 37.7534 36.0913 46.8536 12.011 0.000148822 0.00136983 -0.00163919 
C 27.625 0.140847 41.1032 12.011 -0.00124553 0.00980265 -0.00864205 
C 29.9483 2.73849 39.248 12.011 0.00134334 0.00222335 0.00303536 
C 41.7178 2.99876 27.9707 12.011 0.000969546 -0.00261697 0.000205126 
C 45.3059 43.1094 3.19801 12.011 -0.00113781 -0.000848314 0.00173614 
C 35.2389 49.5138 38.1435 12.011 -0.00496936 -0.00770002 -0.00549886 
C 19.7478 6.14849 16.0941 12.011 0.00247551 -0.00752091 0.00421828 
C 29.0565 16.4094 16.1159 12.011 -0.00211426 -0.00261445 -0.000194457 
C 21.1045 6.48132 22.6428 12.011 -0.000730225 -0.00118561 -0.00739286 
C 0.939111 44.899 4.33183 12.011 -0.00204221 -0.00378392 0.00226217 
C 36.2996 15.6391 40.5081 12.011 0.000310147 0.00558504 -0.00137702 
C 34.9146 9.74462 31.1887 12.011 -0.0179128 3.34279e-05 -0.000568497 
C 49.5599 35.8053 39.5976 12.011 0.00484507 0.00343013 -0.0020171 
C 1.99007 5.50358 45.7181 12.011 0.00144483 -0.00220337 0.00598603 
C 39.2932 34.0666 25.3991 12.011 -0.00294088 0.00455206 0.00370777 
C 38.2089 36.5968 19.0536 12.011 0.00438542 -0.00420501 -0.00121009 
C 22.4425 15.1976 8.69251 12.011 0.000421866 -0.00632415 -0.0027625 
C 47.8849 35.3289 42.8958 12.011 -0.00260794 0.00448648 0.000681226 
C 0.319508 47.8566 22.7383 12.011 0.00431028 -0.00204344 -0.000236019 
C 30.3144 45.6262 46.4756 12.011 0.00295189 -0.0086134 -0.00404414 
C 30.8656 18.1097 17.0494 12.011 -0.000907987 -3.24175e-05 0.00102052 
C 7.4022 37.8707 47.9184 12.011 0.00222938 -0.00328513 -0.00157191 
C 46.4989 27.049 10.0657 12.011 -0.00218176 0.00247977 -0.0017787 
C 40.0184 45.5288 10.2077 12.011 0.00528335 0.00160236 -0.00114161 
C 22.4177 37.5227 50.763 12.011 -0.00912806 -0.00207321 -0.00125097 
C 9.89979 50.3318 2.26198 12.011 0.00614764 -0.00102776 -0.00193447 
C 2.16192 45.2874 33.5334 12.011 -0.00042518 -0.00265274 -0.00296276 
C 21.2554 27.4692 6.73733 12.011 0.00279302 -0.00725137 -0.000974413 
C 15.1112 23.8281 23.1206 12.011 -0.000722757 0.00970461 0.00337397 
C 13.7 38.0957 33.5204 12.011 -0.000424075 -0.000155228 -0.000269159 
C 16.9986 49.304 12.0561 12.011 -0.00764123 0.0028254 -0.000183044 
C 6.91318 7.45719 31.7591 12.011 -0.00098385 0.00358338 -0.00189156 
C 13.0502 16.9101 27.2234 12.011 0.00222936 0.00171948 -0.00146359 
C 41.1998 36.163 45.5218 12.011 -0.00561097 -0.000641026 -0.00701179 
C 41.1103 42.6694 33.812 12.011 -0.00135939 0.0108442 0.00664598 
C 25.8014 9.40044 18.853 12.011 0.000478936 0.000805441 0.00157957 
C 9.42525 46.0384 30.5425 12.011 -0.0117279 0.00334584 0.00405844 
C 47.5904 28.8818 3.73677 12.011 0.000458188 -0.00306586 0.0030083 
C 33.8149 16.5555 46.1174 12.011 -0.000158948 0.00309553 0.000156884 
C 37.4522 4.1658 33.1795 12.011 0.00188506 -0.00364583 0.00681032 
C 0.404746 37.0155 15.1543 12.011 0.00482381 0.00866769 -0.00260833 
C 3.02987 13.9732 31.4438 12.011 -0.000761845 0.00956234 0.00205706 
C 2.52089 27.3455 4.57394 12.011 0.00218046 -0.000590788 -0.000283677 
C 5.91452 26.7028 31.1666 12.011 0.00424721 -0.00634431 -0.00379099 
C 11.2303 43.6606 36.0251 12.011 -0.000457754 0.00906443 0.000407639 
C 16.6125 15.4147 5.73253 12.011 0.00666254 0.00619639 0.000648699 
C 31.3752 30.8426 7.11818 12.011 0.00770332 -0.00122919 -0.00409381 
C 7.36827 21.0584 1.15107 12.011 -0.00171033 0.00437192 -0.00259387 
C 41.9688 49.43 7.8968 12.011 0.00856879 0.00727355 -0.00487471 
C 6.38394 38.9014 41.8857 12.011 -0.00257534 9.02447e-05 0.00132128 
C 6.32349 30.6283 1.61457 12.011 0.00314458 0.000790338 0.00207053 
C 50.4868 0.459635 33.1037 12.011 -0.00280516 -0.00932331 -0.00189787 
C 31.1747 43.6739 25.9071 12.011 -0.0018424 -0.00249362 -0.00167114 
C 46.2636 26.7411 1.6223 12.011 0.00345041 0.000982595 -0.000103471 
C 44.4337 49.0785 3.82314 12.011 -0.00676879 -0.00749693 0.0038395 
C 18.548 0.798767 2.76628 12.011 -0.00188836 -0.0023304 -0.00196836 
C 6.40673 11.7452 10.0343 12.011 0.00285708 -0.00058956 -0.0038189 
C 34.652 48.2288 29.7876 12.011 0.00623878 -0.0018475 0.00267759 
C 27.0443 37.4691 41.1354 12.011 -0.0107535 -0.000496784 -0.0029408 
C 15.5749 30.8823 1.98309 12.011 0.00425579 -0.00581133 -0.00393575 
C 48.339 28.9459 32.9657 12.011 -6.91588e-05 -0.0111121 -0.00200395 
C 34.8516 42.2287 16.677 12.011 -0.00286955 0.000987991 0.00451313 
C 11.4 2.82194 36.6115 12.011 0.0053823 -0.00963896 0.0105198 
C 5.97787 16.6786 2.85288 12.011 0.00310486 0.00379056 -0.00276057 
C 43.2103 36.399 20.0819 12.011 1.79975e-07 0.00388897 0.00755295 
C 20.2173 40.9341 45.4286 12.011 0.00282884 0.000400831 0.00329789 
C 22.3546 22.1803 46.1918 12.011 -0.000308288 -0.00103524 0.00944694 
C 14.4502 3.13183 44.9002 12.011 -0.00595532 0.00223764 0.00237079 
C 44.3871 14.3313 37.2055 12.011 -0.00109696 0.000920161 0.000750273 
C 31.1856 3.92073 26.1083 12.011 -0.006194 0.00658674 0.00160653 
C 42.438 6.42121 39.1513 12.011 0.00721685 0.00267331 0.00582489 
C 42.3813 29.6679 6.25424 12.011 -0.00271021 -0.00115031 -0.0137953 
C 50.2172 45.9769 49.0124 12.011 -0.00206605 0.00202119 -0.000667083 
C 47.7934 46.6121 23.2106 12.011 0.00225291 -0.00141169 -0.00408152 
C 41.7242 7.75106 0.9182 12.011 0.00014244 0.00790268 0.00974675 
C 35.5909 41.7432 20.7049 12.011 0.00651196 0.00602606 -0.0035904 
C 18.9102 14.8569 7.28018 12.011 -0.000333667 0.00546214 -0.00551584 
C 45.2337 24.3881 28.8551 12.011 -0.00340272 -0.0067119 0.00665091 
C 10.7594 27.0983 33.834 12.011 -7.86681e-05 -0.00679476 -0.00239712 
C 36.021 2.08276 36.0488 12.011 -0.0061338 -0.00187699 0.0054961 
C 37.0623 14.1101 25.8978 12.011 -0.00201603 -0.00038256 -0.000485482 
C 11.7502 0.204257 11.3923 12.011 0.00241781 -0.0123489 -0.00709326 
C 16.5183 33.1843 11.5708 12.011 8.75597e-05 0.0110263 -0.0072909 
C 28.4494 22.7804 43.9515 12.011 0.00363118 0.00505983 -0.00141153 
C 33.4627 14.5303 26.5499 12.011 0.00543048 0.003257 -0.00165636 
C 50.9579 40.6439 43.7009 12.011 -0.00249545 -0.0102496 0.012916 
C 46.8038 27.9311 44.898 12.011 -0.0083989 -0.00165191 0.00156278 
C 47.5358 41.0499 26.0941 12.011 0.00125239 0.00357223 -0.00393991 
C 48.0617 43.183 27.3068 12.011 0.00224558 -0.00120703 -0.0008283 
C 28.8472 2.08526 30.8031 12.011 0.00026211 0.00461067 0.0059574 
C 8.74377 26.8246 44.4558 12.011 0.00900293 -0.00662922 0.00679015 
C 25.7611 4.11599 39.4025 12.011 0.00273135 -0.00217711 0.00278837 
C 18.0454 39.7253 30.5143 12.011 -0.000687429 -0.000438398 -0.00425117 
C 17.8704 12.947 22.7534 12.011 -0.00407556 0.00702962 -0.00167507 
C 25.043 29.7058 22.3097 12.011 0.00494397 -0.00196776 0.00604593 
C 47.0543 13.3076 0.11382 12.011 -0.00398671 -0.0028833 -0.00649765 
C 2.13206 2.15495 26.5116 12.011 -0.00435097 0.00154003 8.80074e-05 
C 48.499 35.5612 32.6699 12.011 -0.000146666 0.00277868 0.00628341 
C 34.2559 39.1742 47.3223 12.011 -9.66699e-05 0.000122689 0.00349189 
C 23.6237 1.55475 45.8493 12.011 -0.00221651 0.00630155 0.00444023 
C 10.015 33.8425 33.9547 12.011 0.00278884 0.00853 0.00213317 
C 29.5655 6.23303 4.73282 12.011 -0.00956922 0.00162356 -0.00189083 
C 32.8661 34.919 25.8845 12.011 -0.00230432 0.00916644 0.00111808 
C 50.502 19.8912 45.7077 12.011 -0.00248119 -0.0033934 -0.00253103 
C 18.3138 11.3629 18.8829 12.011 -0.0015113 0.000674144 -0.00208939 
C 31.3944 19.3852 17.3249 12.011 -0.00191076 -0.00625715 0.000207086 
C 9.13176 8.28252 39.9213 12.011 -0.00441802 -0.000290293 0.000580832 
C 26.1585 2.54976 15.1913 12.011 -0.00300259 0.00616439 0.00212701 
C 31.2514 18.3448 39.8728 12.011 0.00744343 -0.00094068 0.00560036 
C 35.397 3.41278 9.77194 12.011 -0.00187681 -0.00242214 0.00711367 
C 2.42227 21.7207 35.2438 12.011 0.000331653 0.000941753 -0.00567275 
C 7.89992 37.6178 14.8913 12.011 -0.000708801 0.0069014 -0.00156242 
C 47.4093 16.8527 6.11339 12.011 -0.00668435 0.000968751 -0.000977483 
C 2.4694 34.307 21.4047 12.011 0.00573319 0.00202259 -0.00170095 
C 42.1564 8.41497 12.0777 12.011 0.00400364 0.00158449 -0.00453823 
C 41.7921 1.00174 44.6695 12.011 0.00721452 0.00230433 0.00482965 
C 14.2633 30.6044 28.4036 12.011 0.00341637 0.00159321 -0.00690599 
C 5.44484 41.9109 37.8167 12.011 -0.0138693 0.00488931 0.000307773 
C 49.3913 26.992 5.01604 12.011 -0.00651222 -0.00460872 -0.0022432 
C 12.6963 37.9448 36.9102 12.011 -0.00436647 0.00212246 -0.00539719 
C 24.9186 47.8197 13.0156 12.011 0.000618046 0.00184777 0.00729213 
C 35.8383 47.7002 29.2087 12.011 0.00567194 0.00852019 -0.00973716 
C 17.9043 8.43645 47.707 12.011 -0.00708422 -0.00293661 0.00101399 
C 45.8273 9.9426 38.2459 12.011 0.00733403 -0.000180145 -0.00314234 
C 47.5002 37.2835 10.9497 12.011 0.00380449 0.00956548 -0.00182039 
C 32.8226 14.3175 11.5443 12.011 -0.00166401 0.00224591 0.00340702 
C 43.522 50.5899 15.2371 12.011 -0.00216279 0.00149161 0.00472514 
C 0.205279 28.9561 10.9782 12.011 -0.00168008 -0.00722345 0.00291344 
C 13.7124 11.6151 28.578 12.011 0.00242492 0.00210556 0.00488586 
C 17.5917 13.6642 9.04206 12.011 0.00534575 -0.00515776 -0.000890096 
C 8.52674 24.3127 15.8263 12.011 0.0072904 -0.00177026 0.000260813 
C 46.1873 31.9894 16.0735 12.011 -0.00630224 -0.000505733 0.00395844 
C 31.5262 44.2191 2.42179 12.011 0.00467416 0.00149964 0.00428144 
C 26.8196 23.3453 10.334 12.011 -0.000226086 0.00183845 0.00196359 
C 11.1885 35.5572 16.3712 12.011 -0.00195317 0.00478953 0.00277272 
C 26.1359 14.8749 2.006 12.011 -0.00297205 -0.000814276 0.000170562 
C 1.79683 33.5794 10.1137 12.011 0.00194565 -0.00211013 -0.00528395 
C 30.1374 44.6569 11.4725 12.011 0.00089047 0.00499638 0.0033257 
C 45.338 17.8236 33.8998 12.011 0.00947605 -0.00158392 -0.00348267 
C 11.3825 26.6293 28.2889 12.011 0.00168069 -0.00140922 -0.00264304 
C 25.7584 18.8976 25.1628 12.011 0.00240962 0.00102794 -0.00337427 
C 14.7429 31.3869 4.28959 12.011 0.00373314 -0.00376484 -0.00950364 
C 12.3361 32.5953 46.6734 12.011 -0.000120188 0.00481492 -0.00598048 
C 9.4375 23.7424 34.8248 12.011 0.00461213 0.00255965 -0.00476552 
C 5.36452 36.2503 8.31859 12.011 -0.00443007 -0.00416582 0.00096658 
C 32.6581 41.5826 36.3538 12.011 -0.00829931 -0.00587709 0.00699095 
C 21.8738 13.4032 38.1419 12.011 -0.00257931 0.00310381 -0.00368875 
C 42.8885 14.7029 50.2983 12.011 -0.0101367 -0.0085934 0.00296104 
C 34.5896 34.3257 7.29607 12.011 -0.00180488 7.45126e-06 -0.0016876 
C 0.510122 45.0683 28.9556 12.011 -0.0096655 -0.00150933 -0.00220753 
C 35.7082 9.89648 4.58567 12.011 0.00492336 -4.31975e-05 0.00273547 
C 20.1341 32.932 21.9694 12.011 0.00288241 -0.0110707 -0.00521264 
C 31.837 50.8918 3.40186 12.011 0.0092689 -0.00133122 -0.00155123 
C 18.2334 18.2318 36.9807 12.011 0.00273381 -0.00080536 -0.00446634 
C 8.82511 49.1786 9.4101 12.011 0.000950502 -0.00302123 -0.000129793 
C 11.1914 23.0841 50.0157 12.011 0.000228146 0.00494905 0.000754163 
C 45.0358 36.1686 25.8808 12.011 0.00352468 -0.00760264 0.00076245 
C 46.8474 50.202 0.404206 12.011 -0.00227595 -0.00145422 -0.000361178 
C 22.1692 15.1274 19.7107 12.011 0.00484982 -0.000788827 0.000457357 
C 11.3067 14.2156 7.68907 12.011 -0.00120776 -0.0031265 -0.000219157 
C 29.3103 4.00523 18.7225 12.011 0.0054885 0.00195026 0.0021185 
C 8.16464 8.40612 29.8844 12.011 -0.0085348 -0.00788196 0.00579265 
C 33.8914 23.7319 37.5105 12.011 0.00470202 0.00318959 -0.00294087 
C 29.9587 17.7601 29.0135 12.011 0.00486021 -0.00531003 -0.00361712 
C 21.6908 21.7042 34.3325 12.011 0.00622961 0.00748371 -0.00513845 
C 31.0889 8.63352 7.19568 12.011 -0.00116133 -0.00847924 -0.00460818 
C 28.0851 8.72204 36.9853 12.011 0.000935669 0.00534681 -0.00651927 
C 49.5234 35.9531 47.7075 12.011 -0.00638491 0.00346506 0.000383025 
C 35.0603 18.532 14.428 12.011 -0.000375435 0.00733579 0.00707372 
C 38.8181 31.7706 11.4235 12.011 -0.00729343 -0.000474319 0.00356626 
C 6.32072 29.7348 2.81181 12.011 -3.80931e-05 -0.000660437 0.00220479 
C 49.115 5.33728 2.47922 12.011 -0.0106251 -0.00206189 -0.00465035 
C 9.03156 6.88776 8.64955 12.011 -0.00481614 0.000276588 0.00879444 
C 32.6079 2.08411 27.6294 12.011 0.00142919 0.000837804 0.00571253 
C 19.6922 9.976 15.3279 12.011 -0.00219621 0.00172849 0.00524904 
C 21.2741 30.8047 17.9438 12.011 -0.00188795 -0.000225813 0.00731983 
C 13.1233 19.4039 26.9652 12.011 -0.00743696 0.00254681 -0.00353673 
C 7.09289 13.4995 18.5133 12.011 0.00494082 0.00174904 -0.00210142 
C 19.9207 7.31932 18.9021 12.011 -0.00578461 0.00228274 0.00472938 
C 2.0186 34.8437 45.8044 12.011 0.00041315 0.00693209 0.000399706 
C 46.7534 16.296 47.6974 12.011 -0.0119345 -0.0070136 0.00181243 
C 15.2995 36.0762 44.3249 12.011 -0.00405408 -0.00496272 -0.00486642 
C 2.52536 17.9098 46.4284 12.011 -0.0049068 -0.00121164 -0.00712417 
C 6.28963 2.22448 42.1227 12.011 0.00619851 -0.00136272 0.00261592 
C 24.6406 34.526 25.0732 12.011 -0.00751742 0.000134546 5.57347e-05 
C 49.8589 17.7208 46.4438 12.011 0.000529617 -0.00300434 0.00234202 
C 48.8421 43.4123 11.2403 12.011 0.000255686 0.00688088 -0.00207509 
C 5.42879 30.7596 39.7006 12.011 -0.00132561 0.0054139 -0.00273012 
C 43.163 6.82567 4.89375 12.011 -0.00817264 -0.00717092 0.00402762 
C 47.7088 6.36717 47.2069 12.011 0.0034995 -0.00134418 -0.00453625 
C 35.3803 20.9185 49.2415 12.011 0.00467068 0.000968374 0.00644253 
C 10.902 43.4244 1.46688 12.011 -0.00256429 -0.00299492 0.00506587 
C 31.6283 17.5788 32.2236 12.011 0.00131734 0.003573 -0.0034343 
C 14.6818 9.12859 23.0229 12.011 0.00568209 -2.65312e-06 0.00492452 
C 12.1013 38.5314 21.5489 12.011 0.00143945 0.00314157 0.00413059 
C 39.1864 32.321 31.0986 12.011 -0.00827887 -0.00592257 -0.00100625 
C 20.0949 17.7463 32.6592 12.011 0.000983866 0.000129786 0.0022463 
C 35.7434 5.99886 33.6531 12.011 -0.00249169 -0.000319282 -0.000816765 
C 27.7247 35.445 36.1847 12.011 0.000356849 0.00981264 0.0043685 
C 31.2093 36.341 48.9986 12.011 0.000165795 -0.00395911 0.00242302 
C 34.474 38.0545 39.6077 12.011 0.00167183 -0.00159009 0.000470337 
C 23.8734 50.2517 0.346768 12.011 -0.00282079 -0.000518224 0.00192784 
C 45.1686 37.0103 11.6761 12.011 -0.0108518 -0.000625374 -0.00936994 
C 38.8234 15.27 34.4978 12.011 -0.00918334 -0.00764863 -0.00643316 
C 2.73581 2.16628 12.1204 12.011 0.000184864 -0.00159703 0.00667197 
C 33.5272 7.61196 34.1293 12.011 -0.004725 -0.00827856 0.00197372 
C 0.989487 5.99315 12.7373 12.011 -0.00361913 -0.00519848 0.00421013 
C 42.3594 8.44392 3.18207 12.011 0.00294992 3.23564e-05 -0.00118204 
C 39.6096 22.2106 7.68788 12.011 0.00257799 -0.00136976 0.00200897 
C 15.0658 40.5702 7.70523 12.011 0.00435966 4.17184e-06 0.000539492 
C 46.0377 32.2121 45.0653 12.011 -0.0108584 -0.0051722 0.000484901 
C 21.4441 29.8467 7.19365 12.011 0.00517027 0.00223672 -0.000488273 
C 29.8323 40.2196 44.2555 12.011 0.00641307 0.000245118 -0.00514169 
C 26.2688 38.1084 33.728 12.011 0.00832491 -0.00189089 -0.00174592 
C 34.067 27.6598 43.5354 12.011 -0.000960156 0.00490068 0.00390216 
C 50.9801 29.4182 39.3568 12.011 0.00687193 -0.000760597 -0.0055428 
C 8.17501 32.6937 10.8542 12.011 -0.000668868 -0.00457194 0.000660457 
C 50.185 21.9351 5.79213 12.011 -0.00212361 -0.00745903 0.00137073 
C 1.5185 2.68508 45.2142 12.011 0.00647994 -0.0031532 0.00690619 
C 25.5959 3.68321 5.3017 12.011 -0.00351313 -0.00302909 -0.00285492 
C 20.151 39.5738 42.1071 12.011 -0.00244762 0.0046232 0.0126305 
C 16.463 2.97701 41.7165 12.011 0.00374229 0.00357809 0.00904236 
C 47.3435 16.9157 16.1899 12.011 -0.00264925 0.00556183 0.00110716 
C 10.0039 35.7871 27.6581 12.011 0.00296367 -9.83824e-05 0.00961075 
C 32.6467 21.5663 4.83492 12.011 -0.00440127 0.000422882 -0.00144556 
C 30.6924 5.67216 41.8845 12.011 -0.000671541 0.00644323 0.00693471 
C 23.1994 0.434898 49.3601 12.011 0.00662499 0.00275096 0.00202566 
C 45.8463 7.61766 12.0788 12.011 0.00334267 -0.00737116 -0.00105118 
C 28.1241 35.3208 2.51592 12.011 0.00417429 -0.00197004 0.00364637 
C 30.5982 48.1826 32.6562 12.011 0.00477456 -0.00457966 0.0103481 
C 41.1182 41.6986 34.8698 12.011 0.000167388 -0.00166862 0.00325256 
C 48.5225 6.80283 46.1227 12.011 -0.00112784 -0.00652137 0.00178268 
C 23.5105 5.18037 44.6847 12.011 -0.000719721 0.000260892 0.00241673 
C 25.1398 13.4717 32.429 12.011 -0.00247615 -0.00308642 -0.00453907 
C 32.0262 43.4353 14.4688 12.011 -0.000352589 0.00282236 -0.000423868 
C 19.7836 32.7224 29.4782 12.011 -0.00109054 -0.00175955 -0.00103309 
C 10.762 33.3873 4.60251 12.011 -0.00232938 -0.00139312 -0.00454306 
C 9.84733 23.8875 28.5183 12.011 -0.00086871 0.00258696 -0.00115309 
C 38.4666 1.27058 9.20989 12.011 -0.00480474 -0.00266544 -0.00351998 
C 15.1854 11.8582 16.0939 12.011 0.00507804 -0.0101843 -0.00915579 
C 37.5248 30.4083 1.4862 12.011 0.00188631 -0.00024661 0.00319407 
C 43.9385 16.6895 17.4431 12.011 0.00489008 0.00600837 -0.00423354 
C 49.3286 10.848 21.143 12.011 -0.0080624 0.00532775 -0.00252836 
C 43.8374 17.9226 13.2723 12.011 -0.00114031 -0.000798334 0.00253471 
C 44.0843 9.05488 7.81157 12.011 -0.00237925 -0.000421486 0.0056099 
C 26.3693 18.4613 26.3986 12.011 -0.00668518 0.000789219 0.00207167 
C 34.0194 41.9542 43.988 12.011 0.00403777 -0.00584774 0.00136007 
C 14.3849 2.80535 38.9063 12.011 0.00411 0.00404801 0.00987017 
C 21.6421 50.9708 4.8172 12.011 0.00386861 -0.00265645 -0.00747505 
C 3.24812 0.312185 33 12.011 -0.00200274 0.000834458 0.00799728 
C 47.3646 20.2876 30.3968 12.011 0.00250371 0.00226802 -0.00141638 
C 41.5744 20.027 10.4344 12.011 0.00114055 -0.000634399 -0.00102752 
C 17.5881 30.9936 26.7632 12.011 -4.20456e-05 0.000714953 0.000644912 
C 27.8376 43.1122 48.1368 12.011 0.00382746 -0.00688771 0.00465223 
C 50.8045 32.7986 37.8428 12.011 -0.00416716 0.00743211 -0.00547164 
C 5.62642 10.7095 26.5983 12.011 -0.00365272 -0.00623126 1.44534e-05 
C 45.227 4.54541 21.5713 12.011 -0.00319615 -0.00612566 0.00366636 
C 29.5358 12.565 35.2956 12.011 0.00319465 -0.00307245 -0.00324779 
C 23.1903 29.8062 23.9882 12.011 0.0019278 0.00570115 0.0027373 
C 28.1174 21.5863 33.2839 12.011 -0.00170159 0.00299334 -0.00302331 
C 18.5389 48.7183 39.6172 12.011 0.00421438 0.00244622 0.00026596 
C 10.262 42.3202 18.6734 12.011 0.00277921 -0.00139696 -0.00592089 
C 2.32176 1.7449 37.733 12.011 -0.000601941 -0.00703491 0.0028445 
C 24.4478 46.4822 2.32909 12.011 0.00473698 0.00120231 -0.0069464 
C 34.2645 38.7324 28.5184 12.011 0.00318946 -0.00485791 -0.00700911 
C 29.8186 34.253 31.7433 12.011 -0.000367064 -0.000701292 -0.00343937 
C 13.6799 2.3945 8.15241 12.011 -0.0041627 0.0038229 0.00401956 
C 32.096 33.279 8.28776 12.011 0.0114555 -0.00592553 -0.00455489 
C 24.3627 28.0878 42.2482 12.011 -0.00649554 -0.00084051 -0.0163602 
C 21.3984 46.9506 30.5183 12.011 0.00151452 -0.0037653 0.00375918 
C 11.9019 35.9453 10.2155 12.011 0.00108879 -0.00483917 0.00109181 
C 7.59739 23.197 50.6548 12.011 3.64121e-05 0.000828762 2.5304e-05 
C 37.19 6.98184 11.2718 12.011 -0.00494573 0.000619547 -0.000747536 
C 10.1015 12.1116 16.7144 12.011 0.00321899 -0.00101932 0.00694911 
C 25.6988 43.3425 13.4802 12.011 -0.00206269 -0.00298164 -0.00622324 
C 4.0007 38.203 43.2522 12.011 0.00472574 -0.000686091 -0.000154389 
C 44.6562 36.6717 14.0351 12.011 -0.00268883 -0.00623103 0.00242683 
C 6.4184 20.3171 43.1978 12.011 -0.00288059 -0.00164921 -0.00110283 
C 3.30834 49.6035 12.9086 12.011 0.00207868 -0.00206984 0.000815486 
C 46.9198 3.35335 49.3776 12.011 0.000629955 0.00025528 0.00492383 
C 33.8216 49.1593 44.1804 12.011 0.00414893 -0.00558041 0.0030712 
C 41.2963 16.5422 9.07979 12.011 -0.000702117 -0.000448706 -0.0044201 
C 19.7157 17.0842 31.4344 12.011 -0.00311081 -0.00372113 -0.00203626 
C 24.9864 42.9101 0.295647 12.011 -0.0016287 0.00433326 0.00336182 
C 3.26363 25.4353 12.1873 12.011 -0.00377456 -0.0107877 -0.00224826 
C 31.0898 3.4582 20.3115 12.011 -0.00476762 -0.000819722 -0.0111396 
C 18.8145 5.59281 7.12225 12.011 -2.76282e-05 -0.00644936 -0.000600123 
C 38.2895 14.4389 23.8947 12.011 0.00148227 -0.00200988 0.00507399 
C 43.661 1.53411 48.3338 12.011 0.00502482 -7.79552e-05 -0.002873 
C 42.6774 16.3015 16.8624 12.011 0.00393421 -0.00753563 0.00342169 
C 32.4689 26.1068 3.21221 12.011 -0.00106899 0.00319607 0.000698459 
C 42.7739 6.8085 37.8775 12.011 -0.00282576 -0.00589668 0.00431526 
C 50.1846 43.6048 0.9321 12.011 0.0028883 -0.00646766 0.000574686 
C 43.8157 2.94704 33.962 12.011 0.00267424 0.00590773 -0.0121652 
C 37.6496 45.3101 23.2142 12.011 0.00309388 0.0027665 -0.00555509 
C 23.1528 15.0412 48.4234 12.011 -0.00714233 0.00487674 0.00232518 
C 50.9746 39.8084 7.47927 12.011 -0.00354252 0.00696799 0.00333452 
C 2.44265 23.0307 51.0206 12.011 -0.00425854 -0.00101955 -0.00354923 
C 8.12291 10.4457 49.5997 12.011 -0.000156167 -0.000991771 -0.000390664 
C 16.3839 36.7117 12.7772 12.011 -0.00221459 0.00716531 0.00315147 
C 16.097 46.6896 50.1777 12.011 -0.00717379 -0.00195342 -0.00109246 
C 32.2616 45.5351 30.6745 12.011 -0.00136302 -0.0014079 0.00269185 
C 13.4968 44.6868 44.4461 12.011 0.00474834 0.00376071 -0.00341179 
C 17.2911 16.0497 2.63452 12.011 -0.000425538 0.00703346 0.00671109 
C 23.2583 31.2005 6.22594 12.011 0.007237 0.00579631 0.00878418 
C 41.3912 6.00577 45.0424 12.011 -0.00192702 -0.00413418 -0.000111458 
C 48.9024 48.9016 23.555 12.011 0.00639216 -0.000385727 -0.00501574 
C 37.5466 45.6585 10.6848 12.011 -0.00532075 -0.00256315 0.000399785 
C 31.4228 24.9828 48.8276 12.011 0.00123701 -0.00372547 -0.00682548 
C 48.4818 10.0666 0.724714 12.011 0.00424122 0.00370252 -0.00104738 
C 36.8823 11.6592 12.6257 12.011 0.00624664 0.00534501 -0.00100339 
C 41.069 39.9606 45.4478 12.011 -0.00590869 0.00473032 0.00487511 
C 9.28952 44.1094 23.3598 12.011 0.00297963 0.00133503 -0.00139291 
C 9.18657 33.5193 16.2105 12.011 -0.00543547 0.00163987 0.000417986 
C 28.8009 50.0599 50.6409 12.011 0.000857365 -0.00328576 -0.00301852 
C 6.82622 24.9693 22.9392 12.011 0.000142682 -0.00356577 -0.00541573 
C 22.1072 50.6273 38.1558 12.011 -0.00420154 0.000910665 0.0111744 
C 16.9766 33.4251 1.90623 12.011 0.00220006 -0.00667188 0.000426913 
C 16.3161 30.7995 11.2173 12.011 0.000472786 0.00020466 0.000836137 
C 32.3297 0.0175411 19.3488 12.011 -0.00208905 -0.000507989 -0.00100748 
C 38.9288 24.2047 3.20007 12.011 0.0104481 0.00459522 -0.000705463 
C 40.5983 42.7643 21.3142 12.011 0.00482006 -0.00312085 -0.00445479 
C 14.3677 5.30796 46.135 12.011 -0.000665155 -0.00999521 -0.00154527 
C 25.5621 13.3983 44.1945 12.011 0.00570468 0.00301356 0.00106866 
C 46.5366 21.0186 38.0999 12.011 0.00478124 0.00093565 -0.00737602 
C 42.1281 26.3169 9.14505 12.011 -0.000554822 0.00389478 -0.00587988 
C 32.6675 17.4015 36.4589 12.011 0.00259401 0.000725735 0.00199866 
C 44.5525 16.8622 12.6089 12.011 0.000260324 -0.00413752 -0.00752844 
C 18.3874 0.496983 38.771 12.011 -0.00777674 0.00555902 0.00160282 
C 15.2441 22.5858 1.54325 12.011 -0.0031293 -0.0032106 -0.00418492 
C 14.1805 35.8212 47.9454 12.011 -0.00801894 0.000568501 0.0012174 
C 48.5476 7.26371 12.8705 12.011 0.00212471 -0.00316563 0.012863 
C 13.5815 34.1478 7.29615 12.011 -0.00634714 -0.00169651 0.00162001 
C 34.5072 34.168 50.946 12.011 -0.0084316 0.00636756 0.00337303 
C 19.7383 31.9389 21.0282 12.011 0.00377804 -0.00720017 -0.00352288 
C 50.0968 37.1336 15.6653 12.011 -1.82396e-05 -0.00326506 -0.00676681 
C 23.3825 27.8993 16.6128 12.011 -0.00377998 -0.0033625 -0.0030811 
C 29.8674 31.0177 14.4438 12.011 -0.00110278 0.00459917 -0.00416678 
C 19.5112 49.2735 50.6802 12.011 -0.00680888 -0.000433818 0.00257203 
C 31.0392 13.0659 31.3897 12.011 -0.00602813 0.00166393 -0.00440469 
C 20.9043 27.2635 35.4051 12.011 0.00574401 0.00750704 0.0055806 
C 33.4622 50.8058 9.27717 12.011 -0.00196393 0.00274138 0.00302362 
C 10.5191 34.0813 36.294 12.011 -0.00502774 0.00233405 0.00580275 
C 19.1816 20.5523 47.4417 12.011 0.00142356 0.000343821 0.00244993 
C 16.6017 6.44961 6.40311 12.011 -4.41939e-05 -0.00426649 -0.00324092 
C 40.9217 43.3066 24.0085 12.011 -0.00188559 0.00385807 0.00557422 
C 1.07506 27.6614 41.1047 12.011 -0.00206151 -0.00104995 0.00705327 
C 28.606 47.5869 41.0798 12.011 0.00300739 -0.0041954 -0.00406179 
C 47.6592 3.36018 15.4156 12.011 0.00447506 0.00265154 0.00258226 
C 30.4774 4.75365 25.1779 12.011 0.00356026 0.00100004 -0.00390432 
C 31.0011 35.9132 50.4076 12.011 -0.00200511 0.00106049 -0.00235618 
C 23.6244 37.9166 14.6991 12.011 0.00340686 -0.00393784 0.00380421 
C 33.6386 42.4167 25.6588 12.011 0.00295767 -0.00575075 -0.00487989 
C 9.23509 13.1511 17.0888 12.011 0.00135358 0.000621619 -0.000165374 
C 39.5441 26.6841 46.4464 12.011 0.00146757 -0.010587 -0.00747883 
C 5.01176 7.85912 3.99332 12.011 0.000220059 0.000377167 -0.00335186 
C 6.06665 37.8466 48.2959 12.011 -0.00595714 0.00346489 -0.00606063 
C 5.39316 39.5907 20.6962 12.011 0.00356899 0.00827344 -0.00531751 
C 1.03641 22.7147 0.108697 12.011 -0.00236085 0.000328529 -4.54541e-05 
C 41.8203 9.58959 33.2621 12.011 -8.49601e-05 -0.00856386 0.00461387 
C 36.7964 16.887 5.74604 12.011 -0.00955343 0.00110162 0.00193193 
C 21.323 21.034 2.52464 12.011 0.000484148 0.00814238 -0.00371007 
C 23.152 3.73911 5.6446 12.011 -0.00311425 0.00162416 -0.00505835 
C 9.09668 45.0227 25.6586 12.011 -0.00319192 -0.00323953 -0.00399975 
C 50.0324 36.3177 37.1974 12.011 0.00224109 -0.00158777 0.0048403 
C 37.8022 11.5496 7.11761 12.011 0.00289549 -0.00184156 0.00149124 
C 41.4869 49.7353 16.1147 12.011 -0.00439565 0.00140658 -0.000806765 
C 29.7692 10.6864 47.5119 12.011 0.00212841 0.00107756 -0.000538164 
C 50.6611 3.51353 3.12037 12.011 0.0045403 0.00636633 -0.00444823 
C 20.0688 14.2163 22.3119 12.011 0.0053293 0.00437263 -0.00368519 
C 40.1662 21.9276 2.89506 12.011 -0.00317386 0.000340884 0.00246077 
C 47.3448 25.3344 12.2223 12.011 -0.00466788 -0.00326524 -0.00278962 
C 0.209026 22.072 44.7401 12.011 -0.00161228 0.00300166 0.00269787 
C 21.4612 36.8766 17.4521 12.011 0.00344075 -0.00277337 0.000404284 
C 15.5936 28.4644 36.1191 12.011 0.00323216 -0.00363635 0.00205175 
C 30.0583 21.8291 20.0434 12.011 0.00711897 0.00838339 -0.000452196 
C 35.0496 19.6139 44.5159 12.011 0.00485405 -0.00137844 -9.898e-05 
C 0.102085 14.7385 30.1858 12.011 -0.00324313 0.0116931 0.00338203 
C 2.10233 25.1616 23.8551 12.011 0.00486707 -0.000594572 -0.00428755 
C 5.14259 28.3629 16.7449 12.011 -0.000988304 -0.00236424 2.75919e-05 
C 0.374837 39.4438 21.4149 12.011 -0.00671644 0.00675927 0.000617285 
C 14.7906 33.9846 43.1818 12.011 -0.00811521 0.0029349 0.000327987 
C 40.7402 25.4879 38.899 12.011 0.000494289 -0.00332116 -2.94703e-05 
C 3.35649 26.1086 39.9298 12.011 -0.00606646 -0.0025849 -0.000242028 
C 24.9415 22.7974 30.4815 12.011 0.00533011 -0.00100518 0.000667694 
C 7.33586 9.45906 16.932 12.011 0.00245235 0.00567425 -0.00135327 
C 30.3215 39.746 25.4563 12.011 -0.00354633 0.00226424 -0.00176661 
C 34.2845 19.504 15.093 12.011 -0.0143861 -0.00435139 0.00398692 
C 5.67872 21.7598 5.79385 12.011 -0.00370868 -0.00509836 0.000939887 
C 1.9165 39.1599 43.3228 12.011 -0.00532519 -0.00736489 0.00451947 
C 37.2576 30.0895 10.182 12.011 0.000986315 0.000647451 0.00548665 
C 24.5856 18.7516 17.2971 12.011 0.00124676 -0.0054393 0.0104952 
C 22.9438 49.0608 9.45895 12.011 0.00641759 0.00295575 -0.00483295 
C 30.8929 39.1579 34.1735 12.011 -0.00626415 -0.00498401 -0.0045769 
C 48.1446 4.22238 19.1399 12.011 -0.00157767 -0.0026988 0.00706618 
C 49.9738 7.23594 12.9858 12.011 -0.00325992 0.00185573 0.000844729 
C 29.9811 49.5859 10.9917 12.011 0.00362106 0.00216105 -0.000331109 
C 17.0862 14.3883 28.035 12.011 0.00502083 0.00483887 -0.0049195 
C 10.5059 24.353 20.8758 12.011 0.00668848 -0.00102303 -0.000203285 
C 14.0403 39.239 17.5368 12.011 -0.00781772 -0.00365809 0.00200488 
C 46.1623 40.701 4.17985 12.011 0.00104913 -0.000468822 0.0019876 
C 36.4923 49.4433 44.9783 12.011 0.00329033 0.00402924 -0.00445318 
C 49.8016 37.347 17.161 12.011 -0.0072363 0.00227443 -0.00759573 
C 42.2014 28.0779 3.63421 12.011 0.0075049 -0.00486537 -0.00365453 
C 7.33414 31.7162 50.6315 12.011 -0.00525335 -0.00460987 -0.00722969 
C 29.9414 19.1281 50.432 12.011 -0.00229699 0.00153203 -0.00890794 
C 4.92818 16.8695 7.14392 12.011 -0.00203711 0.00242593 0.00163606 
C 12.8448 25.9153 13.5714 12.011 -0.00141093 0.00739878 0.00503091 
C 45.9191 16.943 23.2094 12.011 -0.00577584 0.00424893 0.00306595 
C 7.65392 8.16875 39.8473 12.011 -0.00178487 -0.000398434 0.000860445 
C 30.5489 49.0906 40.2925 12.011 0.00614182 -0.0040965 -0.00128603 
C 47.6023 38.1913 32.3966 12.011 0.000259883 -0.00945967 0.00458155 
C 8.60004 45.7284 29.3478 12.011 -0.00277412 0.00229705 -0.00699816 
C 26.8223 16.0419 46.2971 12.011 -0.00795271 -0.0127852 -0.00122466 
C 3.01519 39.0555 20.4143 12.011 0.00688507 -0.000994206 -0.00124688 
C 46.1701 4.23047 11.2825 12.011 -0.00154679 -0.0043783 0.00065525 
C 22.9454 4.14523 46.9587 12.011 -0.00278101 -0.000194305 0.00117822 
C 3.3827 25.2661 47.6544 12.011 -0.00252803 -0.00982511 -0.00427025 
C 31.2189 34.1002 32.0782 12.011 -0.00679503 -0.00882983 0.00203105 
C 30.6429 31.3869 8.2729 12.011 -0.00414731 -0.00019389 0.00654959 
C 37.6327 31.1229 18.8544 12.011 0.0033285 -0.00723478 0.00282697 
C 5.89304 48.5296 19.3116 12.011 0.0110373 -0.00264757 0.00408535 
C 5.71492 45.4601 3.18148 12.011 0.000747158 -0.00186186 -0.00359745 
C 12.1733 37.7748 1.95574 12.011 0.00144528 0.00085031 -0.000604235 
C 48.9073 21.7253 45.3891 12.011 0.00386221 -0.00621246 0.00777217 
C 46.4817 17.0763 15.0515 12.011 -0.000358407 0.00164613 0.00459603 
C 22.8884 34.7095 40.1977 12.011 -0.00142443 -0.00673161 -0.0037165 
C 1.74985 7.15122 13.1548 12.011 0.00580021 0.00065902 -0.00205799 
C 41.4876 16.692 43.3268 12.011 -0.00253831 0.00491868 0.000206142 
C 12.0239 28.3035 8.97767 12.011 0.0048759 0.00329368 -0.00221684 
C 13.6952 0.949212 10.1695 12.011 0.00710257 -0.00903448 0.000518679 
C 42.0114 30.3668 34.4548 12.011 0.00224605 0.000758344 -0.00469121 
C 42.0661 14.4626 30.7379 12.011 0.000739111 0.00941228 0.00428602 
C 1.09109 25.9613 24.4113 12.011 -0.00470971 0.00563811 0.00239987 
C 10.6935 9.95988 1.87334 12.011 -0.000203781 0.00669559 0.00804938 
C 43.0788 42.7777 20.9569 12.011 0.00392063 -0.0107203 -0.00212232 
C 6.9157 21.583 38.3854 12.011 0.00292275 0.00551503 0.000806505 
C 30.1338 5.88315 45.5695 12.011 -0.00147137 9.29864e-05 -0.00545256 
C 40.212 32.0004 11.1904 12.011 -0.00650498 0.00602255 -0.00164641 
C 30.3632 20.504 19.5298 12.011 0.00034516 -0.00233885 -0.0043051 
C 16.0729 48.0075 23.6438 12.011 0.00374941 -0.00418199 -0.0069248 
C 23.2181 18.416 12.6992 12.011 -0.00460753 -0.00601297 -0.00411189 
C 4.12079 30.3692 2.33043 12.011 -0.00302705 0.00195495 0.000915379 
C 12.0937 11.5185 0.726595 12.011 0.00447346 -0.00159124 -0.00358882 
C 47.4184 1.40373 13.0207 12.011 0.00244825 0.00245743 0.000231615 
C 30.13 29.1429 1.16567 12.011 0.00660469 0.000561409 0.00212989 
C 8.28412 9.56066 3.18324 12.011 9.51051e-06 -0.00728876 0.00564884 
C 16.1615 5.36118 2.86263 12.011 -0.00168454 0.0054642 -0.00098215 
C 14.2526 48.2602 27.1586 12.011 3.90658e-05 0.00235634 -0.00683273 
C 1.8546 0.363994 32.5833 12.011 0.00852252 0.00959519 0.00941205 
C 20.8375 43.8268 3.84771 12.011 0.00204129 -0.00697398 0.000706623 
C 8.18133 15.6933 2.97726 12.011 0.00162921 0.00698579 0.00287133 
C 43.0244 49.0452 36.9223 12.011 4.52671e-05 -0.00567197 0.00238266 
C 23.6048 6.19791 21.1069 12.011 -0.00190584 -0.00284541 -0.00298009 
C 3.76768 16.1497 32.2533 12.011 -0.000957921 -0.000897983 0.0049625 
C 18.9033 13.8762 23.1242 12.011 -0.000145378 -0.00108748 -0.0045731 
C 9.77108 16.2239 7.95153 12.011 0.00595761 0.00317152 -0.00309781 
C 7.69785 35.0094 17.6802 12.011 -0.000482655 0.0046598 0.00172583 
C 39.6846 42.2457 15.8093 12.011 -0.000396947 0.00495955 0.00946788 
C 43.3347 36.5361 17.5864 12.011 0.000543116 -0.00410454 0.00506841 
C 0.740779 26.3565 12.0339 12.011 0.00295769 0.00213393 0.00310451 
C 16.7689 0.492446 0.687049 12.011 -0.00443066 0.00583033 -0.000693431 
C 5.24589 25.9015 44.5032 12.011 0.0025386 0.000203393 -0.00237252 
C 24.4047 11.7881 42.377 12.011 -0.00272841 -0.000478106 -0.00317804 
C 37.8544 27.1359 3.16746 12.011 -0.00852978 -0.00190667 -0.00203316 
C 36.988 5.56536 2.57798 12.011 -0.00163237 -0.00404936 -0.00812783 
C 2.85023 23.9838 50.0891 12.011 -0.000243256 0.00603649 -0.00119943 
C 13.9625 9.72286 9.5487 12.011 0.00347464 0.00043542 0.00196043 
C 47.7213 49.6531 23.8171 12.011 0.00161679 -0.00122654 -5.51809e-05 
C 6.31021 11.8009 49.5071 12.011 0.00640821 -0.00612128 0.000843484 
C 27.7119 26.9552 10.9603 12.011 0.00168644 0.0054405 0.000455866 
C 46.2897 0.472756 24.1511 12.011 -0.00358813 -0.00293076 -0.00567239 
C 8.42194 8.09389 9.02882 12.011 0.00862865 -0.00167114 0.00306069 
C 47.0339 37.5883 9.66921 12.011 0.000198269 0.005334 -0.00527503 
C 30.8259 6.22329 7.08508 12.011 0.00185561 0.00143088 -9.65096e-05 
C 2.68607 9.46226 17.0868 12.011 0.000579951 -0.00258466 0.00279426 
C 22.1391 27.2028 18.567 12.011 0.0018044 0.00242645 -0.00395357 
C 1.02695 14.3173 13.2821 12.011 -0.00250565 -0.00038195 0.00290882 
C 25.1344 22.9131 16.5573 12.011 -0.00386827 -0.00497191 -0.0035473 
C 3.01123 1.40285 36.4896 12.011 0.00425901 0.000350759 -0.000517254 
C 17.0835 7.18376 36.7709 12.011 -0.00111938 0.00314139 0.00821537 
C 30.318 5.85788 1.13325 12.011 -0.00254959 -0.00583597 0.00156018 
C 15.8809 6.61299 0.546089 12.011 0.0123274 0.000598619 -0.00613909 
C 27.321 15.6291 9.75653 12.011 0.00542475 0.000416049 -0.0109449 
C 47.8329 32.8831 43.5422 12.011 -0.000457367 -0.000749295 0.00183649 
C 48.3928 41.0492 46.456 12.011 -0.000853456 -0.000288801 0.000533458 
C 34.6817 9.04556 0.0146926 12.011 -0.00424664 0.00212454 -0.0126888 
C 50.5782 46.5774 2.79523 12.011 -0.00575704 -0.00306696 -0.00327282 
C 40.3386 13.7721 50.0545 12.011 0.00842443 0.0038027 -0.000694849 
C 37.7143 47.5933 26.0056 12.011 0.00148561 0.000369506 0.00732442 
C 26.887 5.10237 18.6307 12.011 -0.00633233 -0.00033691 -0.00318025 
C 43.3821 34.8109 24.998 12.011 -0.00471434 -0.00894474 0.00384906 
C 14.4076 33.5087 34.5587 12.011 -0.000699623 -0.00337286 -0.00400088 
C 16.2413 12.885 24.7499 12.011 0.00954304 0.0022871 0.00531917 
C 1.80385 27.0886 43.4034 12.011 -0.00931589 0.00171731 0.00148233 
C 2.4473 49.0685 22.5872 12.011 0.00967088 -0.00117755 0.00270277 
C 48.6922 4.80845 44.6718 12.011 -0.00543575 0.000779531 -0.00457795 
C 22.2616 11.2813 33.4866 12.011 3.67402e-05 -0.0048382 -0.00615979 
C 32.6323 2.22015 3.83654 12.011 0.00649552 0.00210971 0.00639522 
C 42.9981 39.8839 41.658 12.011 -0.00358406 -0.00186707 0.00239782 
C 1.19838 40.8917 23.2678 12.011 0.000281585 -0.0014796 -0.00152589 
C 5.97614 0.373355 27.7806 12.011 0.00505241 -0.0102752 -0.00308807 
C 10.2034 17.1671 2.31484 12.011 -0.00352563 0.000902677 0.00463382 
C 23.6175 32.37 15.4537 12.011 0.00480714 -0.00313678 -0.00287799 
C 46.8597 37.6355 22.2411 12.011 0.0055541 0.000793324 0.00574736 
C 9.98707 35.6229 17.1318 12.011 -0.0106892 -0.00906129 0.00673523 
C 2.01183 31.8922 17.7542 12.011 -0.00452585 0.0020563 0.00332674 
C 7.20294 19.2745 45.6779 12.011 0.00576367 0.00613661 -0.0027878 
C 44.6946 33.3243 3.72828 12.011 0.00705651 -0.00763409 -0.000870607 
C 13.4098 17.8609 46.6749 12.011 0.00705497 -0.00084753 0.00434169 
C 41.805 50.8271 39.231 12.011 3.79285e-06 0.00331848 -0.00399247 
C 9.70516 37.4023 21.4339 12.011 -0.00391055 0.00544938 -0.00743228 
C 32.3712 8.42084 34.3946 12.011 0.00883671 0.000170829 -0.00581286 
C 5.97645 39.6656 5.62081 12.011 0.00407883 0.00380434 0.00201175 
C 29.3463 25.6345 45.0719 12.011 -0.00301248 -0.00297701 -0.00284008 
C 50.1521 1.12405 12.3972 12.011 -0.00657019 0.000172234 -0.0106407 
C 42.9466 20.984 2.61742 12.011 0.00175604 0.00922076 0.00318429 
C 40.7504 36.4945 9.1788 12.011 -0.00205452 -0.00766245 0.00243108 
C 31.6963 27.4575 50.1239 12.011 0.000823818 0.000681967 -0.00235524 
C 17.5727 15.4507 13.9176 12.011 -6.85255e-05 -0.000340243 -0.00178151 
C 1.83604 14.2973 14.5435 12.011 0.00408655 0.00367426 -0.000588105 
C 16.8475 47.2453 21.3367 12.011 -0.0113803 0.00327173 1.23218e-05 
C 6.65574 23.8647 49.8916 12.011 0.00788971 -0.00355161 -0.000582835 
C 37.663 36.0118 21.7544 12.011 -0.00197272 0.0017179 -0.00095033 
C 31.3732 16.9315 22.7411 12.011 0.00121365 -0.000270946 0.00446903 
C 38.1809 43.0495 14.0114 12.011 -0.00399018 -0.00151404 0.00644222 
C 49.5153 42.2543 25.4939 12.011 -0.00228211 0.00162072 -0.0100965 
C 25.63 24.5757 14.7681 12.011 -0.00294115 0.00508108 -2.95607e-05 
C 50.3019 44.6521 28.2667 12.011 -0.0031616 -0.00148854 0.0114399 
C 11.0765 17.1012 30.81 12.011 0.00751309 0.00344374 -0.0014492 
C 0.843158 37.4133 45.2288 12.011 0.00617125 -0.00145476 -0.00284831 
C 14.3362 27.6105 3.55904 12.011 -0.00430729 0.00614672 0.00214379 
C 30.346 3.52836 0.432758 12.011 -0.002618 0.00665599 -0.0018349 
C 37.612 0.445726 45.9364 12.011 -0.000146991 0.00767644 0.00113573 
C 27.8238 43.8007 8.5331 12.011 -0.0045828 0.00621147 -0.000879698 
C 43.0593 47.3542 27.7835 12.011 0.00580987 0.00209685 0.00129781 
C 17.8552 12.1124 47.2712 12.011 -0.00547995 0.00028452 0.000942057 
C 38.138 25.0339 31.1722 12.011 -0.00492348 -0.00485169 -0.000107809 
C 41.8507 24.9326 9.27687 12.011 0.00159015 0.00104847 0.00317541 
C 31.2096 34.3154 10.9056 12.011 -0.00443389 5.16046e-06 -0.000654877 
C 1.11999 0.748485 34.8994 12.011 -0.00176335 0.00325631 0.00113257 
C 7.1165 35.9103 13.255 12.011 0.00605617 -0.00682749 -0.000845548 
C 39.5796 47.1175 3.79159 12.011 -0.00958013 0.0121469 -0.00231975 
C 36.8322 37.8549 32.6698 12.011 0.00295878 -0.00711271 -0.0039206 
C 32.4172 49.5873 31.0819 12.011 0.00446516 0.00319704 0.00335139 
C 29.2317 34.1433 45.8008 12.011 0.000454936 -0.00159127 -0.000102265 
C 21.1865 18.8411 25.3681 12.011 -0.00595141 -0.00299325 0.00102207 
C 5.67267 13.0183 49.0247 12.011 0.000935645 0.0012977 -0.000473719 
C 21.063 24.3983 38.4039 12.011 -0.00244335 0.00141642 -0.00116436 
C 45.2391 21.3237 38.4173 12.011 0.00393598 0.0159636 -0.00240305 
C 38.3977 38.6336 40.2318 12.011 0.00262464 -0.00302757 -0.00161691 
C 28.2771 30.5518 2.02573 12.011 0.0071432 0.00547729 0.00608063 
C 24.2569 37.1664 46.0215 12.011 -0.00820393 -0.000572333 -0.00271862 
C 43.7755 48.3467 1.50115 12.011 0.00832096 -0.00577007 -0.0105971 
C 42.9059 29.3568 45.9826 12.011 -0.00221942 -0.00641456 0.00174437 
C 35.1204 25.0945 41.1249 12.011 -0.00917912 -0.00365585 0.00144393 
C 43.2611 1.1963 26.8516 12.011 -0.00486076 -0.00787916 0.00753273 
C 22.7422 27.7678 27.1075 12.011 -0.0021506 0.0011534 0.000261599 
C 10.7367 23.8723 40.4124 12.011 -0.00285482 -0.00245047 -0.00971447 
C 8.57287 15.358 8.15728 12.011 -0.00325053 -0.000836402 0.00129424 
C 23.2653 36.1384 30.3534 12.011 0.00220213 -0.000848714 -0.00542906 
C 35.554 29.5302 49.4552 12.011 -0.00364143 0.00105631 0.00181813 
C 11.3662 6.79154 17.7783 12.011 0.000589135 0.00106415 -0.00391183 
C 11.549 16.3223 14.3757 12.011 0.00426099 0.00448832 -0.00627519 
C 25.1667 38.4153 7.06416 12.011 0.00308078 0.00212291 -0.0017024 
C 34.281 25.1851 26.5466 12.011 -0.00180288 -0.0027583 -0.000472585 
C 39.4576 25.7702 39.4541 12.011 -0.000216918 0.000220129 -0.0106419 
C 2.36994 16.5724 7.47814 12.011 -0.00029003 0.00727024 -0.00135172 
C 15.1589 39.9884 19.7566 12.011 -0.00217174 -0.00678452 -0.00642582 
C 17.9274 8.45392 36.824 12.011 -0.00379181 0.000832423 -0.00178674 
C 8.81427 49.5036 2.46106 12.011 -0.00519417 0.00419929 0.00145929 
C 31.2783 50.2106 31.6154 12.011 -0.00258159 -0.00453572 -0.00343486 
C 47.0797 7.03021 50.2002 12.011 -0.00144961 0.00772959 -0.00136703 
C 21.5745 4.99997 49.8127 12.011 -0.00437162 0.000657295 -0.00456066 
C 25.7418 25.4221 48.1341 12.011 0.00293157 -0.00194901 0.00214082 
C 42.5897 29.1154 34.9435 12.011 0.00420871 -0.0015878 3.78418e-05 
C 34.403 36.7443 19.112 12.011 0.00342655 -1.20695e-05 0.00198464 
C 12.4131 26.9968 14.2194 12.011 -0.00602864 -0.000351468 -0.00753912 
C 10.3984 41.9513 37.6576 12.011 -0.00248402 -0.00114944 0.00326949 
C 29.6656 30.4986 8.76717 12.011 0.00748317 -0.000203453 -0.000857452 
C 4.88388 22.7116 32.3217 12.011 0.000847477 0.00179659 0.00378713 
C 2.40058 36.2396 11.9386 12.011 0.00493274 0.00208575 0.00404084 
C 39.7125 0.85841 17.6543 12.011 -0.00340185 0.00872357 0.00627792 
C 41.2788 34.4254 48.592 12.011 0.00580039 0.0098995 -0.00139848 
C 2.24136 33.3933 0.504941 12.011 0.00194417 0.00558817 0.00312212 
C 28.3539 22.023 31.9139 12.011 -0.00339057 0.00247541 0.00250703 
C 21.0825 3.97162 7.57184 12.011 0.00683269 -0.00156155 0.00915666 
C 49.4488 13.9608 43.9967 12.011 -0.00339721 -0.000716238 0.00655812 
C 6.21197 7.71622 36.2868 12.011 0.00338635 -0.00426317 -0.00235383 
C 35.672 50.7649 37.6232 12.011 0.00904077 -0.00399088 -0.00289682 
C 28.2689 45.512 48.5451 12.011 -0.0015182 -0.0123362 0.00714926 
C 28.7824 35.8817 37.0737 12.011 -0.00282926 0.000377366 -0.00518322 
C 41.9786 6.67249 35.7266 12.011 0.00393608 -0.00536657 -0.0033417 
C 39.0243 37.4452 39.7338 12.011 0.00089379 0.0030659 0.00323436 
C 42.8625 21.9335 33.8008 12.011 -0.00184917 -0.000513832 0.00595695 
C 4.09911 16.1964 28.5828 12.011 -0.0022456 0.00525158 -0.000273627 
C 29.9478 15.7091 36.6314 12.011 0.00106096 -0.00277247 -0.00488551 
C 25.5508 34.804 34.3776 12.011 -0.00517261 0.00165968 -0.00708939 
C 41.4517 50.7412 29.5928 12.011 0.00380688 0.00113111 0.000873198 
C 12.4032 47.5634 24.8575 12.011 -0.00329433 -0.00664548 0.0063088 
C 14.0533 34.2337 45.6187 12.011 -0.00441781 0.00455578 -0.00392246 
C 34.617 13.7638 45.6741 12.011 0.00803652 -0.00499622 -0.0050298 
C 39.2537 33.4624 42.8573 12.011 0.00191095 0.00484819 -0.00979317 
C 5.39049 34.3774 18.413 12.011 -0.000884992 -0.000819303 -0.00163319 
C 28.4237 31.8832 10.4949 12.011 -0.0018783 0.0034984 -0.00419215 
C 33.7262 2.82348 38.6243 12.011 0.00852087 -0.000794631 -0.00379871 
C 19.6687 34.4831 9.9756 12.011 0.00529465 0.000979935 0.00445835 
C 38.2127 0.929658 19.6439 12.011 0.00392495 0.00424039 -0.00388434 
C 35.4034 11.2444 29.3724 12.011 -0.0065637 0.00510969 0.00434349 
C 16.9105 28.6487 33.9644 12.011 -0.00307077 -0.00220187 -0.00598922 
C 40.9099 23.3497 40.008 12.011 -0.00227407 0.00210392 -0.00137367 
C 27.7666 21.5739 43.7503 12.011 -0.00363679 0.00493988 -0.00218816 
C 13.053 25.3743 48.7396 12.011 -0.000523408 0.000219226 -0.00770216 
C 23.9975 27.3434 25.0332 12.011 0.000243557 -0.00131935 -0.00130217 
C 29.8228 41.049 20.9042 12.011 0.00373459 -0.00572192 0.00936695 
C 30.5842 7.47726 6.4957 12.011 -0.00446025 -0.00470848 0.00368732 
C 6.82894 37.5805 6.66816 12.011 0.00641048 0.000463828 0.000706727 
C 50.0141 14.5283 1.98406 12.011 0.00169141 -0.00541469 0.00551176 
C 43.356 37.1298 9.92653 12.011 0.00334916 0.00116474 0.00269907 
C 37.6424 14.8177 47.5154 12.011 -0.00294288 -0.00495048 -0.000834658 
C 43.0926 14.8088 9.23973 12.011 -0.000754096 0.000878179 0.0046507 
C 49.473 4.00455 2.51767 12.011 0.00809859 0.00604499 0.00147553 
C 7.33134 17.3022 8.95575 12.011 -2.40991e-05 -0.00649174 -0.00519746 
C 30.044 50.1419 16.1954 12.011 0.002845 0.00375817 0.000169115 
C 7.74991 35.8815 18.7637 12.011 0.000933543 -0.00184112 -0.000882631 
C 22.8303 32.3341 6.91884 12.011 0.00357206 -0.00756011 0.000598568 
C 23.385 15.9375 40.543 12.011 0.00247897 -0.000890393 -0.0055852 
C 13.4836 2.39739 17.8175 12.011 -0.00490771 -0.00487352 -0.00199053 
C 2.12214 37.1693 44.6929 12.011 -0.00104198 -4.57236e-05 -0.000638836 
C 23.4221 7.62861 44.2002 12.011 0.00064774 0.0108443 -0.00353205 
C 12.4044 37.3864 25.1529 12.011 -0.00722325 3.31325e-05 -0.000475903 
C 35.1979 12.7441 4.11211 12.011 0.00056361 0.000612647 -0.00290199 
C 43.9805 11.2639 39.4552 12.011 -0.00267954 0.00052306 -0.00175868 
C 35.3611 19.5782 25.8133 12.011 0.000468567 -0.0106639 0.00523113 
C 24.1276 28.94 4.74885 12.011 -0.00236878 0.0040453 -0.0037138 
C 19.592 0.964466 3.8835 12.011 -0.00294192 0.0034421 -0.0050271 
C 49.931 37.7568 3.35138 12.011 0.00474723 -0.0010176 -0.0012517 
C 27.4016 32.5636 17.0797 12.011 -0.00117225 1.71679e-05 -0.0039996 
C 34.3551 0.314912 27.663 12.011 0.00392516 0.00271653 -0.00139418 
C 24.7801 2.69329 14.7306 12.011 0.00194086 0.0026157 0.0064981 
C 14.9398 12.5786 35.2991 12.011 -0.00187238 0.00410389 0.00501795 
C 37.0107 3.64153 46.363 12.011 -0.0040586 0.000169991 0.00225362 
C 10.4509 20.7534 31.1255 12.011 -0.00274971 0.00322532 -0.00486064 
C 7.99393 28.062 38.1469 12.011 0.00183421 0.000380517 -0.00657123 
C 41.5586 6.98929 42.6527 12.011 -0.00202797 -0.00497426 -0.00525096 
C 18.9851 40.4429 31.2099 12.011 0.00161969 -0.00407289 0.00168245 
C 46.2272 19.2169 1.92606 12.011 0.00241476 0.00176677 0.00527375 
C 24.1703 14.3376 13.2152 12.011 0.0034004 0.00784643 0.00424597 
C 19.3018 20.971 48.8465 12.011 0.00145231 0.00460447 -0.0065288 
C 41.4996 8.38263 43.062 12.011 -0.00501873 -0.0056366 7.44774e-05 
C 9.26338 33.1838 32.9154 12.011 0.00371839 -0.00243512 -0.00193942 
C 43.3622 43.8101 23.5426 12.011 -0.0103516 -0.00235426 0.00103829 
C 46.7928 32.4735 18.4523 12.011 -0.00238965 -0.00767486 -0.00092349 
C 1.17539 33.7978 21.6619 12.011 0.00049014 -0.00154418 0.000335496 
C 49.9929 15.6026 24.02 12.011 -0.000265676 -0.00323282 0.00703464 
C 29.1265 44.4441 24.7817 12.011 0.00331754 0.00454107 -0.00337096 
C 8.03571 15.6496 18.7793 12.011 0.00636759 -0.00722395 0.0056143 
C 4.06258 8.88074 3.96359 12.011 0.00548901 0.00432677 0.00363483 
C 35.9677 49.5141 27.5908 12.011 -0.00810879 0.00741453 0.00660939 
C 36.0566 36.7454 38.5064 12.011 0.00222827 -0.00799751 0.00370188 
C 12.0457 40.0114 38.0129 12.011 0.00335773 -0.00496829 0.00364401 
C 10.6119 18.3122 31.3955 12.011 0.00157699 -0.00904509 -0.00605792 
C 25.6236 6.74079 38.8977 12.011 0.00548176 -0.00357217 -0.0020428 
C 24.0425 16.8964 23.7906 12.011 -0.00248006 -0.000323946 0.0040117 
C 2.13581 2.54584 3.83069 12.011 -0.0038197 0.00130093 -0.00269281 
C 18.9187 7.40227 16.376 12.011 0.00343693 0.00362419 -0.00368394 
C 15.217 5.48462 29.2887 12.011 0.0100865 -0.00343602 0.00849144 
C 42.4693 26.1163 37.2519 12.011 0.00373699 0.000293145 0.00587764 
C 18.5906 19.6317 39.0323 12.011 0.00433737 0.0020002 -0.00295776 
C 32.5359 23.3213 33.4296 12.011 -0.00873985 0.00959914 -0.00548393 
C 37.0635 16.9953 34.3748 12.011 -0.00107118 0.002261 -0.0023777 
C 4.71233 50.9902 28.2943 12.011 0.00398333 0.0022256 0.00371536 
C 35.7099 33.245 31.3435 12.011 -0.00418094 0.0108042 0.00249015 
C 25.5368 24.8974 49.5047 12.011 -0.0024435 -0.00542986 0.00672113 
C 27.9335 26.3064 48.6625 12.011 -0.00100267 0.000165176 -0.00476422 
C 32.3936 19.8741 16.5046 12.011 -0.000108383 -0.00172425 -0.00485911 
C 47.7753 16.8093 42.3051 12.011 0.00409161 0.0103596 0.0067909 
C 37.5856 30.9767 49.7556 12.011 0.00217895 0.00552313 0.00136055 
C 42.0011 1.70575 37.5802 12.011 -0.00762533 -0.0116814 0.00366562 
C 19.0952 29.6304 8.90944 12.011 0.000436493 0.000910525 0.00180365 
C 36.2595 8.61352 4.63081 12.011 -0.000611315 -0.00370017 0.000907766 
C 44.3833 29.1011 33.0963 12.011 -0.00155947 -0.00462713 0.0103423 
C 23.008 49.8166 7.07284 12.011 -0.00360813 0.00132033 -0.000706211 
C 8.7614 20.6123 1.29793 12.011 -0.00594948 -0.00361394 0.0058096 
C 8.64531 7.75049 36.3142 12.011 -0.0096402 -0.00423378 0.0010457 
C 8.06531 32.7738 48.1314 12.011 0.00229512 0.00391181 -0.0015749 
C 31.9075 38.2834 32.1428 12.011 0.00465698 0.0032725 0.000373909 
C 5.4441 28.525 29.5877 12.011 -0.00097804 0.000630908 0.00361531 
C 23.38 23.9353 44.965 12.011 -0.0094175 0.00489453 0.00652256 
C 32.2434 31.643 6.40104 12.011 0.00876039 -0.00485032 -0.00505917 
C 36.3046 16.9487 38.3883 12.011 0.00379897 0.0148886 -0.00139069 
C 8.34223 1.46771 32.6904 12.011 0.00313553 0.00363865 0.000688436 
C 38.3493 48.2815 34.2324 12.011 -0.00336692 -0.0077673 0.0032295 
C 49.607 19.3079 18.2909 12.011 0.00846403 0.000742155 -0.00562346 
C 30.3913 21.4031 49.6962 12.011 0.00417659 -0.000453761 0.00475596 
C 23.5869 24.2382 3.35478 12.011 -0.000993214 0.00495525 0.000500746 
C 23.2126 1.59161 47.226 12.011 -0.00737114 0.000181543 -0.00586005 
C 10.5203 14.825 16.0477 12.011 -0.00438061 0.00413954 0.0009359 
C 27.1946 12.6673 29.3789 12.011 -0.00138094 -0.0057073 0.0120751 
C 28.4391 13.9678 18.0598 12.011 -0.00487857 0.00208367 0.00500734 
C 5.96686 22.8506 18.0842 12.011 -0.00267155 -0.00258981 -0.00368 
C 34.687 34.8743 35.3493 12.011 -0.00575234 -0.00273209 0.00138063 
C 48.1816 9.2247 24.3482 12.011 0.00331001 -0.00200109 0.00251681 
C 19.0815 14.6101 24.3305 12.011 -0.00160471 0.00148482 -0.00141337 
C 28.1834 3.21297 6.54649 12.011 -0.00579271 0.0105341 0.00539147 
C 36.8694 36.9411 49.9308 12.011 0.00255264 -0.00933713 -0.00589686 
C 47.3331 43.5565 43.9414 12.011 -0.0013055 0.00644698 0.00947923 
C 20.4928 19.9876 5.99851 12.011 -0.002335 -0.00521139 0.00907842 
C 27.828 44.8812 25.0114 12.011 0.00618025 -0.000630007 0.00181072 
C 37.4957 33.908 45.1635 12.011 -0.000700766 -0.00139072 0.00178078 
C 12.2684 28.8942 29.6428 12.011 0.00110493 -0.00212082 -0.00460073 
C 34.1084 21.6321 16.4928 12.011 -0.003699 -0.00487735 -0.000411099 
C 43.72 16.0608 3.24172 12.011 -0.00567535 0.00246285 -0.00479683 
C 31.1483 36.7732 22.467 12.011 3.80355e-05 0.00317346 -0.0044103 
C 45.4297 10.0075 26.9317 12.011 0.0002511 0.00215649 -0.0012418 
C 38.4635 16.499 32.4235 12.011 -0.0104241 0.00288618 0.000224452 
C 4.9817 5.69603 11.6352 12.011 0.000117701 0.00656728 0.00327308 
C 4.67356 2.8972 3.95547 12.011 0.00786183 -0.00204044 -0.000132553 
C 6.52041 34.3088 45.5249 12.011 -0.002714 -0.000495179 0.00180339 
C 50.5142 42.2452 1.05154 12.011 -0.00242804 -0.00418615 0.00914048 
C 10.644 22.7785 42.5477 12.011 0.00790543 0.00277138 0.0046826 
C 3.54079 2.74587 42.4466 12.011 -0.00244215 -0.00260175 -0.0029181 
C 37.1897 49.5816 35.9554 12.011 0.00664012 0.00569844 -0.00189932 
C 33.934 43.1873 26.8709 12.011 0.0086174 0.00406512 0.00196659 
C 43.8848 36.582 18.8426 12.011 -0.000152262 0.00405453 -0.000132563 
C 12.9982 28.2892 13.8276 12.011 0.00217248 -0.00429293 0.000184731 
C 40.5929 25.28 30.559 12.011 -0.00627487 -0.00380129 0.00732133 
C 16.7484 10.412 21.9419 12.011 -0.00810103 -0.000450993 -0.00174844 
C 3.37232 8.18802 31.6822 12.011 -0.000249961 -0.00618684 -0.000622117 
C 4.22828 0.0416081 32.0118 12.011 -0.00247798 -0.00289541 0.00260855 
C 3.1749 14.6887 17.0607 12.011 0.00539161 -0.00194721 0.000891956 
C 42.4074 24.1434 10.3346 12.011 0.00516497 0.000676249 0.000107051 
C 34.3589 41.0105 25.4546 12.011 0.000480441 0.000890553 0.00393393 
C 27.4505 14.8467 43.9165 12.011 -0.00815162 0.00027651 -0.00119002 
C 50.4791 19.4379 17.1244 12.011 0.00234414 0.00117386 0.0121926 
C 39.3655 18.155 26.3704 12.011 0.0034147 0.00343891 -0.00304146 
C 9.94455 32.5683 38.0747 12.011 -0.00013294 -0.00163882 -0.00873311 
C 26.4313 0.77029 36.7363 12.011 0.00634088 0.00408181 -0.00748887 
C 17.3431 17.1914 11.7374 12.011 0.0012783 -0.00381897 0.0050677 
C 6.46758 19.1702 18.9322 12.011 -0.00485017 0.0078406 -0.00216882 
C 25.0895 25.844 2.09905 12.011 0.000950633 -0.00140043 0.00516834 
C 25.941 30.4727 13.0606 12.011 -0.00128534 -0.00938332 -0.00276188 
C 0.139298 16.3002 19.9175 12.011 -0.00150019 0.00196592 -0.00222119 
C 32.1388 44.4096 45.3505 12.011 0.00852744 0.00515077 0.00813528 
C 46.6854 37.4681 49.5184 12.011 0.00136459 0.00262672 -0.00420303 
C 50.8214 26.5679 33.8642 12.011 0.000348956 -0.00309393 0.000812797 
C 42.6323 5.70875 24.8613 12.011 0.00271115 -0.0039826 0.00282545 
C 40.4611 29.0039 46.8029 12.011 0.000759707 -0.000340352 -0.000714604 
C 25.2754 15.2682 50.742 12.011 -0.00346078 -0.000686104 -0.00237843 
C 4.20904 9.44617 37.3798 12.011 0.00674275 -0.00315632 1.53624e-05 
C 26.8488 20.0716 34.9849 12.011 0.0038861 -0.00110392 0.00746281 
C 43.1808 16.5553 37.249 12.011 -0.00521002 0.00149085 0.00418902 
C 45.3151 45.4793 3.4534 12.011 0.000741404 -0.00194147 0.00157401 
C 9.96188 32.3033 39.457 12.011 -0.011289 0.00374128 0.00169114 
C 0.701327 18.1294 15.5738 12.011 -0.00252018 0.00567157 0.000259368 
C 42.6648 32.3561 19.4598 12.011 -0.00204431 -0.00119736 -0.00216159 
C 43.0385 16.6991 47.4803 12.011 -0.00603976 -5.75789e-05 0.00513823 
C 36.7383 0.927748 35.7339 12.011 -0.00428214 0.00141075 -0.0041135 
C 18.944 27.1212 8.60532 12.011 0.00519788 -0.00442107 0.00115477 
C 47.1893 37.6576 41.8918 12.011 0.00257584 -0.00300724 0.00318275 
C 29.8111 16.5449 39.0106 12.011 0.000997002 -0.00109464 -0.00055785 
C 44.8112 36.2485 23.4758 12.011 0.00737669 0.00355743 -0.000841251 
C 29.6131 32.9795 1.55262 12.011 -0.000273116 0.00329708 0.0107341 
C 48.7001 3.21451 1.60618 12.011 -0.000416246 -0.0107175 0.00308952 
C 27.9402 26.7439 50.0306 12.011 -0.00141087 -0.00319741 0.00991907 
C 44.9135 13.4218 6.71594 12.011 -0.000871442 0.00354034 0.00353161 
C 34.7763 36.733 16.3061 12.011 -0.0075131 -0.000358574 0.000734547 
C 23.662 5.45258 30.0374 12.011 0.00255594 -0.000462251 -0.00391775 
C 6.9564 25.338 11.5149 12.011 -0.00352254 0.00269023 -0.00674594 
C 43.848 28.4204 26.8844 12.011 0.00158377 6.88852e-05 -0.00113133 
C 9.25 3.31241 25.5256 12.011 0.00227878 -0.00328163 0.00525837 
C 43.1177 4.38452 0.215849 12.011 -0.00270682 0.00648037 0.00674891 
C 23.0423 50.3377 50.1821 12.011 0.000215988 0.00269774 -0.0086462 
C 41.3259 8.70717 21.1155 12.011 -0.00783866 0.00160339 -0.00587695 
C 30.1222 23.3132 28.9588 12.011 0.00430706 -0.00668882 -0.00121127 
C 33.1563 50.2673 30.056 12.011 0.0069728 -0.000931004 0.011575 
C 36.4541 26.829 42.0771 12.011 0.00245572 -0.000240059 0.003332 
C 2.68663 49.5881 47.5342 12.011 -0.001601 0.00179121 -0.000248271 
C 0.21613 28.2731 4.15128 12.011 0.00494664 -0.00373921 -0.00168401 
C 27.8014 40.8604 22.1907 12.011 -0.00163088 0.00436434 -0.00472362 
C 45.7032 14.692 6.51533 12.011 -0.00605262 0.00207213 0.00313348 
C 11.8003 10.1704 0.970841 12.011 0.00106928 -0.00147574 -0.00127777 
C 50.5634 5.98705 12.6506 12.011 -0.00302697 0.00396744 0.00566011 
C 13.9186 22.7126 21.4084 12.011 -0.00187852 -0.00447601 -0.00384349 
C 44.5675 46.1721 43.9317 12.011 -0.00436312 0.00283958 0.00565784 
C 38.5384 2.16875 32.7012 12.011 0.000554911 0.00202423 1.59034e-05 
C 5.34408 5.42892 4.01695 12.011 -0.00371524 0.00237462 -0.00711952 
C 12.5091 7.99986 1.08608 12.011 0.00131676 -0.00369545 -0.00105634 
C 30.8213 38.3254 30.1294 12.011 -0.00209129 -0.000363571 0.00328043 
C 44.0179 48.0208 6.37191 12.011 0.001652 0.00345688 -0.00370815 
C 48.9328 17.2808 41.6389 12.011 -0.00864184 0.00138652 -0.00657025 
C 25.8333 25.4135 50.8046 12.011 0.00101178 -0.00571048 -0.00185576 
C 22.7942 1.84502 11.7483 12.011 -0.00147639 0.00073499 -0.00140289 
C 11.5174 48.507 44.7246 12.011 -0.000137233 -0.00104067 0.00177515 
C 18.0736 37.5533 26.0649 12.011 0.00181543 -0.00268748 -0.00351446 
C 47.1723 2.81776 50.6992 12.011 0.00428514 0.00543154 -0.000185957 
C 10.3379 8.92292 31.6545 12.011 0.0143346 -0.00663743 0.00257184 
C 49.6945 44.2829 2.12212 12.011 0.00668779 -0.007345 -0.00629469 
C 48.0986 38.2396 39.7489 12.011 0.0035878 0.00167081 0.00393644 
C 9.45381 10.1716 49.0896 12.011 0.00125916 0.000165097 0.00133234 
C 29.2195 21.7566 21.2014 12.011 -0.00171246 -0.00352089 0.000188602 
C 10.6509 27.0044 32.4546 12.011 0.00465882 0.00168401 -0.000569947 
C 39.9732 49.5523 3.69472 12.011 -0.00646064 -0.00200646 0.000989621 
C 16.7724 25.6105 23.6368 12.011 0.000606038 -0.00160413 0.000664284 
C 17.3068 1.77326 2.61625 12.011 0.000427705 0.00191771 -0.000680977 
C 43.0892 24.8413 37.3846 12.011 0.000355928 0.000631957 -0.0039391 
C 49.2775 29.1374 13.5379 12.011 0.00140451 0.00468086 -0.0107997 
C 19.9277 21.8983 38.917 12.011 0.00286292 0.0178314 -0.00394756 
C 11.6503 46.8044 31.3564 12.011 -0.000149263 -0.00335747 -1.39326e-06 
C 1.43707 8.72515 21.0541 12.011 -0.00818147 0.00376385 -0.00301544 
C 0.732505 43.2048 37.8874 12.011 0.00272237 0.00322461 0.00330937 
C 29.7802 23.1565 27.5638 12.011 -8.85233e-05 -0.00297566 0.00213752 
C 35.3065 2.03442 37.221 12.011 8.46751e-05 0.00274149 -0.00461714 
C 22.8538 3.88487 0.573509 12.011 -0.000120486 -0.00170326 -0.00105277 
C 27.8467 28.3066 1.25119 12.011 0.00503239 0.00191363 -0.00359048 
C 18.5781 47.3646 39.8546 12.011 0.00198102 0.000601802 -0.01145 
C 14.2714 19.3683 26.1082 12.011 0.00681364 -0.000837931 -0.0017594 
C 24.4936 2.34379 37.1503 12.011 -0.00160636 -0.00421259 0.0070192 
C 14.045 36.0813 50.2851 12.011 0.00248446 0.00131031 0.00942229 
C 35.3664 28.1244 19.4584 12.011 -0.0033165 0.00634136 3.58473e-05 
C 35.988 20.6308 46.8606 12.011 0.00350488 0.00150657 0.00399749 
C 43.6607 8.89017 38.9211 12.011 -0.00182809 -0.00330693 0.00260777 
C 28.0293 18.4518 24.7713 12.011 0.00685538 -0.000592355 -0.000693965 
C 8.26256 38.6914 5.02416 12.011 0.00654898 0.000248951 -0.00153955 
C 44.9479 49.5538 32.5004 12.011 -0.00194709 -0.00100387 0.000457681 
C 29.3975 15.9822 41.8954 12.011 0.00315648 0.00111689 0.00235367 
C 50.6759 33.0442 23.5658 12.011 1.32304e-06 0.00406611 -0.00345993 
C 24.7366 45.2208 1.85241 12.011 -0.00777314 0.00756424 0.00415704 
C 14.3605 8.44966 16.5445 12.011 0.00407936 0.00215566 0.00282498 
C 21.243 23.5481 35.6908 12.011 0.000252856 -0.000664047 0.00104151 
C 49.143 19.1613 5.88354 12.011 0.00381982 -0.000325153 -0.00174944 
C 23.9887 4.95347 43.3083 12.011 0.00295816 0.00372271 0.000836691 
C 34.6523 47.0617 20.3566 12.011 -0.00161206 0.00142496 -0.0052532 
C 15.7897 5.60495 33.0124 12.011 0.000559311 0.00580657 -0.00226167 
C 20.3933 14.6332 47.9722 12.011 0.00152744 -0.00493512 0.00403082 
C 29.9894 46.7346 19.0631 12.011 0.00224872 -0.00246728 -0.0022821 
C 23.7092 44.9802 32.4873 12.011 -0.00361553 -0.000573785 -0.00187763 
C 35.0298 15.5091 43.5064 12.011 0.00783218 0.00409761 -0.00483749 
C 9.4545 22.2806 32.8244 12.011 -0.00371956 -0.0058175 0.000811509 
C 2.45519 11.4451 44.6623 12.011 -0.00645616 -0.00384474 0.00695063 
C 8.63999 36.9436 20.5599 12.011 0.000813198 0.00397866 -0.00768777 
C 38.2099 50.5789 19.7899 12.011 0.00392233 -0.00222826 0.00343308 
C 26.7424 35.2733 23.7122 12.011 -0.00283844 -0.00352768 0.007979 
C 30.4293 3.85943 7.31116 12.011 0.000332462 0.00713699 -0.00128354 
C 32.4246 15.9933 24.7916 12.011 -0.000808894 -0.0101748 -0.00426139 
C 37.5927 26.9665 26.8543 12.011 0.000917032 -0.000595336 0.0032771 
C 3.1053 2.09926 46.8666 12.011 0.00755404 -0.000246623 -0.00130414 
C 28.7341 22.0472 46.2951 12.011 -0.00905572 -0.00388627 -0.00654256 
C 3.92953 19.4854 1.68355 12.011 -0.00794608 0.00704647 -0.00339412 
C 5.9196 42.6321 48.1679 12.011 0.000509737 0.003902 -0.00686133 
C 16.8669 34.3749 31.1101 12.011 -0.00572732 -0.000545342 -0.00322064 
C 35.8317 43.3042 44.6447 12.011 0.001706 0.00384225 0.00924406 
C 7.61599 39.0713 41.1184 12.011 -0.00206337 -0.00349249 0.00204233 
C 9.44847 33.9043 31.6124 12.011 0.00185935 -0.00522984 0.000507707 
C 0.660206 31.5844 2.15771 12.011 -0.00309173 0.00328164 -0.00319891 
C 5.14498 17.8885 22.0867 12.011 0.00488698 0.00373384 -0.00183676 
C 38.5047 15.3313 6.97445 12.011 0.00498457 0.00355576 0.00218757 
C 15.5813 43.2112 7.01316 12.011 0.000163021 -0.000934947 0.00126484 
C 24.3912 5.41283 27.267 12.011 0.000983433 0.00241219 -0.000793946 
C 43.3327 14.8859 48.9237 12.011 -0.00613095 0.00155294 0.00136535 
C 36.0696 19.7231 49.6836 12.011 0.0142385 -0.00354305 0.00424433 
C 24.6154 39.7298 29.7936 12.011 -0.00412336 0.00218413 0.00467754 
C 0.0248636 29.4871 15.7202 12.011 -0.00145639 0.000811953 -0.00402696 
C 37.6423 23.9022 33.3751 12.011 -0.00282601 -0.0026876 -0.000439432 
C 13.6509 34.4851 48.0123 12.011 0.00411226 -0.00340549 -0.00493323 
C 39.9191 32.2877 29.8768 12.011 0.00235525 0.00205834 0.00245873 
C 28.8505 31.9277 15.1329 12.011 -0.0013969 -0.0123005 -0.00197247 
C 32.1387 14.6429 45.9508 12.011 -0.00505272 0.000811084 0.00228369 
C 33.0434 4.9075 36.728 12.011 -0.0079366 -0.00493892 0.00669646 
C 6.38643 35.3493 44.4988 12.011 -0.000867619 -0.00175695 -0.000229611 
C 0.393381 18.3176 16.8642 12.011 -0.000903106 0.0017061 0.000652059 
C 49.2874 34.0909 7.80116 12.011 -0.00387025 -0.000706666 -0.00261053 
C 47.8308 45.5465 22.1918 12.011 -0.00132369 -0.00467942 -0.00183929 
C 10.3142 41.2198 2.24531 12.011 -0.00406586 0.00884245 0.00715333 
C 35.1435 41.6298 0.0618487 12.011 0.0033278 -0.00214157 -0.00327286 
C 35.9594 41.3137 25.7701 12.011 0.00680342 0.00995391 -0.0036064 
C 34.0411 17.8985 31.6989 12.011 -0.00139383 0.004649 -0.00699229 
C 22.8906 32.3647 34.4212 12.011 0.000520013 -0.00082384 0.00462234 
C 4.51739 12.0727 40.5335 12.011 0.00362649 -0.00244618 0.00680098 
C 39.2794 13.4834 24.3803 12.011 -0.00150232 0.0114916 -0.0080308 
C 41.7265 15.4563 43.9691 12.011 0.00279657 0.000437601 0.00118722 
C 14.7141 39.2288 7.92713 12.011 -0.00412718 -0.0057259 0.0028897 
C 19.6712 18.0822 10.5042 12.011 0.00585876 -0.00755318 0.00216827 
C 48.7068 27.0152 49.7259 12.011 -0.00289018 -0.00422133 -0.00774305 
C 30.6037 0.646864 17.7987 12.011 0.0013839 0.00642476 0.00216819 
C 17.7952 30.9785 44.4355 12.011 0.00489405 -0.00341466 -0.000498615 
C 6.2299 41.126 32.3161 12.011 0.010284 0.00700497 -0.00111722 
C 21.8929 13.7368 44.6614 12.011 -0.00123239 -4.47425e-05 -0.00843931 
C 47.389 46.6535 50.3414 12.011 -0.0091977 0.00141956 -0.00447399 
C 29.5236 8.22911 48.3397 12.011 0.00411835 0.000949397 0.00379624 
C 36.3063 48.3788 9.53695 12.011 0.0027235 0.00286613 -0.00101493 
C 23.2462 21.2741 32.5118 12.011 -0.000185993 -0.00731649 0.00421642 
C 39.4162 13.7602 14.5403 12.011 -0.00131695 -0.00297216 -0.00147144 
C 50.8564 9.99509 34.5738 12.011 -0.000301113 -0.00495295 0.000110245 
C 39.0838 21.3589 14.9572 12.011 -0.00738193 -0.00234623 0.00316333 
C 22.0836 49.1824 38.3974 12.011 0.00125831 -0.00363337 0.00451355 
C 44.396 0.646896 14.9351 12.011 0.0015147 0.00998044 0.00706595 
C 11.5844 9.96317 46.7261 12.011 0.0031497 -0.000859648 -0.0074167 
C 11.3709 11.4815 25.4957 12.011 -0.00438085 -0.00278524 -0.0157298 
C 25.6224 18.4011 27.6027 12.011 -0.00521181 0.000650438 -0.0018441 
C 42.7935 13.4881 41.0126 12.011 0.00504836 -0.00100556 -0.00858805 
C 43.0786 20.5137 21.5949 12.011 -0.00561589 -0.00360165 -0.00717679 
C 8.33852 0.322568 20.1191 12.011 0.00185522 -0.000720103 0.00376639 
C 40.6857 34.0004 25.2786 12.011 -0.00375044 -0.00280139 -0.000829836 
C 10.1198 40.1907 47.4179 12.011 -0.00505674 0.00441668 0.00298563 
C 20.6484 12.5506 40.69 12.011 -0.00554067 0.00934734 0.00205064 
C 23.6007 50.108 45.9723 12.011 0.00087282 0.00205514 0.00662649 
C 48.8627 1.14587 31.3214 12.011 0.00380602 -0.000595829 0.00564561 
C 44.4711 41.9913 2.93767 12.011 0.00240925 0.00179843 0.00214539 
C 49.4371 50.9666 12.6363 12.011 -0.00254116 -0.00451423 -0.0028288 
C 6.34415 8.09098 3.78345 12.011 0.000668982 -0.00493161 -0.00224002 
C 23.3629 24.5742 18.6231 12.011 -0.00102861 0.00693211 -0.00662812 
C 44.3631 22.7262 17.2565 12.011 0.00470319 0.00240635 0.00104991 
C 42.604 6.45367 33.5016 12.011 0.00954373 0.00198169 -0.00014898 
C 32.5597 23.8428 18.1458 12.011 0.00169036 0.00286857 0.00510788 
C 4.10786 1.16211 25.5644 12.011 0.00183012 0.00400501 0.00144936 
C 51.0023 34.0763 47.1786 12.011 0.00467464 -0.00450897 0.000952851 
C 43.3693 19.5691 22.5869 12.011 0.0053942 -0.000378801 -0.00468484 
C 21.3862 13.5776 43.2649 12.011 0.000253065 -0.00302443 -0.00490946 
C 38.1706 14.2464 22.4854 12.011 -0.00281917 -0.00606912 0.00195124 
C 13.3548 4.21125 33.0237 12.011 0.00167233 0.00874447 -0.000964159 
C 27.7105 31.6733 2.66925 12.011 0.00161074 0.00458691 -0.00223913 
C 11.5181 12.5846 1.39436 12.011 -0.00449194 0.00384949 0.0070572 
C 34.7416 15.1153 24.6884 12.011 0.00288642 -0.00218869 -0.00609423 
C 1.81097 24.6393 49.3316 12.011 -0.00133768 0.000848021 -0.00431951 
C 10.6112 25.9734 36.0581 12.011 0.00267227 0.000886546 0.000987864 
C 48.4407 26.162 25.1013 12.011 0.00275897 0.00270051 0.00556431 
C 30.3673 5.9422 3.61095 12.011 -0.00265427 0.00459012 0.000367862 
C 18.2562 8.89831 42.922 12.011 0.0014639 -0.00676938 0.00652198 
C 50.0029 20.3874 27.04 12.011 -0.00947487 0.00280027 0.00303257 
C 37.9464 27.8775 25.6974 12.011 -0.000691942 -0.00431526 0.005909 
C 31.1066 36.4634 37.4261 12.011 0.00597012 -0.0109558 0.00327524 
C 50.6595 23.2501 5.58867 12.011 0.00997723 -0.00482597 -0.00496667 
C 0.786148 0.465359 33.5722 12.011 0.00502337 0.00070136 -0.00755116 
C 24.8792 46.3423 36.0359 12.011 0.00151702 0.00113394 -0.000501762 
C 10.4337 10.2358 27.4325 12.011 0.00100714 0.0046425 -0.000610831 
C 11.3187 26.0334 9.53107 12.011 -0.000517463 -0.00160355 -0.0038163 
C 4.11441 26.1341 43.7188 12.011 0.0018246 -0.000779666 0.00504673 
C 19.927 32.943 44.1726 12.011 -0.000163416 -0.00105406 0.0113881 
C 24.6747 49.2536 0.739176 12.011 0.00315411 -0.00536528 0.00198483 
C 25.5711 20.7057 8.02734 12.011 0.000426454 0.00134007 -0.00694495 
C 15.5216 10.1233 11.6907 12.011 -0.00144288 -0.00352466 -0.00424973 
C 1.25739 46.4536 19.959 12.011 -0.00362559 0.00210438 -0.00439184 
C 11.7096 47.0555 11.9936 12.011 0.00266089 -0.00576911 0.0093594 
C 17.066 39.3177 21.1342 12.011 0.00225962 0.00225864 -0.00686667 
C 15.0882 17.4739 45.0052 12.011 0.0001929 -0.00211148 -0.000298991 
C 23.0169 2.94272 49.3335 12.011 0.00640912 -0.00566038 0.0076996 
C 34.5574 30.6501 14.4976 12.011 0.00121942 0.00671714 0.00338589 
C 50.233 3.96913 20.3442 12.011 0.00340734 0.00214245 -0.00398216 
C 17.2434 20.918 24.0364 12.011 0.00239485 0.00806173 0.00285523 
C 41.0615 44.8021 49.6162 12.011 4.88259e-05 -0.00393946 0.00234525 
C 12.4241 31.9058 45.3345 12.011 0.00137788 0.000671122 -0.011951 
C 32.4178 15.3648 26.0819 12.011 -0.00558224 -0.0025815 0.0010941 
C 48.4304 38.6189 37.2803 12.011 -0.00213728 -0.000226357 -0.00133537 
C 4.69861 31.3014 10.9094 12.011 -0.00653385 -0.00905496 0.00812044 
C 44.5634 18.3887 41.0038 12.011 -0.00288995 0.00605706 0.000604897 
C 43.4552 25.1619 45.602 12.011 -0.00172047 0.00419265 0.000851067 
C 3.84186 21.1787 41.5257 12.011 -0.00415752 -0.00413015 -0.00096057 
C 35.009 36.2146 37.6044 12.011 -0.00404692 0.000962988 -0.00416706 
C 2.39996 29.235 16.6431 12.011 0.00171752 0.000207442 -0.00156262 
C 47.8721 37.3775 19.8693 12.011 0.00371767 0.00376498 0.00180102 
C 32.0397 48.3509 18.9254 12.011 0.00912429 0.0036023 -0.00869372 
C 35.3638 32.2408 45.5078 12.011 -0.00313633 -0.00573164 0.00716032 
C 35.815 34.8261 6.78154 12.011 -0.0018572 0.00331123 -0.0137166 
C 44.8063 17.7674 23.4366 12.011 -0.00681387 -0.00790994 0.00133496 
C 33.2253 24.1963 39.9467 12.011 0.00174106 0.00453961 -0.000144933 
C 40.9449 18.9845 43.8378 12.011 0.00177971 -0.00225321 -0.00310545 
C 39.1014 42.1668 19.4188 12.011 -0.00501489 -0.00430064 0.00376311 
C 35.9129 3.32926 22.2899 12.011 -0.0042017 0.000600011 0.000211267 
C 37.0836 18.4287 27.2178 12.011 -0.00288895 0.00987565 0.00125802 
C 2.45967 11.3336 29.9214 12.011 0.00579456 0.00126286 -0.0112528 
C 29.7526 29.6283 17.1248 12.011 0.00168802 0.00186108 -0.000935249 
C 42.6197 24.6005 2.68541 12.011 -0.00133386 0.000411628 -0.00399088 
C 7.3189 29.8664 32.6818 12.011 -0.00283511 0.00126367 0.00164236 
C 4.66853 51.0104 47.5436 12.011 0.00275865 0.00352532 -0.000692457 
C 12.5658 48.2219 43.8745 12.011 0.000980122 0.000828547 0.00237483 
C 47.8398 37.0761 16.0186 12.011 -0.0022335 -0.00465989 0.00226242 
C 12.6831 32.8683 49.9423 12.011 0.00191089 0.00226272 -0.00241092 
C 15.4179 19.13 25.6851 12.011 -0.000171552 0.00185123 -0.00239504 
C 29.6385 23.2529 40.3712 12.011 0.0121164 -0.000304355 -0.000651493 
C 12.9436 11.2314 40.7028 12.011 -0.00243362 0.00154075 0.00562314 
C 49.3467 43.0903 26.6634 12.011 -0.00669643 -0.00148356 -0.00167111 
C 32.6775 22.845 5.48157 12.011 0.00110647 -0.00251716 -0.0048448 
C 29.9213 45.5917 21.3589 12.011 -0.00139491 -0.0063592 -0.00319442 
C 42.3137 14.5609 41.7859 12.011 0.00645734 -0.0016491 0.000167581 
C 5.03749 20.7894 11.6102 12.011 -1.96212e-05 0.00151609 0.0061769 
C 37.7018 46.6639 46.1831 12.011 -0.00249475 0.000295256 -0.000525677 
C 49.9423 34.6218 34.8649 12.011 0.000889893 -0.00350249 0.0028219 
C 33.5153 29.0237 50.8813 12.011 -0.0054817 -0.00245876 0.00405925 
C 11.2344 26.8433 14.9789 12.011 0.00401928 -0.00277063 -0.00550925 
C 37.3221 12.1529 27.2887 12.011 -0.00578801 -0.00847967 -0.00318163 
C 48.3191 4.91437 12.1638 12.011 0.00245845 -0.00516016 0.000324386 
C 12.7327 35.2841 1.66784 12.011 0.00734322 -0.00037617 0.00118659 
C 7.72837 31.1499 32.2092 12.011 -0.00138825 -0.00413734 -0.00790465 
C 40.7063 33.1368 48.1992 12.011 -0.00212689 -0.00500138 -0.00845909 
C 10.7771 22.0402 13.6748 12.011 0.00142853 -0.000708113 0.00183612 
C 38.7656 33.1025 33.3652 12.011 0.00439759 -0.000879883 -0.00249282 
C 8.71066 15.1654 49.441 12.011 0.000278471 -0.00315316 -0.00612452 
C 35.9278 36.8097 17.1732 12.011 0.00620487 0.0131786 0.000591392 
C 5.70513 9.84572 43.3642 12.011 0.000631087 0.00862541 -0.0102239 
C 41.0147 17.9358 9.28243 12.011 0.00325191 -0.00227841 -0.00235153 
C 10.07 39.5128 39.5991 12.011 0.000123754 0.00371189 0.00675131 
C 17.9529 19.9712 46.8454 12.011 0.0014457 0.00208428 0.00681121 
C 39.1995 43.3949 13.1439 12.011 -0.0037196 -0.000307557 -0.00410997 
C 23.6458 41.2355 31.4894 12.011 0.00201929 0.00180676 0.00448395 
C 33.6159 27.2495 7.89806 12.011 -0.0014188 -0.00968203 8.69371e-05 
C 4.95795 25.9868 26.1272 12.011 0.00153543 -0.00312378 -0.00213984 
C 28.2147 37.7916 2.92249 12.011 -0.00522251 0.00116397 0.00216024 
C 45.1793 24.4728 12.7858 12.011 -0.00386087 -0.00369305 -0.00077701 
C 49.991 5.09004 26.2665 12.011 0.00449244 -0.00338382 0.00422119 
C 40.2479 21.37 14.099 12.011 0.00193603 -0.00363472 0.00564723 
C 41.7243 4.98164 46.029 12.011 -0.00293637 -0.00611245 -0.0101975 
C 37.848 4.44791 0.217001 12.011 0.000305282 -0.0105772 -3.05076e-05 
C 37.4491 29.5258 47.7636 12.011 0.00256747 0.00381611 0.00247321 
C 19.4157 32.2743 43.0295 12.011 -0.011633 -0.000853106 -0.0038465 
C 0.725087 5.36949 44.9549 12.011 0.00878352 -0.00140625 -0.00524519 
C 33.7288 46.0701 10.8307 12.011 -0.00294686 -0.00139525 -0.00295919 
C 40.7257 39.88 40.666 12.011 -0.000502226 0.00139774 0.0124764 
C 18.4805 21.1933 0.0907196 12.011 0.00571977 0.000208837 0.00113622 
C 40.9995 7.67996 48.3269 12.011 0.000556211 -0.00011258 1.39195e-05 
C 8.65217 44.1547 24.6292 12.011 0.00219032 0.00273332 -0.000716209 
C 5.84017 25.0371 47.9938 12.011 0.0051677 0.00533002 0.0020443 
C 36.8619 5.36559 33.069 12.011 0.000595224 0.00479564 -0.00137564 
C 23.0949 35.9445 15.879 12.011 -0.0025156 0.00114767 -0.00194159 
C 43.9468 46.5279 42.6771 12.011 -0.000594696 -0.00540714 0.00166573 
C 21.4086 48.4595 11.8209 12.011 -0.00744123 -0.00245747 -0.00278206 
C 3.78453 7.11281 46.3786 12.011 -0.00434316 -0.00845428 -0.00070822 
C 25.152 45.0472 30.0767 12.011 -0.00668603 -0.00341993 0.00162804 
C 16.8505 35.171 32.236 12.011 0.00525873 0.0113844 0.00305752 
C 21.5449 6.11156 25.4763 12.011 -8.812e-05 -0.00443503 0.00529013 
C 14.3855 27.4102 1.1428 12.011 -0.000886221 -0.00308994 -0.00691225 
C 11.5948 13.6882 47.4696 12.011 -0.0019511 -0.00639072 -0.00746273 
C 47.03 11.6204 16.91 12.011 -0.00175117 -0.00709192 -0.0109246 
C 7.5688 0.632465 11.9172 12.011 0.00588417 0.00378989 -0.00421612 
C 12.0652 3.73251 30.4951 12.011 -0.00605247 0.000703032 -0.00204194 
C 28.5352 35.6358 15.4415 12.011 0.00250216 -0.00404295 -0.0012202 
C 45.3871 48.0852 30.4792 12.011 -0.00298105 0.000661762 -0.0122208 
C 31.3142 16.8013 24.1795 12.011 0.0035609 0.00183452 -0.00405527 
C 15.1137 46.2178 16.9259 12.011 -0.00154186 -8.91382e-05 -0.00846663 
C 4.71862 44.629 3.67081 12.011 -0.0050319 -0.00182548 0.00705107 
C 43.1725 11.0575 40.6132 12.011 0.0212858 -0.0011315 0.00482214 
C 6.84168 6.77507 10.3479 12.011 -0.00183627 0.0074041 0.00295566 
C 0.324507 10.2024 44.6725 12.011 0.00118888 0.00206345 3.02577e-05 
C 16.8345 29.4517 39.583 12.011 0.000881181 -0.00261394 -0.000441447 
C 12.2417 24.6542 13.572 12.011 -0.00536348 0.00786474 0.00472675 
C 43.3822 4.48033 4.10474 12.011 0.00125887 -0.00257581 -0.00359427 
C 19.7815 31.7207 28.385 12.011 0.0103606 0.00365867 0.00671607 
C 10.7311 50.8324 45.5914 12.011 -0.00532778 -0.0069333 0.00236892 
C 4.61266 7.45572 31.9289 12.011 -0.0101061 -0.0107276 0.00092552 
C 44.4531 32.4845 17.7783 12.011 0.00262884 -0.00579105 -0.00332661 
C 19.4029 3.33502 36.5894 12.011 -0.0102318 0.00172436 -0.00317334 
C 12.5517 1.64969 40.0045 12.011 0.00399515 -0.0102151 0.0059922 
C 42.715 40.0811 39.1858 12.011 -0.00573085 0.00329865 -0.00269413 
C 10.6013 34.7571 39.7609 12.011 -0.00427276 0.0055521 0.00732345 
C 22.1888 42.4513 33.1809 12.011 0.00214233 0.000552974 -0.000509874 
C 14.5828 50.6729 5.04868 12.011 0.00180533 0.0069688 0.000657003 
C 25.7543 26.5916 45.5287 12.011 0.000420294 0.00619696 0.00299193 
C 44.5992 42.8199 14.9024 12.011 -0.00263493 -0.00541574 0.00413014 
C 8.03311 26.2496 11.1926 12.011 -0.00422685 -0.00283264 0.00517188 
C 32.237 38.3047 29.9158 12.011 0.00383499 -0.00538827 -0.00385878 
C 33.5709 32.1328 4.37119 12.011 0.00525552 0.0072928 0.000550574 
C 43.8483 11.9361 8.18048 12.011 -0.000384651 -0.00462805 -0.0039481 
C 24.166 12.4458 32.407 12.011 -0.00617184 0.00405896 0.00103823 
C 13.0591 43.6564 45.3055 12.011 0.00192159 -0.0041726 0.01 
C 3.69166 5.81103 12.2369 12.011 0.00570218 -0.00470582 -0.0108506 
C 20.3627 15.6984 0.691769 12.011 -0.00823129 -0.00404073 0.00351261 
C 37.9176 49.5186 34.7541 12.011 0.0045886 0.00496125 0.00714635 
C 34.1052 49.0964 38.9105 12.011 0.00294542 -0.00390059 -0.00378715 
C 18.1957 32.0264 10.1973 12.011 0.00315207 -0.00802316 0.00285944 
C 48.5083 45.8209 50.826 12.011 -0.00691301 0.00338657 -0.00028182 
C 7.71827 34.9717 27.2092 12.011 -0.000291849 -0.00814635 -0.00247344 
C 32.2836 1.2949 19.921 12.011 0.00108722 0.00226091 0.000679578 
C 5.97548 10.4345 3.59726 12.011 0.000519815 0.00252288 0.00227842 
C 28.0694 6.86615 19.726 12.011 -0.00159763 0.00379842 0.00066241 
C 46.436 44.4525 44.6961 12.011 0.00233492 -0.00206116 -0.00319348 
C 1.40509 37.5305 29.0437 12.011 -0.00572684 -0.00642608 0.00276288 
C 6.02754 0.872548 33.5493 12.011 -0.00517296 0.00453506 -0.00568098 
C 49.6458 30.691 10.2801 12.011 0.00148328 -0.00707567 -0.000315577 
C 33.0461 31.9575 46.305 12.011 0.00239032 -0.00344223 -0.00325327 
C 17.7389 6.15305 42.8182 12.011 0.00504081 -0.00356615 -0.0119624 
C 42.0072 19.8375 12.8868 12.011 0.00355284 -0.00221474 0.00551414 
C 23.1817 9.88078 17.7921 12.011 -0.000432478 0.00147873 0.00716008 
C 46.5848 16.9596 18.7031 12.011 -0.00315472 0.00181085 0.00156629 
C 41.5701 21.9518 20.3915 12.011 0.00205468 0.00322513 0.00450674 
C 44.8078 0.664429 1.1104 12.011 -0.00662793 -0.00532853 -0.000467456 
C 30.8538 16.6969 43.7175 12.011 -0.00271811 0.00657135 0.00287018 
C 42.5145 5.66923 0.00488653 12.011 -0.00510541 -0.00448382 -0.00733446 
C 49.242 1.83596 38.9373 12.011 0.000769576 0.0059531 0.00350112 
C 27.6361 34.0452 2.8526 12.011 0.00743598 -0.000414336 0.00057571 
C 8.02713 22.5547 38.116 12.011 0.00309415 0.00103334 -0.00446917 
C 15.9851 2.24695 6.90364 12.011 -0.00108329 0.000872982 -0.00427948 
C 0.213256 42.2754 40.185 12.011 0.00188006 -0.00416986 -0.00117861 
C 35.8833 48.2517 18.7865 12.011 0.00466807 0.00585636 0.00360206 
C 28.7403 38.8196 42.2678 12.011 -0.00396672 -0.000859607 -0.00111014 
C 31.1957 44.4049 23.5528 12.011 0.00260364 0.00632415 0.00201561 
C 36.7506 48.3085 36.5058 12.011 0.000739575 -0.00407353 0.00521528 
C 19.1583 19.8564 44.643 12.011 -0.00248034 0.00253212 -0.00171478 
C 21.3008 30.5632 29.8603 12.011 0.00151742 0.000729963 -0.00749045 
C 37.2857 6.03141 31.854 12.011 0.00737073 -0.00444544 -0.00203871 
C 34.9498 18.6913 4.70559 12.011 -0.00402238 0.00158813 -0.00690016 
C 49.4773 26.5625 33.4281 12.011 -0.00166604 0.00945867 0.00929936 
C 39.9635 29.4995 39.7164 12.011 -0.00247657 -0.000858062 -8.53064e-06 
C 27.4961 14.4076 4.02382 12.011 -0.000201149 -0.00288587 0.00190324 
C 14.93 28.2677 47.1806 12.011 -0.00147496 -0.00600313 0.00385173 
C 34.2822 23.9976 38.8526 12.011 -0.00350803 -0.00372048 0.000416455 
C 30.7727 6.38465 37.0992 12.011 -0.00822998 -0.000540758 -0.00635212 
C 4.21797 8.47777 46.3817 12.011 -0.00100872 0.00667429 -0.00444628 
C 18.0187 29.2622 23.3821 12.011 0.00695281 0.00547172 0.00641482 
C 27.726 34.7373 26.5111 12.011 -0.00271264 0.000836901 0.00570575 
C 19.4381 47.7245 31.9045 12.011 -0.00549034 0.000669194 -0.00281498 
C 40.8585 46.1783 49.0962 12.011 -0.00157256 -0.00742743 -0.00303726 
C 11.0135 1.20605 10.614 12.011 -0.00745885 0.00495662 0.00116592 
C 34.2317 41.0038 22.8378 12.011 0.00308434 -0.000742203 0.0017962 
C 0.216295 22.8093 24.315 12.011 -0.00742843 0.0012966 0.00622422 
C 21.1329 25.3699 37.3819 12.011 -0.00077962 0.00159198 0.000231056 
C 35.5812 6.95691 47.4931 12.011 0.00169907 -0.00299124 0.00040762 
C 20.5585 47.9756 12.8873 12.011 0.00268087 0.00681401 -0.00442931 
C 40.649 19.0507 14.8434 12.011 0.00363038 0.00677909 -0.00403424 
C 5.80115 14.0095 9.35647 12.011 0.00233791 0.00525574 0.00454952 
C 12.1625 9.80027 34.8315 12.011 -0.000623033 -0.00621205 0.00188432 
C 36.5481 48.3856 28.1459 12.011 0.00369648 -0.00429394 0.00553992 
C 40.3275 39.4829 35.6101 12.011 0.00121714 -0.00600718 -0.000238421 
C 23.4952 47.8865 13.0241 12.011 -0.00695676 0.00089024 0.00428876 
C 3.07695 19.7052 44.876 12.011 -0.00238525 0.00158874 -0.00432346 
C 9.60643 7.99488 38.5843 12.011 -0.00201542 0.00219509 0.00426079 
C 13.8091 29.3977 27.695 12.011 0.00885627 0.00293943 0.00348564 
C 50.3724 33.994 8.68696 12.011 0.00178626 -0.000804311 -0.00404585 
C 8.61557 25.4899 47.0754 12.011 -0.00582062 -0.00227866 0.00279611 
C 31.9895 47.3538 39.775 12.011 -0.000381396 0.00943221 0.00630882 
C 29.8737 30.8308 13.0926 12.011 -0.00496023 -0.0010881 -0.00273195 
C 16.2796 1.42531 1.62855 12.011 -0.00595157 -0.00139387 0.00474983 
C 3.7516 20.287 5.91554 12.011 0.00111676 -0.0042064 0.00154277 
C 46.3352 44.3883 46.1337 12.011 0.00857084 -0.00391405 -0.00623385 
C 0.81762 45.8713 33.4932 12.011 -0.00527842 0.00372734 -0.0058732 
C 15.8216 47.5405 22.3005 12.011 -0.00533387 0.00316259 -0.00518806 
C 25.714 29.0958 13.5711 12.011 -0.00676599 -0.00127833 0.00556753 
C 0.962119 18.1248 13.1419 12.011 -0.00331678 -0.00483408 -0.00475305 
C 47.1289 20.2819 1.68846 12.011 0.00441939 -0.000913161 -0.00221058 
C 44.9297 43.6727 10.0342 12.011 -0.0136362 -0.00535171 -0.00897988 
C 35.8129 1.47414 23.9447 12.011 0.00452441 -0.00334504 0.00530718 
C 28.843 9.99923 49.7878 12.011 0.00824487 -0.000112995 0.00192632 
C 43.8444 0.296352 4.5785 12.011 0.0029492 -0.00882388 -0.00170502 
C 39.8072 32.6529 16.1438 12.011 0.000367033 0.00131811 0.00182911 
C 38.1598 18.6877 6.89373 12.011 -0.000984305 -2.98423e-07 0.00913125 
C 36.114 35.718 49.7658 12.011 0.00578798 0.00666602 0.0015794 
C 29.7824 2.91461 49.2285 12.011 -0.00078478 -0.00133073 -0.00296808 
C 9.57915 24.9139 25.4257 12.011 -0.000678717 -0.000570239 -0.00768955 
C 11.4347 12.5103 16.2714 12.011 -0.00692875 -0.00387065 0.00373887 
C 34.4636 29.4659 17.5804 12.011 -0.004638 -0.00309334 -0.00107608 
C 25.5616 4.79835 18.2275 12.011 -0.000885102 0.00272854 0.00573701 
C 36.8616 7.30468 19.6504 12.011 -0.00460765 -0.00959867 0.0116554 
C 5.93662 40.1623 48.1399 12.011 0.00386278 -0.00264998 0.00585089 
C 22.8465 26.1134 28.8646 12.011 0.000570806 0.000960609 0.00188471 
C 36.5577 11.9508 40.6886 12.011 0.00851553 -0.00312176 -0.00382204 
C 37.2767 3.10305 20.2875 12.011 0.00220217 -0.00561715 0.00130161 
C 46.7721 44.6322 22.0745 12.011 -0.00474832 -0.00852841 0.00787331 
C 24.6569 40.5251 30.9082 12.011 0.00761534 0.000210547 0.00378046 
C 30.375 11.0673 19.4505 12.011 0.00242089 -0.000567443 -0.00304754 
C 41.5838 17.7711 25.4446 12.011 -0.00353049 0.00156687 0.00717423 
C 10.5845 24.3336 19.4296 12.011 0.0025456 -0.00223439 -0.000633885 
C 36.3134 50.8644 9.19273 12.011 0.00501267 0.00137799 -0.00273723 
C 9.46452 50.3611 46.2957 12.011 -0.00629409 0.00260853 -0.00211165 
C 44.6582 34.0006 46.1214 12.011 0.00124894 -0.00353591 -0.00115937 
C 33.5999 46.864 45.1674 12.011 -0.000357298 -0.00363085 0.000590798 
C 17.8398 46.7674 4.44398 12.011 0.00862066 -0.00720189 -0.00194899 
C 48.4621 41.3773 25.0759 12.011 0.00859453 0.00556872 0.00345514 
C 33.0173 19.3293 26.4292 12.011 0.0015141 0.000654159 0.00729838 
C 19.5072 26.0245 22.443 12.011 0.0109989 -0.00560352 -0.00396769 
C 36.137 9.27012 30.5286 12.011 0.000190827 3.67334e-05 0.00165122 
C 25.69 47.9694 11.8076 12.011 0.00279585 -0.000476158 0.00723132 
C 23.3211 15.5387 22.0556 12.011 -0.00295551 0.00470772 0.00218137 
C 2.39098 25.0625 35.8041 12.011 0.00867677 -0.000771648 0.00977721 
C 16.0696 18.8569 10.4721 12.011 -0.00127039 0.00523633 6.90337e-06 
C 45.127 31.2663 45.4092 12.011 0.00196215 -0.00632453 0.00383717 
C 38.4603 47.7518 46.6796 12.011 -0.00237358 -0.00316423 0.00165788 
C 2.17434 7.34673 4.14342 12.011 0.00343266 0.000843806 0.00455605 
C 42.8642 30.931 22.8688 12.011 -0.000613248 0.00016849 0.000744879 
C 40.309 10.7368 22.1369 12.011 0.000821407 -0.000855415 -0.0013861 
C 38.7242 14 48.0859 12.011 -0.00413065 -0.00496214 -0.00692878 
C 49.0604 20.2702 28.1084 12.011 -0.00189688 -0.000778789 -0.00370908 
C 28.7573 43.0087 39.2651 12.011 -0.00258413 1.96639e-05 0.00310792 
C 23.2196 19.3946 10.0481 12.011 0.00536458 0.00035424 0.00469628 
C 32.3356 40.2438 24.118 12.011 -0.00126809 0.00486432 0.00088726 
C 20.1556 46.3038 17.347 12.011 -0.000629507 -0.00619313 0.0132523 
C 15.0791 28.5017 41.1119 12.011 -0.00620883 0.00691299 -0.00591079 
C 21.9207 23.0309 34.5216 12.011 0.0106078 -0.00596092 -0.00244644 
C 18.3291 19.2846 8.85024 12.011 -0.0023587 -0.00648082 0.00429142 
C 48.0796 3.81175 16.5768 12.011 0.00241912 -0.00201414 0.00460728 
C 41.1226 28.7907 4.24278 12.011 -0.000332066 -0.000163573 0.00281819 
C 33.0111 10.0838 32.6305 12.011 -0.00259268 0.0028534 -0.00282291 
C 6.98964 30.4655 16.1397 12.011 0.00119299 -0.00106699 -0.00111133 
C 30.7411 46.6439 40.1315 12.011 0.000873224 0.003965 -0.00248438 
C 47.836 14.609 9.88222 12.011 0.00576524 0.00103042 0.00900868 
C 15.4692 5.95091 16.5516 12.011 -0.0086903 -0.00195488 0.00139163 
C 13.7624 28.1293 5.86854 12.011 -0.00627794 -0.0100117 0.00164811 
C 7.42832 16.8057 2.89803 12.011 -0.00321918 -0.000419716 0.00700791 
C 11.0452 6.07382 3.84987 12.011 -0.00104737 0.009435 0.00184194 
C 29.5513 37.3873 18.9806 12.011 0.00361058 -0.00160638 -0.0050713 
C 33.4782 40.0092 34.8241 12.011 -0.00321869 -0.000663436 -0.000909785 
C 5.2122 7.22822 33.2507 12.011 -0.00143848 0.000546309 0.000173273 
C 14.4716 11.0372 9.66208 12.011 -7.33969e-05 -0.000547291 0.00287605 
C 20.383 38.3903 35.3942 12.011 -0.000389478 0.00704218 -0.000861783 
C 0.307356 15.4182 8.45855 12.011 0.00338792 -0.000766751 -0.00345365 
C 31.7758 43.9993 13.1874 12.011 -0.00206221 -0.0025477 -0.005572 
C 11.7102 2.1288 38.9277 12.011 0.00541387 0.00411663 0.00259639 
C 5.15027 44.9564 30.8569 12.011 0.00912413 -0.000772151 -0.00376435 
C 38.452 49.6987 9.14462 12.011 0.00427051 -0.0027317 0.00111403 
C 30.4977 3.55507 45.1171 12.011 -0.00682918 -1.88275e-05 -0.00578285 
C 29.4367 22.2053 47.509 12.011 0.00181243 0.00386342 -0.00291529 
C 26.7529 44.308 50.0509 12.011 -0.00315236 0.00567897 0.00096385 
C 11.4626 40.2589 12.9419 12.011 -0.00521673 0.00362515 -0.000940077 
C 17.8652 10.4485 19.9245 12.011 0.00731478 0.00199014 0.0018337 
C 31.757 9.31913 20.4031 12.011 0.00216264 0.00809316 0.00638783 
C 31.8167 49.4813 3.54011 12.011 0.000393108 0.000911807 0.00660237 
C 13.6576 37.0465 0.187973 12.011 -0.00125809 0.00423859 -0.00814906 
C 39.2032 7.75681 36.6538 12.011 -0.00562548 -0.00058245 -0.00379075 
C 28.2344 22.8661 25.8078 12.011 -0.0058037 -0.00349783 -0.00529803 
C 29.7487 34.5515 28.0029 12.011 0.00197934 0.00496594 0.00168559 
C 26.0873 23.0887 28.1021 12.011 -0.00275857 0.00256301 0.00039526 
C 22.3895 3.68437 14.7522 12.011 0.00159339 0.0011291 0.0027196 
C 31.4655 15.4975 27.0803 12.011 0.011302 -0.00382949 0.00166284 
C 26.2999 33.2477 19.2037 12.011 0.00454898 -0.00383494 -0.000350469 
C 6.67252 35.4709 25.0646 12.011 -0.0023358 0.00026684 0.00334885 
C 16.288 38.8847 22.2241 12.011 -0.00226117 0.00122028 0.00179894 
C 46.6684 14.951 7.51462 12.011 0.00343326 0.000822204 0.00157131 
C 33.0435 17.1844 14.0337 12.011 0.00219649 -0.00419462 0.00679295 
C 48.0716 48.5588 33.9905 12.011 -0.00213936 0.00249153 -0.00253517 
C 7.83093 21.8568 34.788 12.011 0.00256063 -0.00340414 0.000109484 
C 24.0564 15.51 0.338059 12.011 0.00246934 -0.00211496 0.00263075 
C 14.5461 50.3947 41.6099 12.011 -0.00309229 -0.00145684 0.000897762 
C 39.759 41.4208 46.901 12.011 0.00522359 0.00334193 0.0047889 
C 16.5161 46.8221 19.9655 12.011 0.00568617 -0.00130979 0.00281923 
C 50.412 23.9822 24.7066 12.011 0.00286227 -0.00786527 -0.00146361 
C 11.4866 40.202 47.0868 12.011 -0.00072147 -0.00820436 -0.00366067 
C 11.3425 22.5228 46.7418 12.011 -0.00466257 0.0101342 -0.00223299 
C 26.8956 34.7361 33.9235 12.011 -0.00135713 0.0015943 -0.0061531 
C 30.5503 29.273 45.4704 12.011 -0.00403927 0.00533915 -0.000833201 
C 40.5929 11.4699 44.9968 12.011 0.00171115 0.00496247 -0.00144827 
C 33.4176 36.8064 16.849 12.011 0.00820785 -0.00738169 0.00522778 
C 36.2391 1.63869 4.96062 12.011 0.00174931 0.00723503 0.00148111 
C 50.9859 8.20297 3.68286 12.011 -0.0057594 0.000459564 -0.0047891 
C 41.0311 32.9575 3.10779 12.011 -0.00164922 -0.000896155 0.0020974 
C 38.0138 38.9589 49.1475 12.011 0.000622506 -0.00126591 0.00408232 
C 42.5734 39.7712 4.20011 12.011 0.0038032 -0.00374107 0.00294236 
C 13.3271 11.1719 39.4297 12.011 -0.00235742 0.000812934 0.00475793 
C 36.543 34.5077 25.1658 12.011 -0.00271652 0.00551887 -0.00100323 
C 45.3824 15.7004 43.5531 12.011 -0.00296547 0.0020278 -0.00192577 
C 48.1508 22.4834 27.4416 12.011 -0.00327228 -0.00130461 0.00649258 
C 26.651 36.3474 4.23821 12.011 0.00145097 0.00170853 0.0114363 
C 37.9288 38.423 29.0701 12.011 0.000398792 0.00323373 -0.00997558 
C 10.0458 14.9984 48.8644 12.011 0.000427859 0.00420559 0.000806085 
C 37.7539 4.41954 2.57623 12.011 -0.00246354 0.00669402 -0.00240382 
C 24.2586 38.2374 8.19881 12.011 -0.00413713 -0.000570913 0.00202738 
C 4.54929 47.2903 16.1247 12.011 0.000392968 -0.00190523 -0.00797621 
C 32.0005 22.8983 24.5482 12.011 0.00307923 -0.00445033 -0.00516765 
C 12.6213 5.57191 25.747 12.011 0.00235912 0.0130265 -0.00461647 
C 34.8318 12.9566 11.9787 12.011 0.000837886 -0.00596293 -0.0127974 
C 1.88823 38.5857 19.6494 12.011 -0.00262602 -0.0023195 0.00198732 
C 16.8746 6.1037 45.0758 12.011 -0.00891358 -0.00297296 0.00395086 
C 7.88425 12.9039 8.55909 12.011 0.000269927 -6.65241e-05 0.00249114 
C 42.5912 13.8689 29.517 12.011 -0.00491736 0.00118669 -0.00129058 
C 50.2232 31.9295 35.4824 12.011 -0.000589564 -0.00712218 0.00312168 
C 24.0886 39.3233 9.10276 12.011 0.00298958 -0.00867766 -0.00297852 
C 49.3332 42.1174 3.13012 12.011 -0.000668889 0.00109323 0.000649594 
C 9.67039 20.1835 9.29859 12.011 -0.00481087 -0.000232274 -0.00342725 
C 23.3617 14.9198 36.8582 12.011 -0.00319415 0.00417367 -0.0116517 
C 9.28898 9.53887 27.9799 12.011 -0.00510247 -0.0063519 -0.00335557 
C 4.03231 35.579 44.9722 12.011 -0.00207329 -0.0066827 0.00437793 
C 10.5119 24.6005 23.1826 12.011 0.00476913 0.00406959 0.00172411 
C 37.4433 32.6813 44.3692 12.011 -0.00946586 0.00650124 -0.0061766 
C 27.3432 29.3997 11.3424 12.011 0.0078996 -0.00478356 5.10924e-05 
C 15.663 29.5544 11.4709 12.011 -0.00381273 0.00243267 0.00169353 
C 34.5564 15.0907 21.9255 12.011 0.000839483 -0.0031621 -0.000668861 
C 3.08137 37.9124 49.6554 12.011 -0.00133665 -0.00209622 0.00587862 
C 21.3055 47.0334 19.4779 12.011 -0.00366068 -0.00151415 0.00503592 
C 33.8452 49.7609 4.6888 12.011 -0.0075311 -0.00694576 0.00474683 
C 18.3207 31.6891 45.6094 12.011 0.00294509 -0.00291045 -0.000679987 
C 33.5457 40.8391 21.5426 12.011 0.00766147 -0.00643909 -0.00803859 
C 11.7582 47.0746 10.6724 12.011 -0.00468277 -0.00489594 0.000826054 
C 21.5528 4.62548 3.94122 12.011 -0.000646752 -0.00125953 0.00109435 
C 18.0993 8.25865 41.6595 12.011 -0.00150574 0.00116138 -0.000150316 
C 18.4401 48.9416 11.9744 12.011 0.00406943 -0.00180987 0.00419639 
C 9.48432 32.6709 44.0382 12.011 -0.00217228 0.000440497 0.00199301 
C 8.3737 21.3738 41.3617 12.011 -0.0060257 -9.95268e-05 0.00316893 
C 29.3126 15.8473 11.07 12.011 0.00118795 -0.00441414 -0.00303052 
C 41.7374 34.5955 1.1533 12.011 -0.00301963 -0.0017799 0.0122746 
C 14.0965 33.4904 44.3747 12.011 0.00156306 -0.00792961 -0.00355279 
C 12.0556 42.4272 13.7895 12.011 -0.00407611 -0.00578465 -0.00182828 
C 25.8298 37.5693 31.5526 12.011 8.70676e-05 0.00673368 -0.00940896 
C 45.4605 9.38992 13.5786 12.011 -0.0108105 -0.00147921 -0.00711821 
C 8.95231 18.2172 47.3689 12.011 -0.0090289 0.00447761 0.00219209 
C 42.3062 14.1672 2.50193 12.011 -3.27972e-05 0.00204409 0.00941313 
C 27.4776 47.5921 7.9669 12.011 0.00522734 0.00385948 0.000562242 
C 16.6224 14.3549 31.774 12.011 0.000602824 -0.00296072 -0.00388943 
C 24.7694 8.47738 18.9912 12.011 -0.00730263 -0.00421859 0.00057454 
C 16.401 13.0378 9.45239 12.011 0.00348504 0.00585411 0.00430512 
C 3.63223 41.0673 23.5749 12.011 -8.23734e-06 -0.00350525 -0.00591231 
C 47.0117 21.7534 17.4455 12.011 0.00401501 0.00592162 0.00412483 
C 16.6093 9.22309 13.7444 12.011 0.00322205 -0.00407873 -0.00437583 
C 19.4293 48.0557 29.5788 12.011 -0.000316305 0.00446427 -0.00547762 
C 21.4555 37.5798 0.784443 12.011 -0.00213666 -0.00557892 -0.00450851 
C 28.5705 10.5816 0.0895508 12.011 0.00867855 -0.00289373 -0.00100476 
C 19.7054 31.4704 38.1984 12.011 -0.00307738 0.00200087 -0.00761209 
C 20.7497 36.4129 0.938589 12.011 -0.00810721 -0.00149721 0.007385 
C 31.7393 39.9331 25.3328 12.011 -0.00409375 0.00544011 0.00562483 
C 2.4262 45.2957 31.0292 12.011 -0.00454622 0.000737167 -0.00450845 
C 9.85848 12.5742 48.9388 12.011 -0.00299163 -0.00291456 0.0023924 
C 11.9383 39.2072 1.80361 12.011 -0.00407415 0.0013578 -0.00743567 
C 15.4431 50.096 40.5628 12.011 -0.0038642 0.00564128 -0.00205216 
C 3.83389 40.3284 22.4137 12.011 -0.00742257 -0.000618889 0.00522568 
C 34.8032 39.4043 27.3575 12.011 0.000391667 -0.00211558 -0.000626742 
C 20.0229 6.63588 23.4696 12.011 0.00239461 -0.00512874 0.000853619 
C 25.8819 23.5963 13.849 12.011 0.00560738 -0.00222807 0.000628123 
C 30.0698 8.60251 44.5342 12.011 -0.000729615 0.0013851 0.00112466 
C 23.2086 35.8288 43.7439 12.011 -0.00325793 0.00286567 -0.000890433 
C 48.4791 27.5467 32.946 12.011 -0.0054587 -0.00190751 -0.00725732 
C 38.4153 20.6425 23.041 12.011 -0.00384111 0.0081598 0.00438852 
C 12.7097 7.43692 47.1012 12.011 0.0104049 0.00247172 -0.00881926 
C 49.7982 24.0458 44.8871 12.011 0.000859269 0.00487212 -0.00201887 
C 25.6243 28.0423 3.00527 12.011 0.00286065 -0.00279046 0.00491793 
C 11.4486 27.9711 30.2614 12.011 0.00464987 -0.00448538 0.00540625 
C 3.21944 38.2696 7.83739 12.011 0.000432146 0.00335907 0.00179474 
C 10.0756 37.6113 47.5115 12.011 0.00887823 -0.00297901 -0.00539808 
C 29.5103 50.4259 33.5049 12.011 -0.00271328 0.00397947 0.00246766 
C 21.6245 29.4989 34.0791 12.011 -0.00484303 0.00795029 -0.00689071 
C 26.2572 27.4543 22.1462 12.011 -0.00252421 0.0135478 0.000125072 
C 50.8519 24.2052 34.4638 12.011 -0.000495842 0.000227193 0.00244159 
C 24.2151 10.8824 17.6844 12.011 0.00573207 0.00431588 0.00290655 
C 43.7011 7.8321 7.33025 12.011 -0.00465905 -0.0039123 -0.00686069 
C 31.6061 17.4663 37.5229 12.011 -0.00362998 0.00412642 -0.000869262 
C 46.1052 14.4353 22.643 12.011 -0.00145097 0.0039146 0.00472027 
C 30.6099 8.42796 20.2891 12.011 -0.00104639 0.0061161 -0.00228253 
C 6.9421 1.91218 11.5389 12.011 -0.00588824 -0.00463739 -9.06556e-05 
C 0.973182 33.815 1.11019 12.011 0.00559383 -0.0014535 -0.00473856 
C 3.26659 50.8612 47.4131 12.011 -0.0041031 0.00783266 0.00507384 
C 12.2679 36.6165 28.2923 12.011 0.00162192 -0.000179407 0.000145038 
C 16.6373 12.4373 23.3724 12.011 -0.0111714 0.00147625 0.0034285 
C 46.7486 39.9974 38.5537 12.011 0.00418584 -0.0106894 0.00188045 
C 31.1318 28.5853 8.18012 12.011 0.00647584 -0.00198169 -0.00734493 
C 20.595 35.3596 50.9908 12.011 -0.00172907 0.000405021 -0.00480922 
C 47.7392 35.916 31.4953 12.011 0.00517636 -0.00768797 0.00523121 
C 35.8737 5.73828 40.2069 12.011 -0.00163482 -0.00405291 -0.00191281 
C 5.87067 17.9 20.8874 12.011 -0.00624554 -0.000264984 -0.00320242 
C 11.7606 46.2578 45.5627 12.011 -0.00121772 -0.00607996 0.00393016 
C 19.6577 36.6688 21.2209 12.011 -8.13505e-05 -0.00310642 -0.00925403 
C 50.8384 24.2434 13.0786 12.011 -0.000131581 0.00558332 0.0029253 
C 2.04985 7.65018 21.7678 12.011 0.000766975 -0.0014586 0.00471157 
C 2.86991 26.5409 44.2201 12.011 -0.00651131 0.00705471 -0.000658086 
C 31.8875 24.0067 39.6434 12.011 -0.0079636 -0.00634593 0.00559327 
C 3.70664 11.2922 3.63768 12.011 -0.00220444 0.0102794 0.00715852 
C 24.1247 5.86225 24.7818 12.011 0.00687658 0.00150361 0.00138138 
C 3.79889 11.1984 44.0207 12.011 -0.000564537 0.00470965 0.00438125 
C 42.3542 16.074 39.8696 12.011 0.00185523 0.00226771 -0.00419838 
C 39.7964 27.5929 27.6794 12.011 0.0037069 -0.000978331 0.0114701 
C 18.6158 12.8804 11.1177 12.011 -0.00351364 0.00837152 -0.00112947 
C 42.6708 45.9168 0.114423 12.011 -0.00485972 -2.88877e-05 -0.00312218 
C 15.1155 13.9841 7.47861 12.011 -0.00820095 -0.00326303 -0.00069768 
C 35.4336 11.2376 42.8765 12.011 0.0108083 0.00148598 -0.00516395 
C 21.0858 14.8563 23.112 12.011 0.00560631 -0.000240356 -0.00507456 
C 6.97964 15.6419 21.3721 12.011 0.00164067 0.00100185 -0.00470155 
C 23.0925 2.15539 13.0729 12.011 -0.00496852 -0.00216957 0.000767026 
C 48.1805 32.1734 8.94665 12.011 -0.00282851 -0.00890737 -0.00459158 
C 28.9653 23.3949 42.7497 12.011 -0.00107865 -0.00157428 -0.00753004 
C 40.4111 3.05973 16.637 12.011 -0.00194311 0.00187755 -0.00080774 
C 25.8545 26.9856 2.09376 12.011 0.012384 -0.00484282 -0.00511646 
C 2.74582 39.7936 21.6578 12.011 -0.00198432 -0.000401631 -0.00269715 
C 1.50233 7.02238 22.9244 12.011 0.00634003 -0.0033156 0.00173131 
C 5.47194 2.43396 40.9603 12.011 -0.0108843 0.000704664 -0.00161045 
C 6.57797 20.5909 5.86085 12.011 0.00118606 -0.000745742 0.00140873 
C 9.45538 25.0968 5.84431 12.011 -0.00053961 -0.00709778 0.00459848 
C 4.84232 48.5764 47.6932 12.011 -0.00447095 0.00294801 0.00324917 
C 7.80478 12.0289 3.06196 12.011 0.0112428 -0.00122794 0.00231324 
C 15.0943 40.0223 18.2878 12.011 -0.00404865 -0.00191584 -0.00080821 
C 14.7003 48.5163 51.0231 12.011 -0.00539441 -0.00209858 0.00581039 
C 39.8785 33.343 41.6268 12.011 0.00527166 -0.000657524 -0.00193083 
C 1.77058 12.3175 3.02291 12.011 0.00282599 -0.00152317 -0.0010891 
C 29.4194 2.4729 29.5913 12.011 0.0040509 0.00474281 -0.000349617 
C 15.6338 29.6253 26.1305 12.011 -0.000422803 0.00279055 -0.00188081 
C 10.5152 25.5946 15.0763 12.011 -0.00129849 -0.00670142 -0.00358893 
C 48.6158 19.8452 38.6543 12.011 -0.00438306 -0.00231892 -0.00690092 
C 4.66284 13.8858 10.2002 12.011 -0.00203747 -0.00471529 -0.00117993 
C 3.72518 10.7305 37.1551 12.011 -0.00087838 -0.0151009 -0.002203 
C 34.2919 1.80709 25.7919 12.011 -0.0017702 0.00838017 -0.00280562 
C 42.2916 4.53102 37.0248 12.011 -0.00239329 -0.00162522 -0.00708039 
C 8.06287 19.3396 16.6272 12.011 -0.00281366 -0.00389804 -0.00275559 
C 23.4205 28.7623 40.0727 12.011 0.00723623 -0.0106867 0.00839837 
C 22.4975 20.2509 23.7743 12.011 -0.00720719 -0.00160625 0.000707276 
C 25.8968 43.9682 41.6425 12.011 0.0067739 0.00492004 0.00526523 
C 43.2595 13.7027 39.7035 12.011 -0.00439639 -0.00240481 0.00287843 
C 39.7302 0.615242 48.9302 12.011 0.00560806 -0.00329973 -0.00844426 
C 25.7441 45.2541 33.7773 12.011 0.000449238 -0.0075119 -0.00280772 
C 23.161 30.239 16.0572 12.011 -0.000685876 0.00577313 0.0140095 
C 35.6235 31.1538 15.1803 12.011 -0.00123052 -0.000613293 0.00229583 
C 46.6022 39.9963 36.2101 12.011 -0.00131421 0.000312721 0.00413433 
C 17.6756 19.8493 24.7399 12.011 0.00503158 -0.00152655 0.00203507 
C 42.4878 16.0388 9.70868 12.011 -0.000219359 0.00498703 0.00189038 
C 41.2894 17.7368 2.01222 12.011 0.0100607 -0.00267343 0.00246413 
C 18.8921 21.1256 2.92585 12.011 -0.00204765 -0.000185199 0.00797347 
C 39.4651 20.5763 44.5898 12.011 0.00536244 0.00689536 0.00666696 
C 37.1946 23.4374 35.73 12.011 -0.00177099 -0.0031161 0.00181696 
C 29.4694 46.6567 2.9617 12.011 -0.00296432 -0.00059763 -0.0110245 
C 42.3385 42.9032 33.0121 12.011 0.00317802 0.000198961 -0.00296765 
C 4.9737 17.1232 9.60476 12.011 -0.00714511 0.000292976 -0.00887763 
C 14.6192 29.0706 3.43374 12.011 -0.00156246 0.00402384 -0.00385812 
C 28.0164 29.8409 45.1764 12.011 -0.00132033 0.0014224 0.000562909 
C 14.3356 14.4296 43.0745 12.011 0.00332594 0.00475145 -0.00545671 
C 21.0838 33.5073 41.5841 12.011 -0.00559524 0.010433 -0.00171283 
C 10.4685 23.821 9.64461 12.011 -0.00140184 -0.0106426 0.00793799 
C 16.5031 13.7262 26.9149 12.011 0.00177561 -0.00190322 0.00175159 
C 8.92359 23.2699 50.3048 12.011 0.00254125 -0.00930921 -0.0125553 
C 17.6829 8.24568 20.95 12.011 0.00770144 -0.00245456 0.00487971 
C 22.2775 6.34719 20.5042 12.011 -0.00227322 -0.0111914 0.00563102 
C 6.02431 14.2552 3.18259 12.011 -0.00125964 -0.00142046 0.00259542 
C 36.3205 21.1474 0.778997 12.011 0.00633524 0.00184478 -0.00163065 
C 43.2943 38.3553 45.1053 12.011 0.00132372 -0.00588838 0.000960341 
C 18.3954 8.93541 40.4869 12.011 -0.00378892 0.00985368 -0.00339963 
C 40.8677 26.2019 46.0803 12.011 -0.00500711 -0.00105987 -0.00152262 
C 44.1295 46.9393 1.86621 12.011 0.00450359 0.00250716 0.00584423 
C 4.13373 11.6189 38.1518 12.011 -0.00563351 -0.00520363 -0.0031569 
C 7.64566 1.70523 26.5924 12.011 0.00140567 0.000757331 -0.00217982 
C 30.6528 22.9904 19.4634 12.011 0.00139413 0.000484829 0.000761148 
C 0.685168 37.66 8.68283 12.011 -0.00758714 -0.00399784 -0.000352436 
C 50.7654 29.9682 36.9447 12.011 0.00326699 0.00429738 0.000591223 
C 7.75677 1.97345 41.9805 12.011 -0.00255045 -0.00128895 -0.00247292 
C 5.2413 23.1265 30.9653 12.011 -0.00601971 0.00172393 0.00682217 
C 40.2306 44.7765 32.8879 12.011 -0.00254082 0.00867935 -0.000231036 
C 14.0457 49.2378 42.2556 12.011 0.00700317 -0.00190175 0.000707594 
C 26.2993 19.9399 32.6342 12.011 -0.00138335 -0.00370182 -0.00391278 
C 35.5908 47.2214 9.91339 12.011 -0.000845149 -0.00236834 0.00301204 
C 33.1895 11.5198 50.9403 12.011 -0.00134059 0.00460649 0.00012864 
C 23.2244 13.2086 34.5883 12.011 0.000439809 -0.00393644 -0.0063394 
C 19.0883 40.019 13.4789 12.011 0.00281391 0.000920325 -0.00622458 
C 30.3754 31.7133 1.3689 12.011 -0.00382942 -0.0015456 0.00633903 
C 23.5911 46.1941 36.8224 12.011 0.0032892 0.00255101 0.0069799 
C 19.9396 5.38809 2.18953 12.011 0.00559547 0.00520542 0.000174076 
C 32.3387 24.0705 28.4252 12.011 -0.00256083 -0.00416306 0.00535051 
C 23.3432 3.19925 6.94729 12.011 -0.000205101 0.000138698 0.0029384 
C 27.3501 3.7378 29.0265 12.011 0.0023305 0.00110882 -0.00485884 
C 38.9318 47.6089 17.6908 12.011 0.000580611 -0.00784353 -0.00531442 
C 39.4666 40.7384 48.1114 12.011 0.00570718 0.0049293 0.00279568 
C 44.6557 34.5892 27.8474 12.011 0.00338971 0.00444066 -0.000519514 
C 36.1737 5.59298 45.1207 12.011 0.000853554 0.00211244 -0.00163232 
C 7.40655 31.0227 0.860399 12.011 -0.00921731 0.000787264 0.00401207 
C 25.2174 20.7919 5.75452 12.011 -0.000330909 -0.0053794 1.39808e-05 
C 4.95705 43.2163 3.86741 12.011 0.00699981 -0.00418755 -0.0020998 
C 7.23328 45.3323 29.4917 12.011 0.00722839 0.00323324 -3.40557e-05 
C 44.4319 37.6087 44.9934 12.011 0.00328888 0.000179097 0.00149243 
C 5.58146 17.9687 2.42506 12.011 0.00451759 -0.000279059 0.00653199 
C 16.8119 29.9568 44.5127 12.011 -0.00200442 -0.00125636 0.00357668 
C 3.72478 26.2816 25.383 12.011 0.00170462 -0.00316178 -0.00999663 
C 40.9403 31.3584 36.611 12.011 0.00318553 -0.00705383 -0.00189249 
C 27.559 25.2779 21.9725 12.011 -0.00813986 0.00898575 0.000146155 
C 47.0547 33.4615 31.1712 12.011 0.00469177 -0.000793944 -0.000303304 
C 23.1829 46.7247 3.03155 12.011 -0.00674193 0.000397087 0.00557706 
C 8.01517 2.6595 23.0339 12.011 0.00648352 0.00609347 0.00649034 
C 4.83658 22.4478 35.5398 12.011 0.00454583 0.00197512 0.00460798 
C 45.7457 15.4906 20.4534 12.011 -0.00117438 0.000377374 0.00157051 
C 45.8317 25.5509 45.1958 12.011 0.00397092 -0.00220562 -0.00369117 
C 18.2111 49.7941 50.8149 12.011 -0.000469164 0.00749742 0.00314351 
C 10.3935 12.383 2.14341 12.011 0.00415045 0.00704425 0.00239222 
C 46.6215 21.6343 1.69943 12.011 0.00241309 -0.00478821 -0.00515183 
C 24.8311 30.1126 4.56279 12.011 0.00578282 0.00111985 0.00972224 
C 31.8932 2.36462 8.69869 12.011 0.00105468 0.000743141 -0.00959019 
C 44.8635 23.2569 2.25974 12.011 -0.00421185 0.000142868 0.0027176 
C 47.5302 30.4215 44.1373 12.011 -0.00236909 -0.00374194 0.00338071 
C 38.0281 31.8383 17.7745 12.011 0.00229496 -0.00209961 -0.00525769 
C 32.8964 17.8145 32.5946 12.011 -0.00122758 0.00832359 -0.000230032 
C 42.9949 44.8547 27.1136 12.011 -0.000341801 0.00646992 -0.00941588 
C 7.42427 25.7791 46.2459 12.011 -0.00869793 0.000962659 -0.00924748 
C 46.4577 12.8967 19.0109 12.011 0.00116938 0.00177499 -0.00220918 
C 32.5668 25.342 6.85424 12.011 6.12798e-05 -0.00688101 0.00416662 
C 29.9347 3.97752 50.1784 12.011 0.00668966 0.00636748 0.000659143 
C 17.0586 39.0536 41.1448 12.011 -0.0038773 3.48705e-05 0.00445534 
C 6.29088 37.6733 42.7795 12.011 0.00516609 0.000704113 0.00505802 
C 4.77307 23.552 12.0738 12.011 -0.00557612 0.00718682 -0.000991765 
C 18.2018 6.233 28.0408 12.011 -0.00394292 -0.00557542 0.000962295 
C 41.2367 31.2596 35.1632 12.011 0.00352625 0.00283066 -0.00485245 
C 36.9338 25.9231 3.20148 12.011 -0.000684526 0.00422473 0.000904755 
C 1.18443 3.11849 41.5651 12.011 0.0065064 0.000867398 -0.00696119 
C 5.78888 40.7967 4.80695 12.011 9.47476e-05 -0.00182503 -0.00283273 
C 31.9001 16.844 44.6658 12.011 0.0096874 0.00301249 -0.000115207 
C 30.4645 27.8549 45.2254 12.011 -0.00630846 0.00122494 -0.00215507 
C 48.3924 41.331 3.83677 12.011 0.00477345 -0.00650824 0.00513553 
C 42.9633 20.1083 46.0577 12.011 0.00580983 0.00286751 -0.000786489 
C 2.21798 12.0459 46.1563 12.011 -0.0035615 -0.000304976 -0.0017864 
C 4.49344 30.9003 40.8013 12.011 0.00361494 -0.00523806 0.0021233 
C 28.2763 31.6526 16.4203 12.011 -0.00469362 0.00444095 0.00635737 
C 14.4901 12.0273 37.5189 12.011 0.000243676 0.00318906 -0.0043896 
C 38.8272 38.3788 47.0942 12.011 0.00287346 -0.00141971 0.00764023 
C 50.3901 10.2747 2.4612 12.011 9.47744e-07 -0.00559407 0.000291828 
C 28.2171 21.7724 35.7648 12.011 -0.00154576 0.00247083 -0.00510015 
C 34.5151 25.1434 27.9654 12.011 0.00450298 -0.00106898 0.00768581 
C 24.6655 27.8737 23.8897 12.011 0.00488544 -0.00232194 0.00136369 
C 49.3379 33.6461 34.0425 12.011 0.00332665 0.00528702 -0.00268745 
C 0.509021 10.1679 15.4254 12.011 0.00199162 0.00230911 -0.00505136 
C 43.2499 14.0727 17.2809 12.011 -0.00324137 0.00136377 0.00094914 
C 17.6763 16.9835 36.5569 12.011 0.00287073 0.00226395 -0.00458586 
C 36.2389 39.5193 27.3272 12.011 -0.00809786 0.0049873 -0.00301437 
C 42.8092 37.6868 50.9417 12.011 0.0043154 -0.00251211 0.00712986 
C 27.5186 16.1054 14.222 12.011 0.00180741 0.000458164 -0.00981426 
C 23.858 32.9232 37.1159 12.011 -0.0025427 -0.00215425 -0.000871932 
C 39.9655 36.8184 6.41649 12.011 0.00419012 -0.00126443 -0.00024079 
C 1.48695 9.23604 14.8812 12.011 0.00921596 -0.000227427 -0.00621166 
C 29.8112 0.730837 47.4317 12.011 -0.00200941 0.000123365 -0.00253165 
C 40.2531 28.2169 39.3722 12.011 0.00367876 -0.000631982 0.00051054 
C 22.8487 26.3853 5.11464 12.011 0.00171895 -0.00232373 0.000311339 
C 16.5431 40.1062 32.4679 12.011 0.00150233 -0.00079981 -0.00161574 
C 36.9432 38.5923 40.2695 12.011 -0.00461911 -0.00200754 -0.0117622 
C 48.0238 3.20112 21.3814 12.011 -0.00330634 -0.0022449 0.00650759 
C 19.3705 32.0713 9.37126 12.011 -0.0021918 0.00417359 0.00129891 
C 40.9422 14.3335 8.11437 12.011 0.00218594 0.00254592 -0.00203806 
C 39.5114 10.9481 20.995 12.011 -0.00168444 0.00668975 0.000524775 
C 4.01252 2.51959 41.1073 12.011 -0.0029897 -0.00194228 0.00152284 
C 35.5272 7.18599 32.7839 12.011 -0.00599656 -0.00523814 -0.00473921 
C 10.9937 32.503 47.3514 12.011 0.00475565 -0.00276806 -0.00271459 
C 38.5537 31.1033 19.9656 12.011 -0.00405026 0.00446645 0.000175031 
C 18.5129 33.2268 29.5374 12.011 -0.000431769 0.00633942 -0.00687596 
C 44.0107 49.306 14.8468 12.011 0.000953808 0.00237225 -0.00372565 
C 33.0336 13.8321 27.811 12.011 -0.00148077 -0.0019641 0.00175464 
C 3.8655 12.0238 42.8954 12.011 -0.0010391 -0.00350188 -0.00108849 
C 22.996 50.3972 4.64096 12.011 -0.00216226 0.00546842 0.00455962 
C 44.8673 47.8907 25.5722 12.011 0.00246119 0.00961087 0.00834127 
C 44.1252 43.2146 12.248 12.011 -0.00722981 -0.00226431 0.00257335 
C 48.6717 34.9933 41.7592 12.011 0.000703801 -0.00149241 -0.00810717 
C 22.6951 15.5594 50.8104 12.011 0.00121344 -6.90955e-05 0.00205833 
C 26.9014 37.8929 32.4901 12.011 0.00346052 0.000449196 -0.00349564 
C 46.0841 40.9303 49.5587 12.011 0.00164283 -0.000459208 -0.00248081 
C 4.05764 18.9327 35.3918 12.011 0.00529063 -0.00440171 -0.00691554 
C 26.2658 46.5259 0.629655 12.011 -0.00356132 -0.00130685 0.000573728 
C 4.00616 11.1213 28.1754 12.011 -0.00181112 0.00635513 0.000109358 
C 39.3458 28.0558 46.7133 12.011 0.00428988 -0.00601626 0.000842832 
C 49.0464 27.9216 48.5661 12.011 -0.00236311 -0.00174409 0.0172936 
C 19.7233 45.5872 48.4665 12.011 0.000578113 -0.00171656 0.00135074 
C 37.4926 26.4694 41.1517 12.011 -0.00435338 0.00888073 -0.00317246 
C 35.1975 25.4873 22.1766 12.011 -0.000318366 -0.00290748 0.00238162 
C 11.5853 7.76851 2.21566 12.011 -0.000479071 -0.00596075 0.00731364 
C 11.0726 9.59999 40.3831 12.011 0.00137326 0.00320085 -0.00259819 
C 27.3319 31.7961 11.4863 12.011 -0.00032811 -0.0032102 0.0058647 
C 40.5565 20.5257 2.53074 12.011 0.00306827 0.00676731 0.00214207 
C 45.6856 15.5799 23.5058 12.011 -0.000713682 0.00726986 -0.00326956 
C 26.0171 28.7992 21.7181 12.011 -0.00295263 0.00452217 0.00405967 
C 27.3455 7.64297 37.5056 12.011 -0.00183411 0.00115263 -0.00516589 
C 21.8436 10.9305 15.9877 12.011 0.00458218 -0.0016129 0.00493084 
C 19.4414 6.13009 50.5327 12.011 0.00453077 -0.00338751 -0.00104298 
C 44.6039 50.441 25.6736 12.011 -0.00346838 -0.00825808 0.00397745 
C 9.66241 50.5174 12.4756 12.011 -0.00152624 -0.000127959 -0.00799319 
C 28.9631 5.99924 23.2435 12.011 -0.00213176 -0.00223902 -0.00191652 
C 21.7412 35.7154 9.254 12.011 0.00345972 0.000888376 -0.00244187 
C 22.058 34.4651 17.4299 12.011 0.00850509 0.000255784 0.00315147 
C 13.3464 39.8722 9.78641 12.011 -0.00930451 -0.000222222 0.00720992 
C 6.96495 48.1937 16.7728 12.011 0.0043205 0.00452507 0.00531024 
C 45.1091 26.5987 33.7411 12.011 0.00142712 0.00786061 0.000201078 
C 15.7701 31.9832 11.7417 12.011 -0.000483533 -0.00718289 0.00141528 
C 40.0848 36.3322 11.4505 12.011 0.000590064 -0.00020683 0.00272761 
C 48.8817 25.2695 33.6441 12.011 0.0049218 0.0023226 -0.000519479 
C 15.1018 12.3867 25.5866 12.011 -0.00727063 -0.00398996 0.00173452 
C 47.8279 38.6279 22.3907 12.011 0.00302318 -0.000775684 0.00223594 
C 48.3145 21.1777 17.5395 12.011 -0.00275557 0.0119872 -0.00383481 
C 2.55596 48.4704 13.3102 12.011 -0.00742703 0.00747755 -0.00620462 
C 27.14 22.1792 6.69949 12.011 -0.00880962 0.000452145 0.00541822 
C 30.5239 38.8294 27.7703 12.011 0.00291188 0.00284454 -0.00195311 
C 15.9747 20.6792 48.3644 12.011 -0.00697895 -0.00137398 -7.99259e-06 
C 48.9058 45.4665 21.3202 12.011 -0.00361744 0.00692162 -0.00074841 
C 43.4352 26.5647 9.57995 12.011 -0.00125546 -0.00782459 0.00524335 
C 35.4839 1.01677 9.21378 12.011 -0.00301153 0.00375817 0.00312393 
C 21.7377 40.5904 40.5227 12.011 -0.00102764 -0.0050163 -0.00215055 
C 49.598 9.18689 36.8531 12.011 0.0050574 0.0025332 -4.97678e-05 
C 39.752 31.0442 3.06862 12.011 0.000683557 -0.0052502 -9.92243e-05 
C 37.9848 36.04 5.4412 12.011 -0.000834332 0.000873718 -0.00786022 
C 17.1781 48.4566 30.6312 12.011 -0.00155638 0.00132043 -0.0073047 
C 42.3475 6.50651 1.13987 12.011 0.00425829 -0.000325181 -0.000338799 
C 14.0253 43.8831 8.79325 12.011 -0.00317201 -0.00252088 0.00806013 
C 4.3532 18.026 30.691 12.011 -0.000117707 0.00673229 0.00127348 
C 48.8742 36.4766 33.6709 12.011 0.00516956 -0.00466072 -0.00281156 
C 28.3843 19.8166 46.9632 12.011 0.00311831 -0.00199112 -0.00588061 
C 3.37937 31.7636 10.7308 12.011 0.00439175 -0.000589513 0.000215716 
C 5.11336 25.7913 38.0974 12.011 0.00286112 0.00784725 -0.00674645 
C 37.3212 17.131 33.0199 12.011 0.00285175 0.00502347 -0.00876604 
C 49.0368 8.10743 2.16765 12.011 0.000281434 0.00409768 -0.00123243 
C 19.3215 13.4169 18.1601 12.011 0.0044933 -0.000107398 -0.000498133 
C 17.8809 1.89924 5.58221 12.011 -0.0064393 -0.000436053 -0.00374285 
C 28.9932 47.7186 15.492 12.011 0.00700137 -0.000393031 0.00705681 
C 27.2848 44.8074 31.2802 12.011 -0.00510778 -0.00426646 -0.0020117 
C 28.8986 46.716 48.2287 12.011 -0.00697792 -0.00235858 0.00419928 
C 4.94626 29.61 3.13685 12.011 -0.00302939 -0.00817684 0.000242863 
C 14.0511 1.09962 17.4429 12.011 -0.00501924 0.0026306 0.00346193 
C 23.5432 1.63955 0.373508 12.011 -0.00182387 -0.00118191 0.000609836 
C 5.80208 21.535 18.6312 12.011 -0.000666108 0.00507149 0.00330756 
C 1.49798 24.8691 5.41305 12.011 -0.00465706 0.0036377 -0.00126018 
C 44.3775 45.6009 24.8614 12.011 -0.00534194 0.00444513 0.00468394 
C 11.4178 25.867 38.777 12.011 0.00141206 -0.0113656 -0.0038832 
C 50.8822 3.52501 41.7961 12.011 0.00122217 0.00841861 -0.00021165 
C 29.7574 43.8968 25.9625 12.011 0.00088815 0.00215714 -0.00545666 
C 14.26 25.3515 2.44625 12.011 9.40413e-05 -0.0050816 -0.00718199 
C 9.9353 45.6465 32.9233 12.011 0.00402099 0.0033183 -0.000445381 
C 28.5486 27.1707 9.81734 12.011 0.00161241 -0.00105382 0.00748303 
C 23.5694 48.5827 10.6538 12.011 -0.00776437 -0.00204278 0.0053196 
C 18.5887 5.32116 10.7693 12.011 0.000885255 -0.00201395 -0.0101174 
C 13.5381 38.9932 46.5823 12.011 -0.000402544 -0.00159869 -0.00449836 
C 15.5545 39.5891 33.2667 12.011 -0.00413689 -0.000752478 -0.00144009 
C 39.3415 16.2528 15.0048 12.011 0.0038285 -0.000112386 -0.00287389 
C 36.5621 9.50244 40.3093 12.011 0.000318556 -0.00309886 0.00503244 
C 21.2705 25.0685 6.28903 12.011 -0.00670148 0.000577663 0.00693656 
C 47.0942 18.7103 46.7207 12.011 0.00528339 -0.000468681 0.00174264 
C 45.6085 45.2656 41.3177 12.011 0.00349735 0.00154702 0.005729 
C 15.0609 35.8826 6.24346 12.011 -0.00124118 -0.0126615 0.00731061 
C 49.6896 43.7892 39.0569 12.011 -0.00243267 -5.80249e-05 0.00138865 
C 1.35691 47.1304 48.256 12.011 -0.00146803 -0.0108221 0.00800715 
C 3.22209 34.4646 20.1653 12.011 0.00418392 -2.25652e-05 -0.00513186 
C 40.6159 50.8974 30.6647 12.011 -0.00306035 0.00351146 -0.000559867 
C 27.5211 15.0988 6.41817 12.011 0.00425285 0.00628269 0.0053601 
C 46.1019 44.7801 42.5104 12.011 -0.00504729 0.000907971 0.00528864 
C 39.3159 32.7771 50.0722 12.011 -0.00209998 0.000877726 0.00623536 
C 32.9658 40.0071 42.1897 12.011 -0.00332886 -0.0069576 0.0041761 
C 24.1765 19.4045 12.2791 12.011 0.000380826 0.00419342 0.00619782 
C 20.3776 27.9281 20.7858 12.011 0.00535265 -0.00156216 0.000266666 
C 32.8728 21.1789 16.9205 12.011 0.00284178 0.00273126 -0.00615366 
C 14.8395 48.2258 29.566 12.011 0.00409591 0.00794272 0.00685143 
C 22.1435 18.0216 11.8858 12.011 0.00783929 -0.00309067 0.00425493 
C 9.55752 2.56986 27.926 12.011 0.00117113 0.000821596 0.00641019 
C 28.0135 35.0053 34.8116 12.011 -0.00419639 0.0109267 0.00260575 
C 25.2005 4.83392 28.3348 12.011 0.00375783 0.00179781 -0.000751016 
C 7.9711 20.8841 6.00114 12.011 -0.00601315 -0.00416046 -0.000103339 
C 48.1019 12.4024 34.4132 12.011 0.00465102 -0.00200317 -0.00560912 
C 37.5261 1.7192 20.5684 12.011 0.00155233 0.00701572 -0.00139961 
C 23.1683 17.8715 14.0278 12.011 0.00160358 0.000821812 -0.0016836 
C 38.3206 48.5761 18.5519 12.011 -0.00205959 0.000506217 -0.00751163 
C 45.9353 13.99 50.5861 12.011 -0.00555425 0.00792763 0.00148017 
C 28.0555 43.6197 13.0651 12.011 -0.00146554 -0.00533544 0.000400147 
C 23.0096 41.1139 24.0724 12.011 -0.002622 -0.00425062 -0.00122096 
C 45.8473 32.4005 17.4178 12.011 -0.00157161 0.000579473 0.00141526 
C 42.6083 23.5598 15.8229 12.011 -0.00398408 4.49137e-05 0.00461352 
C 14.9793 45.5424 42.7277 12.011 -0.000753622 0.00244142 -0.00725602 
C 0.320383 41.6614 0.108279 12.011 -0.0034966 -0.00136854 -0.00672029 
C 42.7566 7.1223 3.59051 12.011 -0.0150415 -0.00051079 -0.000308538 
C 49.8253 11.2073 18.4851 12.011 -0.00223327 0.000872983 0.0039091 
C 12.0877 20.0968 47.659 12.011 -0.00417626 -0.00839921 0.00162363 
C 7.25092 8.05422 9.79133 12.011 0.00229878 0.0015664 0.00392643 
C 12.7884 24.5418 22.6362 12.011 -0.00108767 0.000428959 0.00866957 
C 49.5496 44.4611 16.7661 12.011 0.00673537 0.00270505 0.00388834 
C 7.91923 10.4546 26.1677 12.011 -0.00362537 0.00291793 0.000326801 
C 25.3893 15.0963 12.9139 12.011 -0.00118322 0.00107303 0.00831055 
C 4.28712 41.3481 38.4048 12.011 -0.00100809 -0.00261731 0.000243409 
C 39.2213 11.4743 36.5407 12.011 0.00531681 0.00102231 0.00124076 
C 46.7022 5.01737 29.1313 12.011 -0.000104702 0.00244072 -0.00436206 
C 12.6723 9.23667 0.419483 12.011 0.00203422 0.00120333 0.00170367 
C 42.2412 31.8673 20.6445 12.011 0.00498531 0.001747 -2.1095e-06 
C 37.5133 24.6558 3.19679 12.011 0.0128477 0.00234706 0.00303761 
C 2.85977 42.8026 36.9695 12.011 -0.00401966 0.00581729 -0.006756 
C 25.7217 9.14153 38.6506 12.011 0.00423999 0.00304755 4.71441e-05 
C 39.4399 6.02612 10.9628 12.011 7.66297e-06 0.00202 -0.00283259 
C 16.4305 17.1371 42.9582 12.011 -0.00718284 -0.000822143 -0.000607179 
C 47.5012 43.732 18.4442 12.011 0.00278401 0.00688152 0.00697878 
C 33.2507 45.4957 38.7618 12.011 0.00187678 -0.000471903 -0.00153433 
C 10.0176 21.8453 44.713 12.011 0.00126179 -0.00324536 -0.000475912 
C 27.1834 33.9106 44.0886 12.011 -0.00571138 -7.31754e-05 0.00254599 
C 5.94823 25.2582 25.3515 12.011 -0.00211394 -0.0022368 0.00177999 
C 38.5914 37.7137 2.79056 12.011 0.00478248 -0.00243769 -2.34298e-05 
C 38.07 23.9221 38.4232 12.011 -0.00364564 -0.00526505 0.00300039 
C 40.0656 10.7994 46.5024 12.011 -0.0118453 -0.00365895 0.00350451 
C 3.46444 48.4603 47.8293 12.011 -0.00183613 0.005606 0.00773089 
C 8.76475 44.2785 34.8454 12.011 0.00209687 0.0041357 -0.00020977 
C 24.3662 16.7462 37.8882 12.011 -0.00502435 -9.47392e-05 0.005019 
C 2.8672 25.0447 5.45408 12.011 0.00297547 -0.000671447 -0.00801229 
C 40.4738 7.76892 18.9506 12.011 0.00674191 -0.00210716 0.00175709 
C 26.5849 21.2694 3.68997 12.011 0.00663523 -0.00148349 0.000600515 
C 20.7801 11.866 14.0226 12.011 -0.000962818 0.00224653 0.00171204 
C 2.67557 14.2101 42.1114 12.011 0.00185331 -0.00542523 0.00323864 
C 41.9797 49.5106 29.004 12.011 0.00202301 -0.0115729 -0.00572329 
C 40.4318 31.9531 39.512 12.011 -0.00115168 -0.00202895 0.00542218 
C 25.0615 41.3935 10.0354 12.011 -0.000352082 -0.0037132 0.00493789 
C 27.9325 41.9501 38.6046 12.011 0.000728178 -0.000731483 -0.00261399 
C 28.4581 16.0121 33.2078 12.011 -0.0064691 -0.00219134 -0.00693511 
C 16.3774 40.3665 16.1088 12.011 0.00191665 0.00143456 0.00189251 
C 4.89984 32.4938 50.3843 12.011 0.00523472 0.000716673 0.00764119 
C 30.4474 49.6161 32.6828 12.011 -0.00184006 -0.00402587 0.00465598 
C 46.5599 2.56577 15.1304 12.011 -0.00173803 0.00425547 -0.0025474 
C 12.1909 26.8773 8.87606 12.011 -0.00225314 0.00348728 -0.00225817 
C 40.8696 48.6983 49.3374 12.011 0.00262731 0.00460088 -0.00427534 
C 39.1143 36.7436 15.0253 12.011 1.10708e-06 -0.00176219 0.00256275 
C 45.5462 36.6927 20.4934 12.011 -0.00116273 -0.00233429 -0.00446212 
C 28.2753 39.1433 26.8056 12.011 0.00229992 0.00211799 -0.00840485 
C 28.5168 42.6297 4.00137 12.011 0.005675 -0.000487099 0.00114392 
C 4.24985 34.647 24.685 12.011 -0.00344811 0.00387381 -0.00711433 
C 20.6949 22.6396 36.7547 12.011 0.00108541 0.000159201 -0.000798454 
C 2.50217 44.5925 34.7636 12.011 -0.00308754 -0.00184938 0.00336999 
C 17.6104 12.2782 16.71 12.011 0.00393222 0.00235788 0.00766915 
C 4.18503 40.8344 39.7069 12.011 -0.00355567 0.000710408 0.00261498 
C 39.1918 16.6528 29.7814 12.011 0.00338924 0.00476782 0.000492195 
C 14.8979 28.7844 0.979943 12.011 -0.00238894 0.0080814 -3.77492e-05 
C 31.2343 23.0077 2.58075 12.011 -0.0041076 0.0022576 -0.000953138 
C 26.9071 38.7503 34.7845 12.011 -0.00326214 0.0036855 0.00468677 
C 12.4722 50.4759 43.8133 12.011 -0.00247995 -0.00216089 0.000302672 
C 21.426 29.8891 27.4224 12.011 -0.000532993 -0.00724489 -0.00293989 
C 18.4803 47.1806 49.7339 12.011 -0.00651132 -0.0064845 0.0066135 
C 8.77411 28.4061 40.5005 12.011 -0.00524913 0.00749995 -0.00119588 
C 33.3038 11.262 46.1125 12.011 0.00567193 -0.00171856 0.000684826 
C 9.01696 9.03551 45.0078 12.011 -0.0126805 -0.0011292 7.08903e-05 
C 17.9989 15.953 32.8642 12.011 0.000336625 0.0015518 -0.000310447 
C 45.449 36.1619 0.186879 12.011 -0.0024928 0.00113963 -0.00207995 
C 48.3929 39.3111 6.68676 12.011 0.00295068 0.0072865 0.00375238 
C 43.0296 4.02191 34.5631 12.011 0.00593065 -0.00646692 -0.000333461 
C 1.44142 32.6654 25.155 12.011 0.00745742 -0.00689308 -0.00520625 
C 30.6461 17.0756 33.0951 12.011 0.000495059 -0.00161278 -0.00490642 
C 9.45425 38.9633 47.5475 12.011 0.000916996 -0.000511472 -0.00417176 
C 31.8264 31.7918 1.26374 12.011 -0.00232292 0.00763014 3.51127e-05 
C 20.8284 9.01405 17.1387 12.011 -0.0122389 -0.00314756 0.00824356 
C 49.0018 18.0922 20.41 12.011 0.00317125 0.0011428 0.00112895 
C 35.0757 2.86827 40.5343 12.011 -0.00243007 0.00726404 -0.00300096 
C 12.2145 45.5202 34.8249 12.011 -0.00657413 -0.00513139 -0.0057472 
C 44.2362 36.615 16.4838 12.011 -0.00343166 -0.00150506 -0.00509378 
C 18.1264 42.8065 34.6486 12.011 0.00281941 0.00441378 -0.00924645 
C 25.0863 1.25202 11.2735 12.011 0.00792763 -0.00209644 0.00173474 
C 13.4066 30.5043 6.61312 12.011 0.0020047 -0.00395139 -0.00947226 
C 25.8722 30.3059 3.70483 12.011 -0.00313981 -0.00396839 0.00469909 
C 29.7259 9.18892 47.2714 12.011 -0.00430469 -7.84776e-06 0.010636 
C 29.093 28.3149 0.570804 12.011 0.00564759 -0.00692337 0.00518915 
C 34.7008 35.1157 9.86262 12.011 -0.00251009 -0.00933569 0.00710449 
C 0.422567 19.5242 38.1932 12.011 0.00405101 -0.00020415 0.000751454 
C 3.26835 15.835 8.3314 12.011 -0.00197998 0.000341951 0.00175 
C 13.0893 32.8796 7.48388 12.011 0.00592438 0.00425712 -0.00360141 
C 15.3841 32.7317 29.9386 12.011 0.00299893 0.00471822 -0.00330891 
C 12.9344 36.7196 1.34677 12.011 -0.00304571 0.00288849 -0.00245274 
C 27.1291 36.5043 38.7387 12.011 0.00545989 -0.000238668 0.000277181 
C 7.99676 32.7044 16.2389 12.011 0.00212373 0.00361871 -0.0115886 
C 7.58056 12.5293 24.1956 12.011 -0.00458418 -0.00519507 -0.00209169 
C 11.218 46.3362 32.6809 12.011 -8.38112e-06 0.0012828 -0.00332082 
C 44.8599 16.6262 42.8203 12.011 0.00118593 -0.000414374 -0.00222593 
C 49.3358 6.0031 45.215 12.011 -0.0165295 -0.00093118 -0.00111883 
C 46.6429 24.7693 34.4183 12.011 -0.00295918 -0.000721245 0.000116383 
C 43.9172 27.1727 34.2742 12.011 0.00101692 -0.00111603 -0.00237387 
C 13.3822 50.8656 17.4035 12.011 -0.000965144 0.00115899 0.00573768 
C 32.8716 44.5516 12.4567 12.011 0.00275782 0.00258295 -0.00869103 
C 44.0583 32.4616 19.1277 12.011 0.00247454 -0.00241159 0.00276867 
C 14.7869 33.4172 39.5012 12.011 -0.00455742 0.00318077 -0.00383943 
C 28.4388 50.0303 40.8662 12.011 0.00486025 -0.00479347 0.00136357 
C 42.9104 3.7946 48.8287 12.011 -0.00603082 -0.00200279 0.00478424 
C 36.6601 44.2098 12.5133 12.011 0.00870256 -0.000186276 0.00619596 
C 20.3089 21.3573 36.297 12.011 0.00586819 0.000962762 -0.0068134 
C 13.9114 23.6722 22.4271 12.011 -0.00250462 -0.00306482 0.00447822 
C 17.0408 0.51683 8.90828 12.011 0.00532373 0.00402483 0.00192623 
C 24.2724 33.7102 35.9864 12.011 0.00126317 0.00447626 -0.00105806 
C 27.6151 14.7804 0.0328336 12.011 0.00659897 -0.00314539 -0.00454004 
C 40.986 34.8032 50.0064 12.011 -0.00491069 0.00650047 -0.0014611 
C 23.8401 46.2656 25.3681 12.011 0.000444446 -0.00395601 0.0115218 
C 42.3239 17.6911 46.7629 12.011 0.00572851 0.00115896 -0.00716792 
C 5.97112 7.91076 47.9413 12.011 -0.00739814 0.00280921 0.00400648 
C 6.52519 20.3795 18.232 12.011 -0.00466782 0.00167878 -0.000961908 
C 1.46998 49.8628 23.3639 12.011 -0.000871114 -0.00176706 0.00957449 
C 42.0059 27.0803 46.0907 12.011 -0.00692025 -0.00642231 0.000144365 
C 34.0242 5.84261 9.79398 12.011 -0.00169652 -0.000541203 -0.0117582 
C 50.7377 31.7345 38.7537 12.011 0.00834905 -0.00293336 -0.00490148 
C 49.0913 33.6535 41.6554 12.011 -0.00223079 -0.00700582 -0.00161739 
C 9.95883 39.1863 3.43407 12.011 0.00594079 0.00588207 -0.00256869 
C 1.94217 17.6886 39.6411 12.011 -0.00258893 -0.0103041 0.00837895 
C 7.47653 41.1241 22.0228 12.011 -0.00679633 -0.00153943 0.00745641 
C 48.0328 0.0206804 33.3459 12.011 0.00374176 0.00586252 -0.00289107 
C 41.9641 36.4822 17.2632 12.011 -0.0017716 -0.00228532 0.0058026 
C 14.0341 4.34823 34.2858 12.011 0.000976064 0.00451377 -0.00465533 
C 44.0833 16.1974 11.4366 12.011 -0.000226148 0.00405629 0.00286207 
C 45.6234 0.4426 14.2642 12.011 0.00567989 0.00170557 -0.00384116 
C 18.8221 42.0845 47.2477 12.011 -0.0083593 -0.00186899 -0.00982981 
C 20.5256 35.6482 10.0438 12.011 -0.00258084 -0.00673331 0.00850916 
C 34.1378 9.24779 32.2581 12.011 0.00820484 -0.000757567 -0.000411436 
C 23.2306 31.6702 36.8511 12.011 0.000843169 0.00785624 -0.00305914 
C 46.4335 36.9691 44.0742 12.011 0.00868117 -0.00673312 0.00470237 
C 47.5333 4.19602 45.2137 12.011 0.00718265 0.0037421 -0.00626123 
C 34.1426 45.2357 21.6523 12.011 0.00240903 -0.00439568 -0.00772678 
C 31.8073 33.5557 50.5126 12.011 0.00577052 -0.00306661 0.00210475 
C 39.4156 37.7441 4.05048 12.011 0.00321888 -0.00333105 0.000362842 
C 26.554 34.6904 18.923 12.011 0.010911 0.00289108 -1.93377e-05 
C 20.5138 25.771 21.6095 12.011 -0.0040617 -0.00353138 -0.000367185 
C 32.2988 29.9531 3.15957 12.011 -0.00203796 0.000349769 -0.00548907 
C 6.99567 38.7553 5.83682 12.011 0.00294072 -0.000221395 0.00241418 
C 44.9986 23.2944 45.646 12.011 -0.00150283 0.00412904 -0.00601439 
C 24.576 19.8416 22.7577 12.011 0.00356545 -0.00244297 -0.000657568 
C 45.4971 45.6579 23.934 12.011 -0.00116075 0.00221874 -0.000148026 
C 3.03608 28.526 3.95003 12.011 0.006594 -0.00804364 0.000310864 
C 28.5512 38.3946 29.1557 12.011 -0.00358742 0.00686306 -0.00754039 
C 36.8893 35.3687 7.62976 12.011 0.00597407 0.00823669 0.00704863 
C 19.7748 21.0843 0.615487 12.011 -0.00670143 -0.00271482 0.00238956 
C 36.8623 14.2544 46.4998 12.011 0.00410294 0.00254815 -0.00127373 
C 39.594 19.5912 1.97718 12.011 -0.0062761 -0.00766883 -0.000290105 
C 35.1013 33.9784 4.5354 12.011 -0.00214079 -0.00363534 -0.00116899 
C 43.3758 32.1798 12.9143 12.011 0.0013061 0.000213331 -0.000625592 
C 11.2792 48.9639 16.7588 12.011 -0.00469466 0.00763258 0.00150129 
C 12.4067 2.19277 18.6701 12.011 -0.00135067 -0.00140145 0.00542778 
C 4.19633 9.30407 13.6158 12.011 -0.00219667 -0.00999268 0.000330076 
C 48.2079 25.9328 44.9802 12.011 -0.00134509 -0.000963769 0.00344757 
C 21.0201 12.3395 38.2083 12.011 0.00249971 -0.00661758 -0.00136815 
C 5.51086 1.27211 25.4952 12.011 -0.00313244 0.00491988 0.00625374 
C 14.9402 8.65466 50.4961 12.011 0.00419669 -0.00149183 -0.000362519 
C 36.6555 13.5966 20.7818 12.011 0.00358939 -0.00483174 -0.000722067 
C 30.6885 27.827 18.4839 12.011 -0.00331247 -0.00115954 0.0043926 
C 16.0156 22.8013 23.414 12.011 0.00471187 0.0012719 0.0058816 
C 28.5609 0.414372 9.8864 12.011 -0.00200504 0.00156462 -0.00229455 
C 7.14832 23.944 11.3311 12.011 -0.000552927 -0.00138175 0.000932526 
C 47.4624 4.18292 17.8381 12.011 -0.00771042 -0.0108479 0.00288263 
C 3.13812 46.5038 3.59837 12.011 0.00288456 0.00687169 0.00313788 
C 36.0114 43.3393 35.6588 12.011 -0.00884871 -0.00146282 -0.0139097 
C 41.8252 10.3321 13.5874 12.011 0.0110558 0.00907751 -0.0068787 
C 32.5897 41.4877 43.9739 12.011 0.00626552 0.00324122 -0.000206721 
C 29.8298 12.318 5.73269 12.011 -0.002498 0.000574313 0.00687294 
C 3.79083 5.93774 21.9118 12.011 0.00346148 -0.00394148 -0.00815381 
C 20.5607 43.7348 34.6444 12.011 -0.00458082 0.000303453 0.00070152 
C 22.0985 21.9496 44.8094 12.011 -0.00149708 -0.00527831 7.5041e-05 
C 36.9604 5.54907 0.130958 12.011 -0.00117581 -0.00307434 0.00146922 
C 18.8301 50.1842 9.78975 12.011 -0.00508536 0.00708273 0.00456896 
C 11.0801 44.718 35.012 12.011 -0.000516741 -0.00555999 -0.00347277 
C 40.5753 19.065 42.5 12.011 -0.00429033 -0.00624669 -0.000281367 
C 22.3817 27.5795 5.86738 12.011 -0.000313159 -0.00188071 0.000569937 
C 46.474 33.9061 2.14646 12.011 -0.00909127 -0.00559882 -0.000369618 
C 39.192 17.7939 7.59721 12.011 -0.00419861 0.0053174 0.00927769 
C 35.7001 19.2095 39.6999 12.011 -0.00162553 0.000447835 0.0101878 
C 33.2241 34.7384 35.1693 12.011 0.00746782 0.00525274 -0.00376249 
C 23.0731 26.9402 17.5794 12.011 0.0006484 0.00169893 -0.00624183 
C 7.96576 43.947 47.6735 12.011 0.00145003 -0.00169892 -0.00353531 
C 35.1357 17.8416 32.4834 12.011 -0.00979392 0.00478552 -0.00105082 
C 29.2689 1.55716 39.8092 12.011 0.000867622 -0.00356441 -0.00365037 
C 39.7344 12.7772 23.1473 12.011 0.00119343 -0.000811751 -0.00123644 
C 29.0013 26.1897 8.96389 12.011 0.00207148 -0.00633889 -0.00373445 
C 46.6039 30.8122 11.7275 12.011 -0.00481625 0.00744086 0.00198957 
C 28.3097 46.5327 7.98003 12.011 -0.00568129 5.89241e-05 0.000130439 
C 12.1631 11.2835 43.4282 12.011 -0.00473648 -0.00159349 -0.00266888 
C 27.726 46.553 34.5959 12.011 0.00610097 -0.000971487 -0.00576708 
C 3.70363 13.4295 36.5106 12.011 -0.00491292 0.00192464 -0.00428975 
C 27.8892 45.412 32.4522 12.011 -0.00230243 0.00373727 -0.00138859 
C 13.1099 2.77313 45.3768 12.011 -0.00382443 0.00749615 0.00837488 
C 2.87666 32.2362 0.913635 12.011 -0.00501488 0.00321913 -0.00178401 
C 1.22158 26.6188 36.9559 12.011 0.00494691 0.00549249 -0.00299248 
C 45.5973 37.3335 50.4068 12.011 0.0020458 0.00225734 0.00085423 
C 38.8135 34.801 24.2677 12.011 0.00401083 0.00433564 0.00159539 
C 3.54943 30.6086 27.2984 12.011 0.00435843 -0.00450297 0.00205298 
C 18.4687 45.9224 15.6178 12.011 0.0059139 0.00134569 -0.00323079 
C 26.6133 41.846 7.69577 12.011 -0.00587533 0.0083929 0.00447834 
C 5.2115 38.9473 48.4552 12.011 0.000759306 0.00666589 -0.00348003 
C 11.4003 9.35847 32.502 12.011 -0.00156539 0.0068241 -0.00272756 
C 45.9136 15.5878 1.36567 12.011 2.32873e-05 0.002891 0.000879378 
C 38.8201 12.6323 13.8895 12.011 -0.00165594 0.00393392 0.000773803 
C 22.9458 50.1406 47.193 12.011 -0.000940196 0.00535415 -0.00812622 
C 0.355874 35.0457 8.79111 12.011 -0.00261381 -0.00205059 -0.00043085 
C 46.4674 49.2033 24.4566 12.011 0.00212433 -0.00135615 0.00279313 
C 48.5379 29.7506 10.4733 12.011 0.00126283 -0.00301125 -0.000567821 
C 18.3026 39.8119 39.2012 12.011 0.000677463 -0.00767313 -0.00293043 
C 7.88559 14.0429 49.4508 12.011 -0.00219581 0.00305454 0.00185974 
C 49.0323 38.8221 21.5148 12.011 -0.00220563 0.00328079 4.40969e-05 
C 33.329 36.3784 14.5266 12.011 -0.00405208 0.00350756 0.00675904 
C 19.1987 5.07681 8.37278 12.011 0.00250828 -0.00123352 -0.00473339 
C 19.9402 48.6329 3.19471 12.011 0.000173031 -0.00533696 -0.00108441 
C 11.3039 36.8743 25.9469 12.011 -0.00462863 -0.00245868 0.00364612 
C 3.91434 8.50328 36.3472 12.011 0.00147401 -0.00367416 0.00372194 
C 33.1763 13.7243 45.9035 12.011 -0.00445862 0.00583607 0.00103663 
C 39.5826 3.78389 9.91701 12.011 -0.00122364 -0.00491424 -0.00701599 
C 37.5322 17.7738 49.6871 12.011 -0.00300301 -0.00732802 0.00423458 
C 41.2887 22.7378 3.09469 12.011 -0.000707038 -0.00100347 -5.38016e-05 
C 15.3908 40.841 44.1403 12.011 0.00731582 -0.00208016 -0.0017837 
C 7.33802 36.407 20.9823 12.011 -0.00340413 -0.000457387 0.00772031 
C 17.0683 46.3265 15.4028 12.011 -0.00140711 0.00424338 0.00461729 
C 26.3275 47.4964 42.7323 12.011 0.00345285 0.00073348 -0.00801293 
C 37.7007 36.7537 15.4037 12.011 0.000916047 -0.00485322 -0.00365509 
C 15.7524 47.8804 14.0036 12.011 0.0047727 0.000727341 0.00151258 
C 41.4742 12.3853 15.1085 12.011 0.00112446 -0.00307923 -0.00045831 
C 0.188135 50.3772 3.05655 12.011 -0.00518159 -0.00444947 2.3354e-05 
C 6.79439 33.0322 48.7631 12.011 0.00372449 -0.00376637 0.00880863 
C 31.2258 41.0037 20.6203 12.011 0.00230906 -0.00422271 0.000533952 
C 18.1987 8.12236 34.4544 12.011 0.000787592 -0.00140138 -6.62499e-05 
C 24.9625 35.4116 38.9882 12.011 0.0053771 -0.00295549 0.00944035 
C 45.2852 25.4311 27.954 12.011 -0.00220708 0.00479688 -0.00104709 
C 8.82636 34.7777 11.8022 12.011 -0.00315112 -0.00262944 -0.00631965 
C 6.19225 31.5063 38.7684 12.011 -0.00412399 0.00207742 -0.00122215 
C 45.4428 20.5536 46.2938 12.011 -0.00308809 -0.00139348 -0.00137964 
C 41.0469 9.53772 22.2488 12.011 -0.00795502 0.00384814 0.00576257 
C 5.17392 7.24365 19.6442 12.011 -0.00168276 -0.000379789 0.000438523 
C 28.5917 41.2295 37.661 12.011 -0.00210847 -0.00115748 -0.00495193 
C 30.8546 13.8243 29.0266 12.011 1.63929e-05 0.00308182 -0.00370871 
C 47.6744 22.9165 15.2216 12.011 0.00244511 -0.000645537 -0.00276692 
C 15.9962 28.4387 34.8993 12.011 -0.000450473 -0.00481334 0.00451113 
C 34.7533 36.488 14.9609 12.011 0.00154189 -0.0117498 0.00389769 
C 40.6501 13.6219 15.2905 12.011 0.00190876 0.0114491 0.00356299 
C 28.6037 13.9298 0.696512 12.011 -0.00549536 0.00160491 0.00331713 
C 39.2361 31.9868 1.96771 12.011 -0.00104634 0.00773555 -0.00168372 
C 7.46377 43.4066 24.9148 12.011 0.00337755 -0.00680533 0.00426013 
C 23.2595 42.2281 20.5397 12.011 0.00741527 -0.00343686 -0.000411688 
C 47.0744 43.3607 14.6197 12.011 0.00759908 -0.00888422 -0.0104549 
C 6.27743 29.4327 11.1896 12.011 0.00394794 -0.00481282 0.000659284 
C 9.70002 3.98128 24.2991 12.011 0.00586573 -0.00352515 -0.0031009 
C 39.4496 43.0373 22.126 12.011 0.0035919 0.000674622 0.000664976 
C 18.4363 18.48 10.0056 12.011 -0.0028789 -0.00221223 0.0008176 
C 40.0852 18.6246 8.42571 12.011 -0.000389273 0.00405236 -0.000761314 
C 32.3851 7.24847 8.67087 12.011 0.00155006 -0.00140533 -0.00333964 
C 33.2597 18.6713 38.8508 12.011 0.00361533 0.00170041 -0.00139027 
C 9.8561 26.3208 5.63482 12.011 0.00545475 -0.00333554 -0.00906204 
C 26.048 3.34391 32.9953 12.011 -0.00536726 0.000718425 0.00248718 
C 27.0719 1.75787 8.24923 12.011 -0.00342871 0.000315351 -0.0025063 
C 28.3415 32.8771 2.32469 12.011 -0.000305853 -0.00747508 0.00624448 
C 27.2485 9.23419 18.9335 12.011 -0.00403814 -0.00038752 0.00623653 
C 20.1541 5.3366 14.8656 12.011 0.00261177 -0.00311159 0.000622686 
C 47.2623 18.3794 40.6303 12.011 0.000568507 -0.00549788 0.0160476 
C 9.72905 18.3814 32.6078 12.011 -0.00152977 -0.00112417 -0.00298668 
C 32.5336 39.5695 26.4799 12.011 0.00079977 0.0039554 -0.00101989 
C 49.0526 15.451 47.2602 12.011 -0.004116 0.00426211 0.00487604 
C 40.1839 35.7285 22.1116 12.011 0.00253003 -0.000169189 0.00364219 
C 0.464643 12.6183 43.9748 12.011 0.00342365 0.00350902 -0.00292494 
C 11.292 37.9861 12.1304 12.011 -0.00138709 0.0052093 -0.00127192 
C 27.1267 45.9094 21.4406 12.011 0.00398409 -0.00138641 -0.00845282 
C 33.3336 11.6751 30.7787 12.011 0.0084598 -0.000152839 -0.00269307 
C 41.2288 41.3643 0.909877 12.011 0.00908909 0.00172361 -0.00128467 
C 42.8013 30.7492 46.3201 12.011 -0.00314985 -0.00347832 0.00138343 
C 45.0808 47.7109 47.4668 12.011 0.00574424 0.00225737 0.004875 
C 35.3557 45.1955 28.7861 12.011 0.00302465 -0.00233261 -0.00155943 
C 7.85813 24.682 20.6842 12.011 -0.000333974 -0.00207347 -0.00184277 
C 18.1036 19.3921 45.4872 12.011 0.00206954 0.00195227 -0.00226081 
C 4.16827 18.9055 22.4831 12.011 -0.00683139 0.000396639 2.12717e-05 
C 23.0129 34.5982 16.2754 12.011 0.000663374 0.0065571 0.0105972 
C 38.347 36.7088 17.6409 12.011 0.00743827 -0.00497657 -0.00499236 
C 17.3456 17.4404 39.2316 12.011 0.000495616 0.0093689 -0.00614484 
C 4.91731 20.2837 41.0661 12.011 -0.00167379 0.00477856 -0.00224724 
C 38.7153 34.2903 37.8831 12.011 -0.00498951 0.000966625 0.00489763 
C 33.1255 44.1802 28.9954 12.011 0.00288094 0.00355873 -0.00188716 
C 6.8533 16.4109 48.323 12.011 -0.00108517 0.00105501 -0.00366216 
C 19.5651 21.652 23.5114 12.011 -0.00219186 0.00345902 -0.00733517 
C 45.8609 48.3561 34.6548 12.011 0.000689948 -0.00422059 -0.0117818 
C 17.9322 20.8153 5.07686 12.011 0.004807 0.00189125 -0.00819912 
C 24.1216 15.2231 35.6321 12.011 0.00743552 -0.00465852 0.000818622 
C 36.4285 30.0453 0.708586 12.011 -0.00886484 -0.0039573 0.00507658 
C 5.72136 8.25042 29.8187 12.011 0.0028091 0.00330536 -0.00369394 
C 35.7892 13.7003 42.1179 12.011 0.00685745 -0.00483597 0.00532213 
C 15.7338 47.677 34.4385 12.011 -0.00528664 0.00593973 0.00260992 
C 24.5243 33.6883 5.80888 12.011 0.00240922 -0.00770696 -0.00694296 
C 40.3737 2.82794 9.2162 12.011 0.00394161 0.00787509 -0.000759956 
C 22.9047 12.6963 14.6416 12.011 -0.00442287 0.00645174 0.00399522 
C 45.3317 2.78279 15.8305 12.011 -0.000706346 0.00629698 -0.00338489 
C 43.792 2.73255 1.85546 12.011 -0.00501586 0.00192149 0.00408712 
C 4.05247 48.8146 3.52061 12.011 0.0029821 -0.00354658 -0.0070756 
C 46.5944 3.42644 44.2629 12.011 -0.00501554 -0.000934469 -0.00513312 
C 24.4509 43.0964 14.2021 12.011 -4.85637e-05 0.00592065 -0.00253568 
C 17.6728 43.9944 35.3992 12.011 -0.00479687 -0.00518599 -0.00917397 
C 32.1536 40.6031 21.6253 12.011 -0.00409631 0.00611517 0.00483689 
C 6.19172 40.8034 22.6216 12.011 0.00346423 0.00381477 0.00407012 
C 37.5971 22.3325 2.56711 12.011 0.00478196 -0.00470576 0.00490037 
C 43.2014 32.7886 28.3024 12.011 0.000752916 0.00276714 0.00317091 
C 25.5102 18.2569 30.07 12.011 -0.00524135 -0.00137843 -0.00673357 
C 25.1963 40.3867 24.9658 12.011 0.000554767 -0.000674198 0.00704158 
C 39.0052 39.8075 27.3028 12.011 -0.00786161 0.00402951 -0.00535604 
C 7.35612 40.251 47.9567 12.011 0.00208699 -0.00064497 0.00721186 
C 28.3481 5.62196 24.4005 12.011 0.00730506 0.000695732 0.00324407 
C 43.423 44.451 24.793 12.011 0.00400048 -0.000565912 0.00227096 
C 12.2933 4.08051 4.91788 12.011 0.00121502 -0.00199101 0.00519678 
C 27.8867 15.6186 49.9301 12.011 -0.000401373 -0.0006017 -0.00451791 
C 15.9517 27.8058 24.6387 12.011 -0.00386819 0.000270425 0.00220582 
C 19.811 7.09083 20.539 12.011 -0.00375969 0.00543401 0.00681683 
C 47.911 17.5837 1.87147 12.011 0.00335807 0.00298144 0.0019206 
C 22.1218 15.7229 3.53534 12.011 -0.00211663 -0.00727161 0.00291759 
C 33.8556 19.6221 4.40796 12.011 0.00428524 -0.00645024 -0.00319074 
C 43.8597 24.2369 12.4016 12.011 0.00949349 0.00595787 -0.000805844 
C 47.3036 49.9906 13.2757 12.011 -0.000382816 0.00082719 -0.000219563 
C 14.3838 37.8474 46.2733 12.011 0.00378782 0.00673886 -0.000780231 
C 24.6011 14.9889 48.291 12.011 -0.00723608 -0.000926603 -0.00442444 
C 0.733834 39.495 43.9739 12.011 -0.000608357 0.0015786 -0.00179285 
C 24.8706 21.0141 18.1498 12.011 0.0047999 -0.00507202 -0.00816396 
C 12.9036 37.5556 35.6095 12.011 0.00168106 0.00352861 0.00831019 
C 14.8734 38.9275 22.0882 12.011 -0.00578556 0.000542926 0.00799191 
C 44.3409 39.1 5.53513 12.011 0.00258289 -0.00598402 -5.06195e-05 
C 12.7906 44.809 17.0371 12.011 -0.01198 -7.5767e-05 0.000777849 
C 31.3286 43.2586 45.4495 12.011 -0.00313679 0.000113492 0.0019774 
C 26.4148 18.0136 31.2989 12.011 0.000351024 0.00203985 0.00549127 
C 43.6599 1.59247 34.2663 12.011 -0.00466212 -0.00386263 0.00306143 
C 44.2428 49.0787 26.1123 12.011 -0.000510045 0.00700909 0.00318551 
C 12.6569 13.699 7.76297 12.011 -0.00400142 4.1391e-07 0.00576968 
C 50.3808 45.0407 17.9153 12.011 0.00233895 0.00255696 0.00483895 
C 25.8958 21.8212 31.0829 12.011 -0.00110318 0.000826311 0.00122846 
C 26.8921 13.7491 40.2519 12.011 -0.00466629 -0.00538851 -0.000677375 
C 50.3133 9.13517 22.5033 12.011 -0.0064915 -0.00129778 -8.23948e-05 
C 38.0565 9.45204 19.5732 12.011 0.00552057 2.34082e-05 0.00522093 
C 8.67997 38.1957 41.214 12.011 4.57588e-05 -0.00695111 0.00397027 
C 9.76627 16.0424 33.3087 12.011 0.00563102 -0.000345908 -0.000134178 
C 13.7276 26.6688 41.882 12.011 0.00118156 -0.00787266 0.00084951 
C 29.6875 14.3951 45.2572 12.011 0.00213259 0.00624948 -0.00664153 
C 4.90732 34.6265 49.1342 12.011 0.0047177 -0.00432801 0.00278676 
C 42.2223 28.4245 36.1899 12.011 -0.00170324 -0.00384951 -0.00169995 
C 12.5732 44.7023 14.6873 12.011 -0.00340992 0.00357243 0.00169081 
C 35.6083 14.9955 4.72465 12.011 -0.00475438 -0.000160726 0.00933502 
C 38.578 28.4471 8.78211 12.011 -0.00326731 0.000861382 -0.000866607 
C 38.3632 2.09735 47.7964 12.011 -0.00266552 -0.00584288 0.00119942 
C 28.2447 24.9544 9.08352 12.011 -0.00639007 -0.00514599 -0.000931538 
C 33.411 10.7465 49.7842 12.011 -0.00335319 -0.00141954 -0.00342053 
C 3.09094 33.0985 10.4878 12.011 0.00257961 0.00720347 -0.00130461 
C 25.4564 20.6895 31.7434 12.011 0.00327764 0.000687609 -0.000757851 
C 19.7389 16.4036 26.3731 12.011 -0.00447995 0.00364407 0.00396025 
C 31.956 44.8073 22.414 12.011 -0.00465285 0.0040058 -9.30448e-05 
C 23.7809 35.9386 7.36045 12.011 0.00312763 -0.000621877 0.00494568 
C 11.5806 10.3464 28.1905 12.011 -0.00348418 0.00427171 -0.00765754 
C 4.37812 44.7867 29.6251 12.011 0.0029371 -0.00323573 -0.0029369 
C 15.7672 33.9552 4.12629 12.011 -0.00260758 -0.00354932 0.00117354 
C 42.5206 32.1204 11.8386 12.011 -0.00365095 0.000863966 -0.00211601 
C 22.5063 24.2858 41.9266 12.011 -0.00516229 0.00379541 0.00452161 
C 19.9036 15.2278 15.4029 12.011 -0.00286123 0.00542336 -0.00546249 
C 29.8578 5.62329 48.396 12.011 -2.02531e-06 -0.00530633 -0.000443868 
C 8.51066 22.2356 5.97445 12.011 0.00444347 -0.00359096 -0.00220484 
C 39.6068 8.98884 36.2718 12.011 0.00398459 0.00467617 0.00155639 
C 29.8668 19.5499 20.4807 12.011 0.00232102 0.00158135 0.00567591 
C 7.2899 42.718 47.8808 12.011 0.00563672 -0.00101514 -0.000203002 
C 14.7469 13.2225 39.6107 12.011 0.0042001 -0.00028994 -7.31022e-05 
C 1.14358 1.27698 28.5021 12.011 0.000197177 -0.000395424 0.00676583 
C 32.6063 36.4905 22.5428 12.011 0.00476623 -0.0040317 0.00474381 
C 8.93123 49.6689 13.3558 12.011 0.000841509 0.00216655 0.00537254 
C 43.956 39.9025 4.44041 12.011 0.00321919 -0.00451252 -0.00211889 
C 49.9222 40.9996 44.5016 12.011 0.00341936 0.00714999 -0.00559744 
C 43.4673 23.3989 2.54433 12.011 0.00559117 -0.00714248 0.00285606 
C 6.16241 23.0712 5.74063 12.011 0.00516955 0.000118203 -0.00857456 
C 36.9665 14.4921 21.8339 12.011 0.00171701 -0.00879671 0.0117865 
C 28.8905 21.9969 34.4241 12.011 -0.00349211 0.00346851 0.000253153 
C 10.9378 45.1218 21.8106 12.011 -0.00251135 -0.000844683 0.00639251 
C 17.0459 14.8835 32.9933 12.011 0.0010203 0.000442798 -0.00664815 
C 12.042 25.8386 40.1083 12.011 -0.002373 0.00235997 0.00577657 
C 23.0267 5.92088 27.6781 12.011 -0.0060707 -0.00035253 -0.00664397 
C 10.8204 38.1369 20.9401 12.011 0.00236077 0.00340455 -0.00342654 
C 32.3617 28.9073 9.21228 12.011 -0.000182158 0.0066875 -0.00371476 
C 3.92512 18.6657 11.1493 12.011 0.00666948 0.00547838 0.00107722 
C 6.21332 30.7302 30.1527 12.011 0.0049267 -0.000932906 0.00298862 
C 21.5338 20.751 3.86555 12.011 -0.00516953 -0.00429834 0.00423901 
C 32.631 31.1692 2.35621 12.011 0.00143177 0.00540837 0.00159967 
C 23.0404 22.3191 50.5093 12.011 0.00493257 -0.00427894 0.00572791 
C 10.2824 10.8466 26.1739 12.011 -0.00390459 0.00451109 0.0035778 
C 5.28714 24.584 21.15 12.011 -0.00472945 0.0037014 0.00474618 
C 6.68974 33.1313 16.7283 12.011 0.0028073 0.00150819 -0.000609563 
C 9.33668 34.4504 6.38042 12.011 -0.00150687 -0.0012911 -0.00146304 
C 27.5811 20.5524 44.7138 12.011 -0.00195203 0.00526834 0.00162473 
C 30.4096 2.181 45.5503 12.011 -0.00519038 -0.00561373 -0.00676076 
C 42.7496 18.5768 12.565 12.011 0.000388497 0.0095868 -0.005082 
C 34.1002 1.20812 39.2158 12.011 -0.00135356 0.00160108 0.00426146 
C 43.0064 15.0104 39.2044 12.011 -0.00646005 0.00197265 -0.000820487 
C 40.007 33.9366 50.7174 12.011 0.00402855 0.00123286 -0.00482627 
C 12.992 39.3113 37.2997 12.011 0.00253173 0.00469023 0.00509045 
C 9.40567 32.1255 35.6267 12.011 0.0021202 0.00200363 -0.00798776 
C 24.1206 11.5507 31.3834 12.011 0.00331309 0.00671868 -0.00327837 
C 46.3252 30.2857 24.5633 12.011 0.00214973 -0.000475287 0.00247186 
C 37.1358 48.8099 25.4206 12.011 0.00167965 0.00138435 0.000568686 
C 38.012 8.05575 19.2219 12.011 -0.00152003 -0.010006 -0.00455043 
C 11.9409 47.4762 14.3722 12.011 -0.00125645 -0.0012345 0.00626425 
C 37.9312 47.0139 34.7315 12.011 -0.001841 -0.00234161 0.00948268 
C 20.81 19.0978 8.59213 12.011 -0.00948717 -0.00213387 -0.000988406 
C 38.4262 0.960138 46.9847 12.011 -0.0116283 -0.00535905 -0.00366796 
C 2.20798 21.0177 1.07673 12.011 0.00229297 0.00118471 -0.00185016 
C 36.4565 3.47206 43.9618 12.011 0.00748348 0.000279565 0.00716929 
C 29.8903 16.6297 13.7724 12.011 0.00334578 0.00253456 -0.00260973 
C 15.0579 1.32829 40.5813 12.011 0.000866263 0.00961592 0.00406802 
C 42.2451 40.4207 36.7841 12.011 -0.00551478 -0.0093092 -0.00309346 
C 19.148 0.381777 1.39436 12.011 -0.00694655 -0.00114965 -0.00170957 
C 40.8129 31.701 3.73738 12.011 -0.00127724 -0.0029258 -0.00251751 
C 12.9924 47.4538 31.1489 12.011 0.00280759 0.00194718 1.10468e-05 
C 37.2752 46.3493 3.57492 12.011 0.00548061 -0.0014047 0.00761092 
C 9.68333 20.9029 32.3358 12.011 -0.00243284 0.00496728 0.00112528 
C 4.78641 0.887087 12.1302 12.011 0.00617813 0.00020929 0.00595225 
C 40.7677 22.3579 34.9891 12.011 -0.00570263 -0.00218831 0.0089563 
C 26.8734 27.2096 1.11777 12.011 0.00432161 -6.90766e-05 0.000696357 
C 47.0444 31.3462 9.29971 12.011 0.00718358 -0.00875508 0.00071471 
C 24.0157 41.1789 11.0935 12.011 0.00619824 -0.000393501 0.00048686 
C 1.50564 36.0646 0.24308 12.011 -0.00339276 -0.00339412 -0.00211076 
C 13.8541 46.1963 0.0413864 12.011 -0.00182848 -0.00550729 0.00347712 
C 44.8206 19.472 2.20109 12.011 0.00180591 -0.000622985 0.00221842 
C 47.3903 12.0285 18.2611 12.011 -0.00601879 -0.0025299 -0.00369917 
C 20.3402 46.0671 33.6088 12.011 -0.000634128 -0.011324 -0.00263813 
C 47.2059 23.5651 27.5883 12.011 0.00314527 -0.00114693 0.00111897 
C 12.1983 34.8285 9.24579 12.011 -0.00289176 0.00209256 -0.00582738 
C 32.5747 50.9705 43.338 12.011 -0.00308121 -0.00484681 -0.00393436 
C 45.6094 2.69682 44.8165 12.011 0.00271213 -0.000154218 -0.000694076 
C 14.3374 20.9151 10.8469 12.011 -0.00420586 0.00247437 0.00234836 
C 22.0217 43.2342 3.42322 12.011 -0.00468772 -0.00298754 -0.00354357 
C 6.777 16.8344 20.5384 12.011 -0.000618598 0.000949957 0.00766569 
C 26.8149 48.6907 42.1654 12.011 -0.00517012 0.0111784 -0.00250722 
C 20.7515 47.2352 20.8144 12.011 -0.00096198 0.013564 0.0029454 
C 23.4843 39.7851 28.826 12.011 -0.00417187 -0.000372058 0.00638595 
C 21.4549 5.26885 33.0307 12.011 0.00596303 -0.00297865 -0.00146293 
C 45.8316 28.0164 2.18719 12.011 -0.00207584 0.000741545 0.00311074 
C 15.3032 6.90582 6.68236 12.011 0.00182691 0.00109971 0.000610656 
C 5.55148 27.1293 29.8173 12.011 0.000440455 -0.00538598 -0.00457594 
C 48.7996 10.5997 45.4823 12.011 0.00107149 0.00476859 -0.00306848 
C 33.0984 18.7195 43.3132 12.011 -0.00527435 -0.00460918 0.0036926 
C 21.3588 27.8142 36.5524 12.011 -0.00336855 0.00130575 -0.00283741 
C 15.4992 13.244 34.2159 12.011 -0.00221316 -0.00301721 0.00295615 
C 43.3399 32.8767 3.93329 12.011 0.00011597 0.0039636 0.00438143 
C 21.7718 15.7587 0.877767 12.011 0.00466162 0.00450641 -0.00240197 
C 6.0808 19.3574 5.99745 12.011 0.00329322 0.00596804 -0.00226544 
C 32.5025 49.693 44.0689 12.011 0.000615939 0.00215892 -0.00127165 
C 19.2648 37.2094 2.70574 12.011 -0.000306869 0.00205699 -0.00183789 
C 39.6932 36.0643 34.5415 12.011 0.00495588 0.00492305 0.00435221 
C 21.5077 22.222 42.1934 12.011 -0.00534119 0.00791325 -0.00403228 
C 12.4469 3.67675 46.2255 12.011 -0.0104309 0.000269177 0.00264853 
C 41.4647 34.1305 38.7272 12.011 0.00598669 -0.000483376 -0.00236475 
C 35.152 19.6661 42.057 12.011 0.0033424 -0.00705581 -0.00310637 
C 39.426 33.1104 27.5812 12.011 0.0017202 0.00830692 0.00825909 
C 31.227 41.7889 1.63769 12.011 0.00671645 0.00105765 -0.00823876 
C 49.6177 39.315 7.56781 12.011 -0.00561203 -0.00409442 0.00165088 
C 23.3429 38.5632 50.5623 12.011 0.00171352 0.00548222 -0.00667842 
C 0.170613 0.689659 30.765 12.011 -0.00313508 0.0019445 0.00331498 
C 1.70931 21.0015 13.4318 12.011 -2.2873e-05 0.000622815 0.00496957 
C 41.4726 5.81975 43.6209 12.011 0.000613206 -8.38268e-05 0.0110069 
C 35.9061 48.3671 37.5911 12.011 0.000660159 0.00344602 -0.000608549 
C 39.256 39.5446 40.9679 12.011 0.00373744 -0.00093687 -0.000157688 
C 50.9701 30.5093 2.95372 12.011 0.00283088 0.00544186 0.00293947 
C 37.6191 19.2745 0.511673 12.011 -0.0048048 -0.00635488 -0.00484231 
C 21.5666 13.6659 40.6863 12.011 0.00468187 0.00281262 -0.00416758 
C 3.86984 21.2776 12.2162 12.011 -0.00558723 0.001917 -0.00426189 
C 21.2696 47.2263 27.9998 12.011 -0.0115143 0.00291177 0.00711144 
C 11.7368 24.7729 40.9271 12.011 -0.00233156 0.00328237 0.00865763 
C 9.64154 1.48271 11.0039 12.011 0.00291747 0.0041037 0.00448565 
C 10.4368 46.4079 27.8735 12.011 -0.00772469 -0.000966948 -0.000121454 
C 22.0908 30.0556 35.3177 12.011 -0.00513327 0.00172637 -0.00484674 
C 7.56457 4.47915 20.4581 12.011 -0.00262745 0.0037644 0.000322507 
C 10.9655 15.6354 31.2198 12.011 -0.00317663 -0.00818134 0.00756621 
C 15.7932 45.7172 35.7538 12.011 -0.00534802 -0.000589335 0.000577803 
C 9.87876 35.2368 28.9675 12.011 -0.00582091 0.00228407 -0.00104687 
C 46.0645 4.20922 17.8866 12.011 -0.000434802 0.00715741 0.00135355 
C 5.10215 8.11514 11.631 12.011 0.00372417 -0.00415378 0.0020538 
C 41.1591 28.7933 8.67862 12.011 0.0064369 0.00798273 -0.00062478 
C 42.1561 6.57541 10.3347 12.011 -0.00581097 0.00436688 -0.00774359 
C 17.8741 6.02934 11.7066 12.011 -0.00585466 -0.00804525 -0.00358716 
C 34.8359 21.8755 50.1927 12.011 0.00305253 0.000131213 -0.00222683 
C 18.194 14.4637 48.9627 12.011 -0.00209384 -0.00283561 0.000728266 
C 6.22745 50.1442 20.9129 12.011 0.00329222 -0.0125119 -0.00722621 
C 24.8035 40.4471 50.4687 12.011 -0.000167743 -0.000963646 -0.000107821 
C 39.803 49.3567 8.77031 12.011 0.00208974 -0.00776754 -0.00517769 
C 6.4652 14.1523 49.0554 12.011 -0.00104548 0.00416469 0.00203244 
C 44.1245 2.36717 50.4779 12.011 -0.000518866 -0.00231667 -0.00246271 
C 13.8118 42.4308 45.2583 12.011 -0.00430278 0.00142428 0.00364971 
C 37.4261 20.7805 38.736 12.011 -0.000637972 -0.00434991 0.00122204 
C 24.9271 35.0671 28.7268 12.011 -0.00233138 -0.00506468 0.0100792 
C 42.0128 17.3137 39.3367 12.011 0.00244153 -0.00263143 -0.00070429 
C 28.9305 16.5971 49.8518 12.011 -0.00159433 0.00211276 0.00471774 
C 36.1301 2.80333 42.7795 12.011 0.000319859 0.0101523 0.00318498 
C 12.1986 36.6462 16.4563 12.011 0.000608526 0.00172457 0.00160631 
C 17.3959 42.511 5.48979 12.011 0.00536925 0.00204222 0.00889806 
C 41.9508 13.0017 43.6558 12.011 -0.00193305 0.00357462 0.00167591 
C 39.9545 8.73326 7.73784 12.011 -0.00521437 0.00268898 0.00619513 
C 11.2126 45.0709 46.152 12.011 0.00451033 -0.00847458 0.00102696 
C 27.0539 47.7215 11.7638 12.011 -0.00360558 0.00396493 0.0022734 
C 18.034 20.3228 6.3717 12.011 0.00527379 0.00193527 0.00810772 
C 21.0736 6.63524 21.162 12.011 0.00401383 -0.00624285 0.00336297 
C 31.8648 43.7085 24.689 12.011 0.000709976 0.00396805 -0.000683518 
C 29.1671 26.3635 20.0905 12.011 -0.0075076 0.000244357 0.00254645 
C 29.2954 35.5053 45.8302 12.011 -0.000591684 -7.36483e-05 0.00764421 
C 14.1641 37.7533 29.2034 12.011 -3.57613e-05 0.00487259 0.00269568 
C 1.55044 12.0939 30.7768 12.011 0.00278477 0.00421852 0.00315246 
C 31.0014 32.657 8.89054 12.011 0.00107871 0.00694077 -0.000315245 
C 46.3343 2.98911 47.0375 12.011 0.00901495 0.00192854 -0.00631682 
C 30.5984 32.1284 46.2114 12.011 0.00301033 -0.00249555 0.00105236 
C 42.0249 15.8235 41.1886 12.011 0.000116257 -0.00229807 0.0112149 
C 38.3295 31.5247 0.977625 12.011 0.00193911 0.00156137 -0.00327308 
C 2.57032 32.3235 46.1489 12.011 0.00271247 -0.00583528 -0.000703807 
C 4.01421 8.21347 12.641 12.011 -0.000216769 0.0038023 0.000199047 
C 0.161998 43.9007 10.8087 12.011 -0.00147029 -0.000620721 0.00562771 
C 42.8388 50.9373 35.6441 12.011 -0.000159942 -0.000163732 -0.00243216 
C 12.9272 30.7523 13.88 12.011 0.00112082 -0.00279292 -0.00536177 
C 32.6167 15.8996 45.5474 12.011 -0.0074097 -0.00284053 0.00504401 
C 3.07338 25.3598 36.981 12.011 -0.00409563 0.00195491 0.00617616 
C 43.8612 48.9779 35.7372 12.011 0.007879 0.00141451 0.00156973 
C 8.06935 18.093 17.3486 12.011 0.000576733 -0.000974636 -0.00272054 
C 10.9644 1.51678 2.68756 12.011 -0.000652579 -0.000563615 0.00480308 
C 41.3496 50.1432 1.74526 12.011 0.00020638 -0.00286681 0.00260065 
C 41.329 8.55603 34.2441 12.011 0.000565834 -0.00317878 -9.75877e-05 
C 42.8092 13.3131 3.51167 12.011 0.00107929 0.00403661 -0.00233243 
C 5.41703 19.9673 39.6654 12.011 -0.000141642 -0.00444289 0.000767531 
C 35.7496 1.4608 42.8238 12.011 -0.00661084 -0.00143696 -0.000282966 
C 30.3781 41.2233 45.0925 12.011 0.000878105 -0.000596379 0.00215144 
C 50.9466 45.9893 34.6032 12.011 -0.00358577 0.0112093 -0.00897121 
C 20.8269 15.1451 49.2661 12.011 -0.00270692 0.0110746 -0.00345987 
C 10.969 5.70528 47.4619 12.011 0.00477823 -0.00274933 -0.00576832 
C 7.21058 42.3718 23.928 12.011 -0.00658857 0.000470378 -0.000770751 
C 25.7217 46.1845 21.5309 12.011 -0.00120649 -0.00142115 0.00696516 
C 26.3078 11.5454 38.5336 12.011 0.00805045 -0.0037688 0.00703805 
C 24.1483 38.5183 49.356 12.011 -0.00798075 -0.00420695 0.00926635 
C 39.2568 33.3112 36.9935 12.011 -0.00356612 0.01045 -0.00025186 
C 35.8687 27.6885 22.5014 12.011 0.00452946 -0.000265289 0.00326771 
C 12.2641 14.5123 27.0377 12.011 -0.00224698 -0.00204003 0.00304142 
C 7.38691 0.347585 3.24626 12.011 -0.00118136 -0.000347768 0.00404119 
C 36.7555 28.8051 22.2534 12.011 -0.00382142 0.00123069 0.00295206 
C 17.1265 19.8728 8.51507 12.011 0.00170774 -0.00169474 -0.00130054 
C 3.12355 36.6909 14.2895 12.011 -0.0012697 -0.00706017 -0.00743361 
C 11.4847 3.54115 7.80226 12.011 -0.000761119 0.00211122 0.00332049 
C 9.31061 35.8769 41.5338 12.011 -0.0015501 0.00372555 -0.00455768 
C 24.5025 25.4346 16.582 12.011 -0.000445735 0.00629099 0.00117217 
C 34.7053 30.6979 13.0499 12.011 -0.00378884 0.000351373 -0.00561685 
C 39.3589 17.5726 0.50142 12.011 0.00366175 0.00163314 -0.00207341 
C 45.264 47.3064 36.7536 12.011 -0.00194448 0.00199766 0.00214048 
C 2.16765 37.4738 30.1585 12.011 -0.00597657 -0.00439424 0.00923707 
C 14.556 38.4489 31.3706 12.011 -0.00611562 -0.00258346 0.00256771 
C 27.4269 36.7721 19.8958 12.011 -0.00674866 -0.0147444 -0.00545959 
C 16.3842 48.7569 26.222 12.011 -0.00378516 0.00489129 0.00141799 
C 9.43947 2.41752 37.9627 12.011 -0.00436438 -0.00281482 0.00318473 
C 2.12434 10.0505 35.5983 12.011 0.00196053 -0.000338676 0.0070193 
C 33.943 12.0962 2.11603 12.011 -0.00227148 -0.0016666 0.000748011 
C 7.05239 9.29915 43.5106 12.011 -0.000179802 0.00578877 -0.00344079 
C 10.104 13.4131 7.85192 12.011 0.0012272 0.0044664 0.00149926 
C 19.0494 27.2698 22.606 12.011 -0.0096798 0.000426586 -5.00399e-05 
C 18.6943 44.4226 4.50617 12.011 -0.014244 -0.00672668 -0.00222627 
C 42.0307 5.89924 17.8994 12.011 0.00355654 -0.00598201 0.000849158 
C 38.8801 23.0823 37.459 12.011 0.00391889 0.00223085 -0.00843296 
C 17.0638 13.7819 25.615 12.011 0.0032924 -0.00832124 0.000129373 
C 14.421 35.5102 13.6426 12.011 0.00169261 0.00283349 -0.00293141 
C 14.0135 25.6001 4.98467 12.011 -0.000867252 0.000160825 -0.00434577 
C 13.5601 20.0455 47.9163 12.011 -0.00032316 0.00163698 0.00748144 
C 37.5384 42.3715 0.540433 12.011 0.00059363 -0.0028304 0.00815127 
C 35.8907 50.9388 25.6837 12.011 0.00146068 -0.000568105 0.00308008 
C 30.847 24.0047 40.628 12.011 0.00385088 -0.0087006 0.00579257 
C 50.2824 44.8552 36.8516 12.011 -0.000685029 0.00112447 -0.0050885 
C 37.2127 20.2995 43.3725 12.011 0.00683768 0.00982185 0.00130654 
C 9.98557 48.6523 9.66428 12.011 0.00541331 0.00512956 0.000595968 
C 0.583924 4.40814 3.73902 12.011 -0.00121781 -0.000692546 -0.00121656 
C 30.9673 14.3413 9.76745 12.011 -0.00617624 -0.00488665 -0.00497497 
C 30.8233 1.40734 8.75518 12.011 -0.00146239 -0.00313356 0.000120655 
C 6.3358 15.6981 22.6539 12.011 0.00329563 0.00127657 0.00244801 
C 12.1093 7.83621 17.175 12.011 0.00403171 0.00196335 -0.00236646 
C 5.19403 49.7197 3.44242 12.011 0.00197752 -0.000716926 -0.0080226 
C 28.2808 20.7809 45.9435 12.011 0.00303473 0.000974428 -0.00153585 
C 34.8309 2.24948 24.596 12.011 -0.00623617 0.000878415 -0.00287065 
C 23.2763 34.3469 25.1011 12.011 -0.000653738 -0.00399721 -0.00109792 
C 39.177 1.89431 48.9714 12.011 0.0054293 0.00287877 -0.00923861 
C 29.8289 49.2778 2.09028 12.011 0.00374648 0.00410687 -0.00518229 
C 12.7481 33.0397 0.438511 12.011 0.00320869 -0.000234044 -0.00527545 
C 16.4589 40.3354 20.3132 12.011 -0.00404946 0.00854501 -0.0050857 
C 20.5278 50.8718 1.26192 12.011 0.00136083 0.0110618 0.00103859 
C 34.7242 7.16007 20.8982 12.011 -0.00631383 0.00451823 -0.00429345 
C 33.3988 50.2334 19.9412 12.011 -0.00698406 0.00267851 0.00342249 
C 40.4166 32.5178 37.2334 12.011 0.00336357 0.00435324 -0.000917671 
C 0.508309 23.0613 34.9378 12.011 0.0118218 0.00275457 0.00133094 
C 11.0314 25.8589 27.1062 12.011 -0.00166015 -0.00563107 -0.00193555 
C 0.995062 16.2139 28.3435 12.011 0.0012499 -0.00338761 0.00241919 
C 43.4787 18.1754 35.5434 12.011 0.00234163 0.00597047 0.00285312 
C 38.7203 14.985 14.5025 12.011 0.00492346 0.0100039 -0.000160773 
C 39.9536 42.0862 17.1684 12.011 -0.00175459 -0.00318633 0.00333953 
C 30.9683 30.3919 15.1315 12.011 0.00278907 0.00315962 0.00505156 
C 7.33394 21.1775 10.7861 12.011 0.00326635 -0.000516923 0.000549415 
C 16.8345 35.5554 12.1625 12.011 0.000216921 0.000577996 0.000227913 
C 5.66163 35.677 22.8647 12.011 -0.00028935 0.0024197 -0.000537236 
C 6.83918 45.1043 33.1291 12.011 0.00557006 0.00166693 0.00545329 
C 35.137 4.92776 39.3412 12.011 -0.00336687 0.000873192 -0.000379118 
C 25.8364 33.8262 21.5144 12.011 0.000788137 -0.00731281 0.00103606 
C 42.0237 49.5045 39.6848 12.011 0.000889191 0.00540982 0.00170858 
C 34.4108 5.25916 22.444 12.011 -0.00362954 -0.00074574 -0.00984079 
C 1.15118 0.668076 46.5481 12.011 0.00118631 0.000260621 0.000513994 
C 26.8698 15.7549 48.9661 12.011 0.00249035 0.0109566 -0.00416625 
C 44.1879 1.89153 15.5737 12.011 0.00559374 -0.000576501 0.000832224 
C 10.6286 8.1209 48.0233 12.011 0.00327967 0.00133118 -0.00305788 
C 18.1801 21.9992 23.6764 12.011 0.000940701 -0.00019856 0.00519468 
C 13.8572 12.3765 15.9327 12.011 -0.00485415 0.0048458 -0.000150476 
C 2.44605 16.1718 25.7211 12.011 0.00458438 0.000470292 -0.00377914 
C 4.46988 35.1995 20.5038 12.011 0.00109046 0.0125015 -0.00189872 
C 33.4086 30.1354 15.2081 12.011 0.00364249 0.00390604 -0.00208059 
C 44.9237 48.1205 35.6556 12.011 -0.00207933 -0.000272019 -0.00518875 
C 41.2922 39.3518 36.6503 12.011 -0.0018298 0.00549849 0.00389036 
C 1.03311 1.65352 3.50643 12.011 0.0102384 0.000175787 -0.0036652 
C 18.8265 46.0387 16.9648 12.011 -0.00660022 -0.00181252 -0.000420203 
C 44.1628 5.50398 21.3953 12.011 -0.00354565 -0.00890735 0.00534481 
C 43.5663 46.8136 14.8173 12.011 0.00327379 -0.00210282 -0.00279726 
C 39.0353 36.023 21.313 12.011 0.00214818 0.00570991 -0.0017878 
C 1.53193 18.8259 1.8844 12.011 0.00191976 0.00172657 -0.0135564 
C 42.2452 13.9165 8.52128 12.011 0.00584812 0.00334837 -0.00402041 
C 43.7821 21.6781 19.4865 12.011 0.00408745 0.000682542 0.00335085 
C 46.3514 8.52007 12.9419 12.011 0.00346397 -0.00258656 -0.00152803 
C 37.5593 1.37573 4.43542 12.011 0.00931879 -0.00433601 0.00288834 
C 30.1167 17.2903 24.8877 12.011 0.00337387 -0.0070184 0.00222402 
C 48.732 1.92538 30.1236 12.011 0.00365398 0.00934359 -0.00542352 
C 32.2668 12.1511 9.30872 12.011 0.00140901 0.0155467 0.00388236 
C 47.5102 0.107003 23.5867 12.011 0.00386923 -8.2697e-07 -0.00430027 
C 10.9979 21.7691 28.9527 12.011 -0.00325925 -3.55781e-05 -0.00268814 
C 45.4012 1.67979 32.7399 12.011 0.00856366 0.00216956 -0.0013749 
C 44.1004 6.131 31.6878 12.011 -0.00122808 0.000585705 0.00368711 
C 1.37172 34.942 9.80827 12.011 -0.00345237 0.0110139 -0.00330666 
C 14.0421 41.4231 36.6808 12.011 0.00231251 -0.000506564 0.00184524 
C 19.5517 15.8 3.21352 12.011 0.00619223 -0.0025128 -0.00414451 
C 1.20181 49.4682 47.4519 12.011 -0.00132857 -0.00314186 -0.00284284 
C 20.1546 32.1508 19.654 12.011 0.0143635 0.00066223 -0.00905267 
C 18.2617 30.5938 25.5426 12.011 -0.000464982 -0.00362008 0.00226935 
C 39.4298 49.5434 32.3845 12.011 -0.0055334 0.00158896 -0.000439128 
C 47.0452 14.0025 48.377 12.011 -0.00140642 0.0100081 0.00167958 
C 4.39891 2.58213 43.524 12.011 -0.00150766 0.00841795 -0.000586028 
C 21.067 3.30306 12.6251 12.011 0.00653686 -0.00493486 0.00263504 
C 36.2398 1.90626 22.6777 12.011 -0.002404 0.00484401 0.00194964 
C 13.6754 15.7366 45.0925 12.011 0.00596358 0.00148149 -0.00999568 
C 6.77041 35.5944 48.1506 12.011 0.000836021 0.00335448 0.00545332 
C 41.0032 36.9131 41.0905 12.011 0.00319992 0.00235731 -0.00433756 
C 42.7614 6.1892 2.44753 12.011 0.00136698 0.00553699 -0.00639548 
C 8.04764 9.56741 27.2911 12.011 0.0131274 -0.000116352 -0.00646309 
C 11.5313 32.3571 2.56313 12.011 0.00314024 0.00303107 0.000913614 
C 36.8931 22.3302 22.1328 12.011 -0.00442859 0.00281709 0.000144104 
C 3.29581 14.3751 10.3632 12.011 -0.000277277 -0.000735752 -0.00185199 
C 5.79616 25.3965 5.3096 12.011 -0.00351385 -0.00214014 -0.00466137 
C 3.87015 47.2663 19.0557 12.011 -0.00388379 -0.00231922 -0.00589445 
C 25.8185 32.858 20.513 12.011 0.00390837 -0.00624349 0.00584399 
C 41.7442 35.4939 36.5875 12.011 -0.00299337 -0.000388503 -0.00536381 
C 25.3329 38.5119 13.1111 12.011 -0.00730879 0.00216202 -2.03645e-05 
C 6.19156 21.6191 11.4257 12.011 -0.000938926 -0.00375591 -0.00303961 
C 31.8813 10.9611 8.54702 12.011 -0.00287205 -0.00501321 -0.00335389 
C 27.9252 4.27023 18.1038 12.011 -0.00925908 -0.00489561 -0.0027111 
C 48.5864 14.0876 32.7613 12.011 0.00686066 -0.000391414 -0.00257128 
C 45.6419 11.6148 16.5071 12.011 0.0128014 0.00350092 0.00466147 
C 26.9253 30.5591 12.0155 12.011 0.00583949 -0.00736229 -0.00384394 
C 22.372 6.18334 23.205 12.011 0.00116846 -0.00341069 -0.00630231 
C 2.88245 33.7249 45.918 12.011 0.00175991 0.00111761 0.000941311 
C 42.2764 1.36686 45.9945 12.011 0.0103054 -0.000226995 0.00203606 
C 31.3357 2.36244 39.0699 12.011 0.00100317 -0.00872488 -0.00499225 
C 23.6119 49.2175 8.23969 12.011 0.00327485 -0.00221373 0.00191202 
C 21.0518 47.3036 23.2097 12.011 0.00166484 -0.00174614 -0.00578665 
C 17.0628 25.7298 9.6433 12.011 0.0012663 0.00222941 0.00387545 
C 20.7398 49.0547 10.7225 12.011 0.000226962 -0.00321473 0.00101538 
C 40.3489 18.4073 25.3636 12.011 0.00582731 0.00142874 0.00246857 
C 2.69677 38.0623 43.799 12.011 -0.00852775 0.0032597 -0.00888661 
C 4.51444 42.4173 25.4485 12.011 0.00489583 -0.000887964 0.00308701 
C 4.56674 43.7766 27.3528 12.011 -0.00426565 0.00116541 -0.00100966 
C 11.014 34.8363 38.4227 12.011 0.00613067 0.000575061 -0.00324557 
C 9.17832 37.6107 14.1176 12.011 -0.00582803 0.00241965 -0.00245047 
C 26.0351 3.3826 2.33982 12.011 0.00266451 0.00447992 0.00201257 
C 6.02955 21.2488 37.3178 12.011 0.00509597 0.000826811 -0.00431192 
C 37.4632 23.4311 46.2968 12.011 -0.00464783 0.0084513 0.00335027 
C 5.22389 24.13 5.55814 12.011 0.00227199 -0.00596042 0.00367408 
C 0.857732 19.468 45.7016 12.011 -0.00508056 -0.000372687 -0.00218209 
C 11.8418 31.0661 8.62606 12.011 -0.00273636 0.00148944 0.00459428 
C 30.6628 39.9701 43.1434 12.011 -0.000636941 -0.00620684 -0.00263946 
C 10.1952 24.3135 29.8366 12.011 0.00186112 -0.000188941 0.00209805 
C 31.5058 40.3653 22.9429 12.011 0.00408734 -0.00352479 0.00236813 
C 10.4746 32.3449 48.6777 12.011 -0.00825151 0.0108572 -0.00803867 
C 3.65643 15.2811 34.9668 12.011 -0.00439097 0.00426556 -0.00142969 
C 3.28642 7.06821 21.2527 12.011 0.000608072 -0.00366393 -0.0111621 
C 12.9454 33.1679 14.1216 12.011 0.00956064 -0.00146532 -0.00416141 
C 37.9986 44.4631 26.4066 12.011 0.0008398 0.000562995 -0.00669196 
C 46.1617 35.9386 45.0126 12.011 8.38251e-05 0.00760754 -0.00505451 
C 9.16405 24.5663 22.7864 12.011 0.002138 0.0100068 -0.00406033 
C 36.1057 29.2603 48.1717 12.011 0.00364848 -0.00534151 -0.00254317 
C 27.237 46.6511 50.646 12.011 0.00954443 -0.00800215 0.00338896 
C 10.674 28.0978 15.3958 12.011 -0.00509923 -0.00447172 0.00453348 
C 42.3538 42.3684 16.7688 12.011 -0.000369139 -0.00513945 0.00527268 
C 49.2691 22.2866 35.8027 12.011 -0.00471968 -0.00297153 0.007903 
C 9.32545 24.3259 10.383 12.011 -0.00672148 -0.00332125 -0.00131859 
C 10.3883 9.22325 30.1398 12.011 -0.00119358 -0.00713164 0.00430712 
C 8.09132 2.5133 38.2852 12.011 -0.00458758 -0.000799433 0.000829783 
C 33.3829 48.4126 9.79709 12.011 -0.00243087 0.00363409 -0.00508047 
C 33.6477 35.246 10.9295 12.011 -0.00227272 0.00496223 0.00439992 
C 14.3103 13.2838 40.9755 12.011 0.00577361 -0.00280928 0.00467796 
C 12.4619 48.0303 0.718879 12.011 -0.000211835 -0.0029992 0.0127987 
C 0.910675 33.6405 23.0664 12.011 -0.00302836 5.5188e-05 0.00418761 
C 17.507 35.5798 3.29445 12.011 -0.00425897 0.000217993 -0.00150641 
C 4.74513 20.1085 20.4862 12.011 0.00693562 -0.000956734 -0.00211848 
C 20.7505 10.9238 15.1301 12.011 -0.0098798 -0.00255924 0.00110453 
C 14.5736 3.54054 3.78257 12.011 0.00621641 -0.00843429 -0.00452719 
C 47.7031 15.6902 43.1744 12.011 -0.000855899 0.000552466 0.00161295 
C 11.5069 23.7374 43.1284 12.011 0.0010393 0.000946265 -0.00592497 
C 23.6366 14.2544 46.2371 12.011 -0.00098232 -0.00484662 -0.000568511 
C 15.364 29.2515 50.7839 12.011 0.0014153 0.00594828 -0.0108178 
C 16.2097 43.0247 42.4039 12.011 0.000496467 -0.00213259 0.0031927 
C 6.39646 38.3317 16.6734 12.011 -0.00841826 0.000441454 0.0020514 
C 24.712 6.02038 23.5075 12.011 0.00539568 0.0032613 -0.00184047 
C 4.22054 31.893 0.466097 12.011 0.00243757 0.00296545 0.000375839 
C 2.64035 50.8231 12.584 12.011 -0.00343939 0.000233105 -0.0030978 
C 32.8517 17.9576 44.5056 12.011 -0.00397895 -0.00494902 -0.0062562 
C 42.6064 35.636 22.679 12.011 0.00315635 -0.000902587 0.00352387 
C 8.56718 11.7109 8.42501 12.011 0.00385212 0.00408874 0.00483046 
C 47.2379 10.3943 48.8051 12.011 -0.00143548 0.00525178 -0.000766177 
C 5.56692 11.78 11.185 12.011 0.00255676 -0.00400266 -0.0042701 
C 49.6612 15.9174 1.93055 12.011 -0.00515427 -0.00106864 -0.0116694 
C 46.3332 12.7953 35.9934 12.011 -0.00624835 -0.000314268 -0.0089034 
C 20.0402 12.0489 41.8964 12.011 -0.0020231 -0.00363896 -0.00687609 
C 17.9531 50.4213 3.32057 12.011 -0.00420078 -0.0036677 -0.00280885 
C 7.87677 26.9549 42.2057 12.011 -0.00687036 -0.00214176 -0.00161341 
C 29.0757 48.5329 35.0427 12.011 0.00197576 0.00229007 0.00245911 
C 17.0218 13.642 49.1642 12.011 0.004416 -0.00240507 0.0010613 
C 13.8254 38.326 34.8688 12.011 -0.000351033 0.00343398 -0.00470936 
C 17.5091 37.4538 38.3258 12.011 -0.00368546 0.0012275 0.00578577 
C 39.5589 40.704 43.1323 12.011 -0.000599477 0.00772895 0.00151663 
C 27.6244 3.40304 17.0519 12.011 3.19521e-06 -0.00142537 0.00379839 
C 23.9873 11.9484 16.6945 12.011 0.00134012 -0.0021586 -0.000822003 
C 19.2492 38.0946 36.1392 12.011 0.00293659 0.00295185 0.000126893 
C 43.0278 42.9984 13.0949 12.011 -0.00834666 0.00891715 0.000499271 
C 17.5159 44.9582 49.2728 12.011 -0.00810361 0.00250984 -0.00103329 
C 43.3127 2.49191 5.46158 12.011 0.00264643 0.00159745 0.000198769 
C 24.696 28.8859 14.6353 12.011 -0.00459405 0.00524609 0.00393104 
C 19.4973 20.3885 36.9853 12.011 0.00468251 -0.00175325 -0.00692593 
C 19.9043 14.2624 9.47381 12.011 -0.00295979 -0.00967099 0.0133072 
C 31.334 4.05965 2.5875 12.011 0.00506655 -0.00278418 0.00236637 
C 36.7232 8.36971 39.5097 12.011 -0.00703186 0.000991044 0.00668148 
C 41.5703 11.0855 2.36571 12.011 0.00459857 -0.00514898 0.00579209 
C 16.5636 9.95299 48.9 12.011 -0.0017036 -0.00202385 0.00594668 
C 40.49 45.122 16.3273 12.011 -0.00283966 0.00584609 0.000655644 
C 23.29 24.9057 29.3818 12.011 0.00312213 0.00394829 -0.00241836 
C 45.752 44.5055 7.81417 12.011 0.0117966 -0.00436131 -0.000394108 
C 6.35456 20.1327 1.57503 12.011 0.00291111 -0.00225216 -0.00286114 
C 4.21806 47.3894 3.40992 12.011 0.00252577 -0.0021142 -0.0013963 
C 40.4853 34.5877 39.6816 12.011 -0.0014073 0.00418766 -0.000375315 
C 27.128 28.0513 11.7683 12.011 0.000454896 -0.00439759 -0.00811808 
C 17.1927 47.5735 50.1793 12.011 0.0066627 -0.00329154 0.00600763 
C 15.7588 37.9594 26.8505 12.011 0.00169116 -0.00619698 8.14991e-05 
C 13.0677 43.8476 0.315364 12.011 0.0090774 -0.00261897 -0.000329923 
C 47.3062 30.4828 10.4533 12.011 0.00388631 -0.00562233 0.00289765 
C 16.414 12.669 16.097 12.011 -0.0115571 0.00620504 -0.00155261 
C 29.6799 1.2852 0.0360052 12.011 0.00428582 0.000323072 0.00389047 
C 43.3288 22.7933 38.738 12.011 -0.00308589 -0.00524411 0.000652057 
C 13.4529 15.85 6.85246 12.011 -0.00170239 -0.00148795 0.00441748 
C 50.2288 18.3161 1.86897 12.011 -0.00552612 0.00353687 0.00264065 
C 43.4237 10.4915 6.09857 12.011 0.00875203 -0.00316472 0.000121553 
C 36.0721 20.4851 5.90376 12.011 0.00189402 -0.00384362 0.00202877 
C 29.8742 17.1619 26.2774 12.011 0.000771656 -0.00600729 -0.00204664 
C 20.718 37.0556 27.3645 12.011 -0.0031379 -0.00229046 0.00602803 
C 28.0792 4.23567 38.8025 12.011 0.0090063 0.00697864 0.00306842 
C 30.31 24.3672 19.6444 12.011 -0.00225732 0.00816743 -0.000966019 
C 19.7681 18.5914 25.449 12.011 -0.00467603 0.00543434 0.00476581 
C 11.2406 48.102 9.66814 12.011 0.00666593 0.00139822 -0.0051936 
C 41.6941 38.7442 4.71036 12.011 -0.00238907 0.0050597 0.0038321 
C 20.1732 13.8063 20.8821 12.011 0.000172847 -0.00182436 -0.00401699 
C 14.4816 36.6162 49.0759 12.011 0.0024895 0.00633832 -0.00582652 
C 23.0722 9.38861 30.4921 12.011 0.00267395 -0.00290204 -0.00264671 
C 36.6645 6.29264 3.77694 12.011 -0.00624877 0.00409006 -0.00916642 
C 1.71234 10.1473 44.6513 12.011 -0.0014694 0.00128328 -0.00488347 
C 14.7355 7.3428 0.0704647 12.011 -0.00041087 0.00804154 -0.00229967 
C 20.8839 21.3417 50.814 12.011 -0.00171994 -0.000280976 -0.00465882 
C 25.893 16.7491 43.1828 12.011 -0.0111813 0.00108436 -0.00126453 
C 44.0057 0.767146 3.2726 12.011 0.00445323 -0.00117388 0.00692201 
C 24.2978 43.2571 15.5541 12.011 0.00355045 0.000846878 0.00329091 
C 41.7064 18.6413 10.2367 12.011 -0.00301402 -0.000545685 0.00131433 
C 26.11 35.0859 4.50303 12.011 -0.00120273 0.00374441 0.00361713 
C 27.1271 45.3434 23.8515 12.011 0.00180715 -0.00209426 0.00231033 
C 35.4774 47.9386 4.27848 12.011 0.000652153 0.00303936 -0.00112999 
C 23.2065 19.5977 8.64786 12.011 0.00366769 -0.000809591 -0.00207374 
C 15.2146 38.3341 45.2167 12.011 -0.00287851 -0.00746522 -0.0101156 
C 41.81 15.706 45.3817 12.011 -0.00203522 0.00421857 0.00233039 
C 14.9893 29.5924 2.1565 12.011 0.00402297 0.00163204 7.14467e-05 
C 6.29289 42.7356 3.54062 12.011 -0.00647173 -0.00396885 0.00666494 
C 49.9215 33.0124 21.2578 12.011 0.00100652 -0.00114495 0.000174978 
C 18.1678 41.4837 4.9789 12.011 0.00158924 0.00636587 0.00115224 
C 32.3234 12.6201 50.9005 12.011 0.00420823 -0.00131033 -0.00473372 
C 45.2315 13.2612 18.3757 12.011 0.00216187 0.002487 -0.00400862 
C 30.8521 34.5739 50.9529 12.011 0.00534121 -0.00108419 0.00394408 
C 5.3272 9.88196 39.5383 12.011 0.00409069 0.00716319 -0.00163261 
C 29.8372 24.4466 42.8376 12.011 -0.000949627 0.00493028 0.000429364 
C 4.78951 3.32389 22.6791 12.011 -0.00162392 0.00380371 -0.00979545 
C 28.3364 40.2529 3.40511 12.011 0.00129875 -0.00221687 -0.000670583 
C 26.0017 13.4454 42.8621 12.011 0.000547052 -0.00345821 0.00539414 
C 19.9779 41.9853 46.2363 12.011 -0.00118645 -0.00411053 0.000868889 
C 46.9765 47.6711 13.4387 12.011 -0.00132192 0.000672314 0.00281781 
C 21.9512 12.7079 13.6698 12.011 0.00141151 -0.00302438 0.00558141 
C 40.1101 36.5866 15.9518 12.011 0.00603011 0.0064641 0.00335047 
C 28.8552 36.2327 23.3178 12.011 0.0040813 -0.00654187 0.00167028 
C 12.8202 3.26485 7.25228 12.011 0.000396418 0.00175273 0.0029956 
C 26.2542 15.369 14.0458 12.011 -0.00549799 -0.00101701 -0.00992598 
C 0.948755 38.8913 7.87682 12.011 -0.00424426 -0.00525625 0.00149371 
C 24.6998 19.7563 14.6725 12.011 0.00242293 0.00185645 -0.00209042 
C 46.4966 46.7242 23.9748 12.011 -0.00881881 0.00205727 0.00420739 
C 14.7505 1.28599 1.66277 12.011 0.00188379 0.000509122 -0.00403079 
C 9.02031 8.03962 33.5611 12.011 -0.000502683 -0.00151976 -0.00752122 
C 3.25782 31.5215 17.1933 12.011 -0.00375166 -0.000841989 0.000880554 
C 35.5555 16.4714 41.2623 12.011 0.0127187 0.000616664 0.000470948 
C 45.9545 48.9015 49.4829 12.011 0.00330461 0.000796594 0.00751758 
C 37.698 44.2617 45.8372 12.011 0.00208704 -4.04122e-05 0.00483799 
C 50.178 28.0121 10.9714 12.011 -0.00337364 0.00616407 -0.00166868 
C 28.1672 43.7124 4.80018 12.011 -0.00412473 -0.00227632 0.000451738 
C 25.2689 21.1379 4.39428 12.011 0.00448985 -0.00473298 0.00059034 
C 49.4692 31.9515 9.62325 12.011 -0.00545312 0.00669631 0.00130663 
C 3.20115 47.4678 14.1785 12.011 -0.00173522 -0.00454177 0.000830348 
C 13.2716 31.7679 35.923 12.011 0.00202172 -0.00438979 -0.00240837 
C 32.2843 35.4757 24.7053 12.011 -0.00435272 0.000798477 0.00516432 
C 40.8101 32.1678 32.8801 12.011 0.00628902 -0.00566989 -0.00152441 
C 47.9179 30.9271 1.30162 12.011 0.0041709 0.000792906 0.0092991 
C 6.14702 20.3407 41.8141 12.011 -0.00145241 0.000903645 0.00233205 
C 0.669597 19.3906 25.7491 12.011 0.00236637 -0.00743751 0.0023297 
C 9.82153 32.5062 46.4382 12.011 0.000324317 -0.000313829 0.00357775 
C 47.2887 11.7582 49.2198 12.011 0.00227529 1.53462e-05 0.00252724 
C 44.3298 17.1537 2.4986 12.011 0.00494414 -9.95758e-05 0.000686289 
C 7.38126 19.8185 10.278 12.011 0.00115331 -0.00798447 -0.00515345 
C 1.04552 23.5305 5.58714 12.011 0.00392119 -0.00202753 -0.000923303 
C 43.4208 24.7678 11.1351 12.011 -0.00562163 0.00547938 -0.0035135 
C 49.6172 38.1073 46.7264 12.011 0.00745175 -0.00171265 0.0022058 
C 11.3945 34.387 15.6156 12.011 -0.00068308 0.00576501 -0.0030055 
C 14.7009 36.8357 7.189 12.011 0.0035538 -0.00166598 0.000854755 
C 13.8595 29.537 5.66196 12.011 -0.00882176 -0.00356138 0.00303414 
C 47.2461 20.0106 38.8511 12.011 0.00310851 -0.00677341 -0.00399923 
C 36.6369 42.2058 34.9723 12.011 0.00808029 0.00268623 0.00459699 
C 23.0342 2.95527 47.8136 12.011 0.00466851 0.00321312 0.00105823 
C 22.0584 42.5297 18.2352 12.011 0.0080147 0.00426747 0.00074877 
C 15.37 11.1826 10.7173 12.011 0.00551306 0.000185436 -0.000846416 
C 27.3947 33.115 12.025 12.011 0.0036684 0.000568099 -0.00124139 
C 0.464825 16.0048 47.1003 12.011 0.00498681 -0.00272132 0.00325004 
C 5.55066 35.2223 24.1806 12.011 0.00491092 0.00671445 -0.000961119 
C 36.6876 13.268 5.96081 12.011 0.00681142 0.00523391 -0.000162475 
C 30.2131 33.4761 46.5299 12.011 0.000812052 -0.00143569 0.00260786 
C 3.81892 38.8739 48.8466 12.011 -0.000484729 -0.000874339 -0.0056063 
C 4.03566 35.4597 10.2901 12.011 -0.00416459 -0.0044173 0.00867096 
C 49.3437 35.1065 6.81721 12.011 -0.00225218 -0.00292605 -0.00399859 
C 29.7215 15.7593 43.3612 12.011 -0.00164113 0.00606242 -0.00166727 
C 39.8322 31.693 19.8947 12.011 -0.000209445 -0.00441768 -0.000848496 
C 29.9585 7.01452 46.3588 12.011 0.00569042 -0.00463807 -7.81226e-05 
C 41.4888 4.43103 43.221 12.011 -0.00142771 0.00809526 -0.00039661 
C 12.1697 47.0301 22.6013 12.011 -0.00276974 0.00405498 0.00433294 
C 47.3686 3.93629 20.3952 12.011 -0.00475301 -0.00317347 0.00333969 
C 41.7754 49.6117 0.455389 12.011 0.00410034 -0.00484314 -0.00790741 
C 42.0149 4.7346 8.76502 12.011 0.00799334 0.00194657 0.000517404 
C 30.7599 47.2475 3.02539 12.011 0.000485415 -0.0151429 -0.00624816 
C 33.7504 34.0509 28.3958 12.011 0.00251934 0.00601288 -0.00188339 
C 44.1 20.8442 20.5944 12.011 0.00363351 0.00902285 0.00348333 
C 28.3593 1.18585 8.62316 12.011 0.00387048 -0.00486494 0.00044466 
C 35.2834 7.56545 46.3126 12.011 -0.00197823 0.000132142 -0.00428484 
C 8.41222 34.3233 7.23764 12.011 -0.00207801 0.00181909 -0.00137188 
C 38.8152 23.4553 16.5342 12.011 -0.000536 0.000438241 -0.00714334 
C 22.7827 45.316 45.4988 12.011 -0.0037653 -0.00712643 0.00891251 
C 44.5835 22.4894 38.06 12.011 0.00436899 -0.00186442 -0.000902179 
C 8.49903 5.60881 9.04636 12.011 -0.00828263 0.00674951 0.0012968 
C 41.4505 5.48044 9.82569 12.011 -0.00739582 0.00539355 0.00653563 
C 11.9347 20.208 12.7022 12.011 0.00410258 0.000542092 0.00106444 
C 22.7349 24.0646 4.41001 12.011 -0.00188386 0.00415152 0.00581964 
C 13.8226 26.5586 48.5866 12.011 0.0098139 -0.00220757 -0.00171462 
C 41.5654 33.6877 26.3193 12.011 -0.00329245 -0.00305485 -0.00188469 
C 15.5067 27.0315 11.2353 12.011 0.00217596 -0.00356565 -0.00133619 
C 6.76003 41.4373 3.92642 12.011 4.89038e-05 0.000177739 0.00368807 
C 11.9101 11.2387 44.7634 12.011 0.00628362 -0.000163463 -0.00799981 
C 44.7867 41.0074 35.1277 12.011 -0.00504636 -0.00569662 0.00673102 
C 35.3851 17.2964 36.1401 12.011 -0.00563338 -0.000165518 -0.00191967 
C 38.7671 49.8592 18.641 12.011 -0.0036787 -0.00346252 0.00132454 
C 3.07621 5.17227 22.8737 12.011 0.00294232 0.00236514 -0.00547249 
C 13.8777 13.602 15.1974 12.011 0.00180943 -0.0063161 0.00107946 
C 2.93727 4.61442 12.2507 12.011 -0.00660212 0.00538624 0.00239254 
C 11.1996 49.7949 17.902 12.011 -0.00629871 0.00223723 -0.00255712 
C 44.0708 9.34775 13.2776 12.011 -0.00285525 0.00179883 0.00533661 
C 10.5891 0.892698 19.4474 12.011 0.00467918 -0.00498537 -0.00532108 
C 50.9929 23.5002 50.6778 12.011 0.00152108 -0.0085069 -0.00144403 
C 3.03663 37.22 8.88575 12.011 0.00297848 -0.00266894 0.00558542 
C 24.0267 21.1336 20.5207 12.011 0.000414565 -0.0058187 0.00367608 
C 8.72582 29.1199 16.122 12.011 0.0022509 0.0092861 -0.000308826 
C 43.4545 41.6325 34.8936 12.011 -0.00669041 -0.00391241 -0.00600307 
C 45.7694 33.6135 45.4057 12.011 -0.00516194 0.00483465 0.00413337 
C 39.453 23.0053 34.9183 12.011 -0.000772584 0.00135296 0.00204486 
C 22.1691 4.57664 1.63082 12.011 -0.00104962 0.00188044 0.00501921 
C 15.7632 48.8424 12.9739 12.011 0.000966333 0.00113779 0.00600627 
C 45.6875 27.0165 45.1211 12.011 -0.00342083 -0.00285285 -0.0057155 
C 42.4349 13.9277 32.0207 12.011 -0.0021935 0.00121064 -0.00994488 
C 29.7648 11.2558 4.75414 12.011 -0.00333383 -0.0113595 0.00438293 
C 45.6383 45.2169 43.7892 12.011 0.00857773 -0.000786549 -0.00165273 
C 32.6901 33.6746 49.3843 12.011 -0.00648841 -0.00307144 0.000284196 
C 42.4432 50.3513 36.9779 12.011 -0.0026714 -0.00370781 -0.00137205 
C 45.8169 31.4342 31.4323 12.011 -0.00376295 0.00333093 0.00641448 
C 47.5236 34.2752 43.8015 12.011 0.00119099 -0.00888313 -0.0049217 
C 10.4583 37.9035 3.76518 12.011 0.00306025 0.00254063 -0.00159443 
C 0.739786 27.1254 15.2591 12.011 -0.000336609 0.00436111 -0.00218198 
C 28.533 44.628 9.50627 12.011 0.00141247 -0.000980597 -0.00267653 
C 4.49819 24.8117 48.4771 12.011 -0.00177138 -0.00469804 0.00296908 
C 47.6124 19.9078 19.5835 12.011 0.00118244 0.000496343 -0.00836871 
C 17.6281 43.641 48.7769 12.011 -0.004037 -0.000397034 -0.00766035 
C 27.6059 14.3854 41.274 12.011 0.000268009 -0.00194037 -0.000551479 
C 31.1777 10.6011 34.2155 12.011 0.00239074 -0.00625786 -0.0014325 
C 46.3028 43.9175 50.2549 12.011 -0.00596356 -0.00143981 -0.00798132 
C 41.96 48.4804 15.7382 12.011 0.00154706 -0.00130104 -0.00658811 
C 0.323835 21.1295 36.3595 12.011 0.0108459 0.00171137 -0.00270921 
C 10.8938 31.816 0.0994577 12.011 0.00390983 0.00260448 0.00648895 
C 6.17053 17.8439 9.5941 12.011 -0.00179961 0.00498924 -0.00202509 
C 8.05318 42.1727 22.8045 12.011 0.00317634 -0.00612571 -0.00339956 
C 31.6722 11.8993 48.5831 12.011 -0.00548605 -0.00371565 0.00851709 
C 48.8308 33.9273 25.9208 12.011 0.00282505 0.00306751 -0.000440374 
C 47.8883 31.7815 32.6445 12.011 0.00199473 0.00073169 -0.00905866 
C 41.2424 7.44395 25.8803 12.011 -0.00247934 0.00565402 -0.00719598 
C 27.6331 17.9597 29.1646 12.011 -0.000593104 0.00400974 0.00166952 
C 30.083 40.3803 23.1349 12.011 -0.00287449 -0.00240253 0.00123191 
C 37.0898 9.26578 11.9422 12.011 0.00492786 0.000226522 -0.00347989 
C 24.8493 37.9088 33.6277 12.011 -0.00391046 -0.00458413 -0.00138285 
C 49.9117 33.38 40.454 12.011 0.00185655 0.00897762 -0.00294785 
C 29.2808 11.3986 3.36406 12.011 0.00569072 -0.00327262 -0.00438645 
C 21.6667 32.2871 7.71203 12.011 -0.00443785 -0.00418137 -0.00457276 
C 18.416 1.75908 38.2104 12.011 0.00173043 0.011275 -0.00221127 
C 38.5857 38.6073 34.2428 12.011 -0.00363933 0.00192664 0.00067803 
C 39.7423 32.3408 48.7964 12.011 0.00312053 0.00474144 -0.00100135 
C 13.1312 0.151544 11.2404 12.011 0.00796654 0.00306139 0.00189002 
C 27.8237 49.4904 36.6794 12.011 -0.000883884 0.00198649 -0.00340454 
C 12.0389 37.5943 17.4921 12.011 -0.0023194 -0.00354998 0.00189484 
C 22.2413 42.0179 2.77436 12.011 -0.00491517 -0.00556714 0.00619555 
C 8.86621 37.4905 5.4946 12.011 0.00112044 -0.000142201 0.00188773 
C 45.2498 17.5427 41.8663 12.011 0.00214019 0.000370153 -0.00249765 
C 36.1136 33.7555 27.529 12.011 0.000707668 -0.00230503 -0.00136162 
C 40.2604 34.7931 34.6538 12.011 -0.00182376 0.00207207 0.00213964 
C 0.0619293 28.2177 14.8835 12.011 0.00425558 -0.00435171 0.00267454 
C 5.57307 47.7423 17.0879 12.011 0.000522012 0.00561778 0.00187099 
C 7.00689 44.9342 2.83606 12.011 0.00304434 0.000371933 -0.00282579 
C 46.0437 4.39966 20.3719 12.011 0.00455973 -0.000373272 -0.000935669 
C 34.7701 18.9115 45.699 12.011 -0.00776298 0.00242897 -0.0040694 
C 37.477 12.4856 20.3942 12.011 -0.00389576 0.00415334 -0.00866072 
C 22.7627 47.5305 14.1379 12.011 0.00142815 0.00487041 0.00357398 
C 3.25814 40.1508 48.7589 12.011 -0.00837671 0.00431219 0.00492216 
C 47.4611 5.03059 47.6708 12.011 0.00717431 0.00174656 -0.00649376 
C 32.952 38.1934 31.1832 12.011 -0.00520414 -0.00558706 0.00263164 
C 33.3284 2.25703 9.21181 12.011 -0.00391564 0.000161346 -0.000877854 
C 37.5626 36.7393 2.59681 12.011 -0.000788058 -0.00645512 -0.00393675 
C 34.1498 38.8142 40.6306 12.011 -0.00768117 -0.00525459 -0.00546999 
C 37.9946 37.5405 33.4958 12.011 -0.00585403 0.000212036 -0.00114083 
C 42.409 34.9773 23.8845 12.011 -0.00443667 -0.00643707 0.00624554 
C 48.7278 12.9384 44.7012 12.011 -0.00544382 0.0035039 -0.00564668 
C 37.6971 22.1381 45.7277 12.011 -0.00298913 0.00293088 -0.000188301 
C 19.1934 38.8921 37.3001 12.011 -0.00508115 0.00616167 0.00527436 
C 19.7915 0.586952 6.33443 12.011 -0.00358121 0.00450916 0.00986043 
C 41.4791 11.5348 8.2594 12.011 -0.0074075 0.00196352 -0.00240401 
C 50.2042 16.792 41.9127 12.011 -0.00135398 -0.000780176 0.00374691 
C 35.4525 14.7326 46.3175 12.011 -0.000716657 0.00960218 -0.00606148 
C 20.2158 36.7787 10.9158 12.011 0.0034903 -0.000253589 -0.00261951 
C 28.2599 13.563 1.99597 12.011 -0.00439136 0.00435627 0.000396683 
C 41.3238 15.7799 28.6014 12.011 -0.000482124 -0.000118014 0.00426297 
C 33.9402 39.8993 26.4035 12.011 -0.00814125 -0.00381067 0.00194194 
C 9.73144 30.9281 39.8783 12.011 0.00368964 -0.00057518 0.00474981 
C 49.1869 38.0942 20.1911 12.011 0.00204019 -0.00903476 -0.000929435 
C 38.3815 31.2109 42.5975 12.011 -0.00169786 -0.00424623 -0.00581175 
C 39.2627 32.5325 13.6987 12.011 -0.0057104 0.00365621 0.00435544 
C 3.72515 14.8201 36.3011 12.011 -0.000659389 -0.00953125 0.00335168 
C 20.7242 49.9532 0.0472537 12.011 0.00360667 0.00400897 -0.00520446 
C 45.2611 40.5418 36.3214 12.011 0.00229274 0.0047128 0.00613813 
C 49.2365 28.2805 45.0939 12.011 0.0016117 -0.00130697 -0.000512428 
C 10.8851 34.9794 33.7073 12.011 0.00124906 -0.00424625 0.00329394 
C 28.7091 17.8169 28.3176 12.011 -0.00240618 -0.00499726 -0.00210752 
C 9.2193 45.7321 28.0882 12.011 -0.00568758 0.00141855 0.00167193 
C 20.6285 5.74997 17.1546 12.011 -0.010252 -0.00208068 0.000969444 
C 17.7415 11.1221 17.6036 12.011 0.0069002 -0.00225956 -0.00491384 
C 18.9272 45.8543 4.17194 12.011 0.00260581 0.0045 0.00429476 
C 48.2016 26.1833 11.5456 12.011 0.000100538 0.000299829 -0.000229075 
C 13.7229 34.7843 50.5 12.011 0.00260852 0.0010631 -0.000270713 
C 7.137 31.637 30.9245 12.011 0.00120777 0.0104335 0.00122411 
C 41.9564 42.8818 21.7959 12.011 0.000344702 -0.00326861 0.0018677 
C 42.9539 32.4607 14.2407 12.011 0.00602202 -0.000518217 -0.00308013 
C 28.883 44.2059 10.857 12.011 0.00429082 -0.00313883 -0.0030836 
C 38.1166 44.2704 1.9742 12.011 -0.00692379 0.00947467 0.002435 
C 12.7977 40.1147 0.905442 12.011 0.00117753 -0.00769249 0.00529378 
C 17.1277 48.9115 50.6333 12.011 -3.36633e-05 -0.00460053 -0.00232631 
C 11.3831 3.1548 34.2089 12.011 -0.00522776 -0.00296482 0.00122712 
C 14.823 38.0667 49.3351 12.011 0.000360019 0.00615148 0.00286802 
C 39.9056 41.2208 49.4216 12.011 -0.0038563 -0.00299238 -0.00177897 
C 16.6669 1.3015 16.9888 12.011 0.000101646 0.00249044 -0.00137295 
C 11.6869 21.9569 8.56801 12.011 0.0147861 -0.00060952 0.00432677 
C 5.72522 20.2109 27.8911 12.011 0.00325852 0.00468002 0.00205133 
C 14.6679 33.4234 37.0308 12.011 0.00473859 -0.00827168 -0.0014443 
C 19.0836 19.6409 43.2329 12.011 0.00891511 0.00224194 0.000246309 
C 48.871 15.7929 23.4113 12.011 -0.00328742 -0.00506919 -0.00155533 
C 45.7755 28.6833 32.7648 12.011 0.00606695 0.00140353 -0.00152691 
C 13.881 25.9934 12.6447 12.011 -0.00333426 0.00900809 -0.00170483 
C 1.42688 1.12211 22.3561 12.011 0.00292335 -0.00116231 0.00484588 
C 10.8056 35.4326 29.9949 12.011 -0.00593389 0.00328933 0.00527206 
C 37.8271 16.0465 35.0976 12.011 0.000556842 0.00735704 0.00182241 
C 14.2332 12.1239 38.8885 12.011 -0.00323263 -0.00199537 -0.000266033 
C 18.7402 15.9927 13.4121 12.011 0.00495244 -0.00771108 0.0018928 
C 42.6969 21.9118 39.7059 12.011 0.00375963 -0.012177 0.00121292 
C 16.8501 16.1352 37.3893 12.011 -0.00545223 -0.00924161 0.0060833 
C 23.0693 26.4949 27.5589 12.011 0.0066705 -0.0035533 -0.000835265 
C 26.8771 18.9573 24.1377 12.011 0.00153479 0.00110827 -0.00933793 
C 16.1358 21.8347 0.682508 12.011 -0.00161517 -0.00170412 -0.0034942 
C 5.6147 0.348728 32.2978 12.011 0.00157599 -0.00161245 -0.00422671 
C 38.8026 29.5904 23.3289 12.011 -0.00813184 -0.00495993 -0.00165915 
C 38.7253 47.4166 9.43659 12.011 -0.00767967 -0.000456367 -0.0051882 
C 37.1561 47.8569 23.0871 12.011 0.000857533 0.0049321 0.00407166 
C 24.6031 27.1079 43.31 12.011 -0.00431656 -0.00060641 0.000168596 
C 0.745911 43.5505 26.745 12.011 -0.00535307 0.00759957 0.00274886 
C 18.6985 30.6225 38.2695 12.011 -0.0077247 0.000945196 -0.00491135 
C 46.8708 34.0955 0.852911 12.011 0.00412096 0.00183097 0.00309979 
C 45.3954 2.42948 46.0816 12.011 0.000763194 0.00444559 0.00608022 
C 13.5603 8.35785 23.3513 12.011 0.00378564 -0.000793052 -0.00282207 
C 4.52012 6.12012 46.9608 12.011 0.00532278 0.00641058 0.00152844 
C 41.7698 5.11829 40.9467 12.011 -0.000922472 -0.00813792 -0.00267469 
C 36.6522 16.3099 14.0307 12.011 -0.00451135 -0.002741 0.00744174 
C 13.8429 15.4666 1.24166 12.011 -0.00631255 -0.00505506 -0.00215006 
C 13.4168 35.5392 14.6475 12.011 0.000775385 0.00507859 -0.00733609 
C 35.938 38.8077 33.3405 12.011 -0.00924373 0.0145399 0.00135263 
C 32.0043 38.9463 27.553 12.011 -0.00102118 0.00661646 -0.0014004 
C 10.9237 19.523 30.665 12.011 -6.84679e-05 -0.00301645 -0.00111032 
C 11.6127 46.9081 23.8527 12.011 0.00456772 -0.00381573 0.00239129 
C 46.7117 14.3934 34.268 12.011 0.00434062 0.00258795 0.00867406 
C 26.1396 6.01909 23.3195 12.011 0.00200755 -0.00658564 -0.000939935 
C 36.4081 49.7562 26.2038 12.011 0.00256038 -0.00776304 -0.00221891 
C 9.6529 43.962 2.01248 12.011 -0.00825311 -0.001226 -0.00958021 
C 16.8015 18.8678 25.4055 12.011 0.00533551 -0.00163622 0.00214868 
C 20.695 19.6225 34.6163 12.011 -0.00013471 0.00734987 0.00174508 
C 43.4436 10.3828 7.67022 12.011 -0.00162148 -0.00297435 -0.00487464 
C 0.41456 28.221 25.164 12.011 0.000614291 0.0016591 -0.00387101 
C 16.4981 35.6676 37.0099 12.011 0.0012736 -0.00212995 0.0106287 
C 31.0289 25.4914 19.0502 12.011 0.00376439 -0.00521944 0.000492843 
C 20.8821 48.6302 38.9404 12.011 -0.000720477 -0.00310213 0.00711236 
C 10.7031 41.7692 16.2672 12.011 0.00132534 -0.000904965 -0.00240898 
C 40.8526 24.3096 8.42801 12.011 -0.00399612 0.000173732 0.00972895 
C 43.7419 16.9238 36.0631 12.011 0.00206558 -0.00112189 0.00179665 
C 46.9643 1.50124 0.164075 12.011 0.00094437 -0.0064282 -0.00293892 
C 25.2984 4.11169 32.0507 12.011 0.00830139 0.00496019 0.00309126 
C 35.4952 35.7303 22.7674 12.011 0.00126609 0.00256346 -0.0041049 
C 17.9679 8.20646 44.0831 12.011 -0.000271904 0.00646187 -0.000122201 
C 12.3573 36.7204 34.5872 12.011 -0.00089289 -0.00593435 -0.00672896 
C 43.5082 6.68554 9.72545 12.011 -0.00603958 0.0048613 -0.00127177 
C 40.8615 31.4725 20.8445 12.011 0.00617487 0.00230051 -0.00293303 
C 15.1328 14.1418 14.7588 12.011 0.00583437 0.00391545 -0.00594643 
C 28.8474 50.9251 14.1179 12.011 -0.00767392 -0.00498005 0.00581105 
C 18.4973 41.7924 20.2407 12.011 -0.00436679 -0.00904089 0.00202435 
C 47.7525 40.5734 47.6868 12.011 0.011893 -0.00165869 -0.00542335 
C 31.7668 15.0515 0.863985 12.011 -0.00372379 0.00266093 -0.00982437 
C 35.6 11.7578 12.0081 12.011 -0.00230702 0.00145954 0.00440509 
C 39.2553 0.0117919 47.7221 12.011 -0.00248254 -0.00938358 0.00432275 
C 22.5626 35.8833 47.3784 12.011 -0.00274328 -0.00258342 -0.00526162 
C 40.3837 26.3158 3.30272 12.011 0.00168853 -0.00283107 -0.00349469 
C 23.0311 40.404 1.24988 12.011 0.00324365 0.00320517 -0.0046637 
C 9.0719 4.72847 3.65591 12.011 -0.00171449 -0.00295414 -0.00737051 
C 42.103 42.563 15.3951 12.011 -0.00873289 -0.00675783 -0.00104747 
C 25.2872 4.05088 16.9868 12.011 0.00449345 -0.00352054 0.00105541 
C 23.5901 15.6217 38.0544 12.011 0.00609806 -0.00532076 0.000137599 
C 19.087 38.8638 19.5471 12.011 -0.00371106 0.00293354 0.00411923 
C 1.43546 21.0734 5.93752 12.011 -0.00224788 0.0027774 -0.00550667 
C 47.7332 44.0965 19.7911 12.011 -0.00179988 0.00299147 -0.00524763 
C 16.6378 37.8058 25.7351 12.011 -0.00328291 -0.0013372 0.00258244 
C 49.932 30.3568 15.5062 12.011 -0.00158558 -0.00716106 -0.00145875 
C 36.7307 23.6165 34.3775 12.011 0.00265421 -0.00269699 -0.00242178 
C 25.5875 3.41269 34.4467 12.011 -0.00141284 0.00310718 0.00193272 
C 39.8767 26.5445 8.13934 12.011 0.000441612 0.00363944 -0.00322283 
C 19.4684 39.0538 12.5368 12.011 -0.0039258 -0.0108535 0.00247989 
C 14.1214 33.1668 13.2432 12.011 -0.00152026 -0.000238578 -0.0112096 
C 32.9249 29.4499 44.8476 12.011 0.00217076 0.00353535 0.0102527 
C 32.8317 19.2447 3.50826 12.011 -0.00133681 0.00604121 -0.00543888 
C 20.5066 22.4657 22.765 12.011 0.00112691 0.0025266 0.00358013 
C 7.51485 48.395 15.4943 12.011 -0.00457207 0.00564033 -0.00572377 
C 16.9741 47.1903 14.296 12.011 -0.00208026 0.00237471 -0.00259551 
C 29.0384 49.8952 34.6867 12.011 0.000451326 0.0035745 -0.00142307 
C 44.955 23.4414 14.9599 12.011 0.00530918 -0.00756428 -0.00476753 
C 46.222 43.1073 18.1924 12.011 5.73745e-05 -8.76541e-05 0.00501909 
C 13.259 34.2999 0.729998 12.011 0.00742752 -0.00631268 0.000302466 
C 15.2832 13.0872 8.59327 12.011 -0.00040054 -0.00123303 -0.00412984 
C 39.2291 14.0495 35.2646 12.011 0.00695695 0.000452067 0.00480673 
C 32.9952 34.2385 33.9131 12.011 0.00398155 0.00294475 0.00194626 
C 42.7347 2.57992 26.9837 12.011 0.0030769 0.00863751 0.00297134 
C 36.6626 44.4193 2.19478 12.011 0.0049599 -0.00135575 -0.0016436 
C 36.2692 5.73892 47.5058 12.011 0.00122645 -0.00531365 0.00519296 
C 50.6788 31.5433 17.4654 12.011 0.00385586 0.000444728 0.00606847 
C 19.6155 41.955 18.063 12.011 0.00342351 0.00364833 -0.00259321 
C 1.66815 2.66974 40.3217 12.011 0.000775124 -0.00469819 0.00058402 
C 49.8268 6.1792 3.33251 12.011 0.00245616 0.000621358 0.00865715 
C 3.94784 21.3277 35.2129 12.011 0.00732313 -0.00744005 0.00373646 
C 44.578 7.47294 29.7988 12.011 -0.0112191 0.00345868 -0.00875899 
C 25.6931 4.19795 30.6804 12.011 -0.00101614 -0.00594255 0.00781567 
C 29.6274 43.3947 14.8552 12.011 -0.00571693 -0.00446808 -0.00574034 
C 1.85954 44.529 28.7485 12.011 -0.00747935 0.00657991 0.000624978 
C 47.5838 12.1762 50.6316 12.011 -0.00514778 0.000887232 0.00314262 
C 10.0665 22.7732 50.7984 12.011 0.00416487 -0.00447521 0.000857515 
C 8.84049 13.9927 8.20784 12.011 0.00211477 0.00312445 -0.00713461 
C 29.364 11.163 35.6609 12.011 0.00392086 0.00141195 -0.000361079 
C 42.8164 11.8469 30.8849 12.011 0.00179819 0.00500096 0.00133964 
C 29.1627 35.9815 14.2403 12.011 0.00196536 0.00306067 0.0011355 
C 43.4506 5.25632 23.7496 12.011 0.00396719 -0.00667943 0.00443244 
C 17.4157 49.5059 39.7273 12.011 -0.00139639 0.000653104 0.00165875 
C 45.4107 25.3739 34.4993 12.011 -0.00217975 -0.00376503 0.0131007 
C 22.4776 36.9425 9.24133 12.011 0.00824592 -0.00309501 -0.00872901 
C 4.64658 30.2926 42.1245 12.011 -0.00213522 -0.00131197 -0.00247477 
C 19.8307 30.8898 8.67832 12.011 0.0055212 -0.00233031 0.00530049 
C 11.5507 33.5624 9.34979 12.011 0.000751755 0.000417568 -0.000580064 
C 20.1698 23.7835 22.5096 12.011 -0.00616946 0.00600141 0.00375296 
C 16.7229 30.4064 46.9704 12.011 -0.00292042 -0.00407509 0.00267776 
C 41.1945 45.9646 9.4725 12.011 0.00192981 -0.00485723 0.00613473 
C 49.111 42.058 43.853 12.011 0.00570239 -0.00279267 0.00116167 
C 4.69768 19.1869 6.14163 12.011 0.00296437 -0.00231004 0.00282239 
C 38.8863 4.2385 31.1471 12.011 0.000104084 -0.000969296 0.00874343 
C 28.3767 19.4137 22.3702 12.011 -0.00254699 -0.0028276 -0.00503352 
C 40.9033 15.801 0.593397 12.011 8.9028e-06 -0.00727995 -0.00483251 
C 23.8598 19.7071 23.9184 12.011 0.00404462 -0.0054062 -0.00282695 
C 9.99522 2.46774 36.6133 12.011 -0.00174337 -0.00100553 0.00294012 
C 5.1644 36.0884 44.3483 12.011 -0.00349788 -0.00606039 0.00487928 
C 34.509 47 3.74978 12.011 0.00093486 -0.00179459 0.00254771 
C 17.4294 11.3093 12.6006 12.011 -0.00652691 -0.00303638 0.00361941 
C 7.13751 2.76483 47.6052 12.011 0.0020445 -0.00164971 0.00149028 
C 7.95025 1.56718 44.3283 12.011 0.00449991 -0.00313386 0.0105457 
C 21.2564 27.1276 33.2147 12.011 0.000332372 -0.002503 -0.00516585 
C 11.6064 28.2323 35.8936 12.011 -0.00262694 0.00208468 0.000580747 
C 16.2433 4.5144 39.1806 12.011 -0.00422531 0.0149244 0.000368604 
C 11.8129 44.3195 0.901181 12.011 -0.000841709 -0.00533723 0.00303217 
C 45.2051 17.6085 15.4457 12.011 5.36861e-05 -0.00705203 -0.00237545 
C 44.9543 40.0858 40.0278 12.011 -0.0042037 -0.000211258 0.00059043 
C 22.1279 24.9213 32.903 12.011 0.00340696 -0.00596038 0.00177501 
C 6.0617 41.5304 23.7997 12.011 -0.00208447 0.00872292 -0.00373634 
C 40.9217 11.417 14.0977 12.011 0.000478641 0.00596357 0.0026299 
C 2.78322 13.0319 42.8513 12.011 0.000259352 0.00339484 -0.00660189 
C 42.1182 22.7372 10.421 12.011 0.0091201 0.00824739 -0.00104351 
C 11.9238 25.4624 24.7792 12.011 0.00550363 -0.00551268 0.0113698 
C 47.2964 5.60134 50.1797 12.011 0.00345058 -0.000226653 -0.00275967 
C 42.1556 2.65944 7.5787 12.011 0.000229551 -0.00327187 0.00141165 
C 49.4741 32.3132 34.2838 12.011 0.000314662 0.00543088 -0.00311166 
C 50.6612 16.9486 1.97476 12.011 -7.55061e-06 0.00656105 0.00351887 
C 43.8417 14.8121 0.250548 12.011 -0.00142122 0.00178235 0.0105461 
C 47.447 47.8288 0.100921 12.011 -0.00748075 -0.000745239 -0.00283783 
C 31.7511 38.541 40.3912 12.011 -0.0129369 0.00387467 0.000416267 
C 35.3857 14.0318 12.7503 12.011 -0.00686597 0.00317779 0.00268307 
C 13.4514 2.92777 3.09594 12.011 0.00969779 0.00102777 0.00350022 
C 36.1307 7.62931 3.64904 12.011 0.00263564 0.00817854 -0.00111733 
C 30.0306 16.8401 15.1842 12.011 0.00578143 -0.0018084 -0.00153316 
C 25.8453 12.7908 40.6011 12.011 -4.77897e-05 0.00697787 0.00791043 
C 48.5115 38.1626 47.6321 12.011 -0.000615369 -0.0087554 0.000395391 
C 14.4516 39.4702 35.3767 12.011 -0.0016972 -0.000199915 0.00166901 
C 8.68611 30.0106 10.6921 12.011 -0.00183192 -0.00217144 0.000276248 
C 48.6952 40.5258 23.8913 12.011 -0.00788609 0.00514253 -0.00102982 
C 42.3677 2.66186 46.5466 12.011 -0.00152192 -0.00173229 0.00287081 
C 6.86235 39.65 18.7463 12.011 0.00233814 -0.00547847 0.0101162 
C 4.40678 25.2024 37.037 12.011 0.00292994 -0.00302268 -0.00308869 
C 39.3894 50.8926 3.72778 12.011 -0.00692729 0.00558396 0.00462221 
C 1.23273 25.856 35.6738 12.011 0.000711197 0.00162188 0.000913079 
C 26.9224 46.8782 16.6137 12.011 0.00360394 -0.00503255 -0.00847316 
C 5.23446 10.5477 11.8056 12.011 0.00120919 0.00430288 0.00033278 
C 39.835 28.6612 3.72451 12.011 0.00301287 -0.00739906 -0.00426218 
C 5.56701 19.3004 26.9051 12.011 -0.00837418 -0.00854104 0.00426552 
C 20.7404 6.80725 29.0163 12.011 0.000427675 0.00657471 -0.00535004 
C 29.7433 36.7952 1.26688 12.011 0.0118919 0.00474026 -0.000456589 
C 10.9803 38.931 13.1449 12.011 -0.0105025 0.00100256 0.00462673 
C 33.498 33.8343 30.9212 12.011 -0.00306662 -0.00584613 -0.00722794 
C 45.2126 31.1619 11.46 12.011 0.00751044 -0.00293984 0.00380457 
C 18.5931 45.9041 49.1507 12.011 -0.00585219 0.00103107 9.6212e-05 
C 33.3612 29.6955 16.5816 12.011 0.00497331 0.00616089 0.000714333 
C 29.9961 41.6804 2.37149 12.011 0.00318706 0.00312209 -0.00021865 
C 36.0345 19.1466 5.52981 12.011 -0.00786254 -0.00145871 0.00489345 
C 2.52273 18.3619 38.6104 12.011 0.00379822 0.000554885 0.000400403 
C 22.8807 15.7391 5.90643 12.011 -0.000539779 -0.00381033 0.000993972 
C 13.0787 49.2913 43.2241 12.011 -0.00154908 0.00485264 -0.00253402 
C 4.40225 50.7348 22.4241 12.011 0.00933673 -0.000860989 -0.0122494 
C 19.7375 41.914 33.0516 12.011 -0.00830249 -0.0026513 0.00570392 
C 43.3418 48.8822 46.0354 12.011 0.0020456 0.00379321 -0.00413147 
C 50.3662 36.1472 6.83329 12.011 -0.00338907 0.00232652 0.00258964 
C 23.7117 41.5054 22.8973 12.011 0.00164771 0.000644072 0.0053359 
C 25.8226 1.33057 42.236 12.011 0.00597939 0.00954279 0.00365847 
C 35.7186 9.29297 11.4839 12.011 -0.00444149 0.00553633 -0.00816295 
C 50.075 49.6924 12.8921 12.011 0.000816509 -0.0071822 0.00502309 
C 6.31356 35.3002 8.3811 12.011 -0.00360311 0.00924528 -0.00173023 
C 47.3249 39.5918 37.3193 12.011 -0.00313691 0.00695899 0.00129307 
C 49.9932 47.3286 13.3571 12.011 -0.000485346 -0.00568534 -0.0011976 
C 4.35379 32.4672 17.3997 12.011 0.00114819 -0.00164136 0.00706529 
C 26.5301 0.131776 41.9318 12.011 0.00691914 0.00908577 -0.00485063 
C 20.4281 15.1527 24.3893 12.011 -0.00328178 -0.0141702 0.0048986 
C 20.682 34.8785 24.2981 12.011 0.000771474 -0.00139877 -0.000426104 
C 46.7488 7.86742 26.6875 12.011 0.00350732 -0.00214299 -0.00452474 
C 20.9169 42.1481 15.9928 12.011 -0.00215175 0.00266445 -0.00316556 
C 23.7703 34.6434 39.0087 12.011 0.0067977 -0.0104629 -0.0042795 
C 26.2173 41.9833 49.4067 12.011 -0.00321257 0.00368099 -0.00697749 
C 16.1531 15.1507 0.108594 12.011 0.000226379 -0.00749784 -0.000369223 
C 19.2903 10.8603 41.8312 12.011 0.00256911 0.00239958 0.00374035 
C 19.6538 50.5938 8.65979 12.011 -0.0051081 -0.000632392 0.00248369 
C 3.45094 45.1163 8.43263 12.011 0.000900634 -0.00523375 -0.0039434 
C 34.5552 35.4363 23.7997 12.011 -0.00293732 -0.00257954 -0.00109588 
C 31.1458 27.1307 7.89538 12.011 0.00135462 -0.00118689 0.00586601 
C 41.504 22.0467 45.8063 12.011 -0.000135974 -0.00229634 0.0024167 
C 39.2766 36.5112 13.6752 12.011 0.00881659 -0.0129304 6.83626e-05 
C 37.2188 16.1189 47.9429 12.011 0.0025831 0.00171824 -0.00366913 
C 7.44996 44.5867 34.3472 12.011 -0.00023839 -0.016572 0.00337838 
C 22.4385 23.6301 33.3201 12.011 0.00390197 0.00502987 -0.00367821 
C 32.8723 0.265369 39.3575 12.011 0.00491353 0.0065306 0.0022943 
C 22.8841 35.7383 27.2731 12.011 0.00577479 0.00377054 0.00324948 
C 24.665 37.9106 47.1517 12.011 0.00668754 -0.00710636 -0.00570584 
C 24.9598 20.6067 15.7521 12.011 0.00471459 0.00118387 -0.000319435 
C 2.99957 11.4082 47.0122 12.011 0.000907227 -0.00016892 0.00118496 
C 17.3738 41.2022 19.5734 12.011 0.000281847 -0.00366429 -0.00140568 
C 14.1546 27.1181 47.3768 12.011 0.00175715 -0.00547949 -0.00053023 
C 18.4025 31.2662 43.1498 12.011 -0.000513526 0.0017089 0.0028532 
C 35.4346 45.9598 37.4431 12.011 -0.000631819 -0.00561476 0.00759514 
C 33.5515 30.0971 10.9995 12.011 0.00135147 0.0070546 -0.00625261 
C 29.2915 22.8017 29.9102 12.011 0.00187856 -0.00443528 0.00157431 
C 29.2346 3.79835 27.4821 12.011 0.00212037 0.00029801 0.000665464 
C 37.852 32.6897 30.8615 12.011 -0.000227453 0.00255099 -0.00147217 
C 36.0688 25.63 19.5159 12.011 -0.00268135 -0.00790499 -0.000450192 
C 50.8401 37.6833 18.0801 12.011 0.00226378 0.00556428 -0.00144416 
C 7.40067 1.46431 33.8078 12.011 -0.00103656 0.00290158 -0.00454231 
C 5.52509 32.23 16.7273 12.011 0.00467478 -0.00255912 -0.00333697 
C 22.6035 29.949 6.37271 12.011 0.0025191 0.00718737 -0.00360433 
C 30.2392 7.29171 21.0705 12.011 -0.00316458 -0.00242967 -0.00780086 
C 12.8453 45.9671 20.5349 12.011 -0.00191697 -0.000746585 -0.000945842 
C 0.458298 46.4093 32.2562 12.011 -0.00113055 0.00107222 0.00372191 
C 49.35 0.391823 34.0147 12.011 0.00505263 -0.00630808 -0.00899404 
C 5.13565 40.1082 22.0064 12.011 -0.00197477 0.00598707 3.54366e-05 
C 0.550276 40.2491 0.201008 12.011 -0.00370097 -0.0073551 0.00207457 
C 48.5466 34.1067 32.9273 12.011 0.00925584 0.00367379 -0.0116959 
C 20.8608 44.204 46.7624 12.011 -0.00694495 0.00394496 0.00480494 
C 32.7528 0.768644 4.0528 12.011 0.00077435 0.00412693 -0.000336516 
C 24.0694 6.03753 42.361 12.011 -0.00492892 -0.00644715 -0.000680363 
C 7.15334 25.676 5.30868 12.011 0.00436397 -0.00209153 -0.000610115 
C 18.1147 15.6124 30.3491 12.011 0.00145157 0.00177145 0.0028579 
C 0.299174 36.415 46.1169 12.011 0.00817892 0.00136116 -0.00139223 
C 15.0228 27.7707 44.7919 12.011 -0.00348357 -0.00544654 -0.00199509 
C 8.80667 6.5631 48.0897 12.011 0.00163973 0.00668116 -0.00209559 
C 41.0486 24.8247 46.0589 12.011 -0.00023767 0.00413801 0.000281165 
C 1.73485 18.2222 12.158 12.011 0.000142063 -0.00955387 0.0034413 
C 36.0365 25.2229 47.0568 12.011 0.00480836 0.00490868 -0.00091983 
C 17.5011 31.9795 49.2933 12.011 -0.00634639 -0.011131 -0.00812387 
C 22.8144 48.3612 11.8351 12.011 0.00314587 -0.000477871 0.00357523 
C 19.0164 36.6679 23.9161 12.011 -0.00393437 -0.00485066 -0.00209484 
C 44.168 12.8928 5.71377 12.011 -0.000203919 7.40874e-05 -0.00246868 
C 44.5606 18.3793 46.939 12.011 0.0065964 0.00139699 -0.00401766 
C 41.2328 18.2269 41.4686 12.011 0.00215464 0.0102634 0.00495956 
C 28.594 35.1645 25.482 12.011 0.00459521 0.0104397 0.0024503 
C 31.332 2.22832 19.5781 12.011 0.00203343 -0.00719551 0.00489292 
C 49.1111 22.6476 26.3974 12.011 0.00441484 0.00125702 -0.000894282 
C 35.5977 45.5604 21.8693 12.011 0.00655096 -0.00282016 0.00252404 
C 49.4276 3.08793 21.2145 12.011 -0.00529387 0.00269506 -0.00241269 
C 14.8402 37.8658 14.2162 12.011 0.000749317 -0.000386664 -0.000116676 
C 40.6427 47.2206 31.3992 12.011 2.08248e-05 -0.00280035 0.00098996 
C 17.5518 41.3795 40.9059 12.011 -0.00156965 0.000343543 0.00460928 
C 11.9388 5.41131 18.0722 12.011 -0.0019492 -0.00358124 -0.00101923 
C 42.4053 5.97197 36.7368 12.011 0.00483879 0.00473064 -0.00462554 
C 49.7687 2.93661 28.1072 12.011 0.00243302 0.000226324 0.00683813 
C 6.68703 5.35426 47.8804 12.011 0.00230065 0.00196286 0.0028061 
C 50.5219 42.4695 6.8357 12.011 -0.00156355 0.00691679 -0.000228431 
C 3.01681 33.6508 19.0279 12.011 0.000216319 0.00600914 -0.00343321 
C 41.5476 1.7071 42.3536 12.011 0.00688065 0.00726912 0.00197023 
C 19.738 46.5787 39.4627 12.011 -0.00158795 0.00182358 0.000514684 
C 30.1643 6.57669 2.35736 12.011 0.000957834 0.00149842 -0.00934521 
C 36.8652 4.16954 4.9158 12.011 -0.00302253 -0.00437675 -0.00742962 
C 46.491 17.2113 17.3507 12.011 -0.0058781 0.00185367 0.000506566 
C 35.9287 44.3866 27.8012 12.011 0.000299496 0.0074407 -0.00485906 
C 39.9533 24.0989 32.6302 12.011 0.00116489 0.00260088 -2.33165e-05 
C 12.7795 28.9005 7.98776 12.011 -0.00214966 0.00234832 -0.00705734 
C 16.8972 38.9949 13.6241 12.011 -0.00505835 -0.00152287 -0.00162585 
C 39.2855 27.3128 3.39379 12.011 0.00511497 -0.00133713 0.00731331 
C 4.52921 21.6357 0.864799 12.011 -0.00318911 -0.00208511 -0.00341789 
C 2.328 44.8461 10.6759 12.011 -0.00276431 0.000233492 -0.00296819 
C 16.2926 12.2121 10.6079 12.011 0.0055169 -0.0008919 -0.00111363 
C 42.3806 47.1524 29.0667 12.011 0.00293377 0.00526486 -0.00777229 
C 28.8242 22.8464 41.4354 12.011 -0.000418551 0.000775709 0.00370114 
C 43.1382 20.763 34.4684 12.011 0.0110165 -6.59079e-05 0.000368733 
C 2.28103 11.0346 3.47873 12.011 -0.00226789 -0.000857566 -0.00641997 
C 23.8378 39.5884 36.9029 12.011 0.00168797 0.000827563 0.00345932 
C 44.3516 31.1537 10.2873 12.011 0.00509191 0.00589359 -0.00355873 
C 22.1113 26.2019 39.9477 12.011 0.00532799 0.0045541 -0.00679881 
C 35.2206 7.61458 48.6943 12.011 0.00782446 -0.00566495 -0.00187779 
C 25.7652 39.7055 6.78682 12.011 0.00139073 0.00148401 0.00745465 
C 48.5294 20.005 1.50936 12.011 0.00271304 -0.00135831 0.00663898 
C 38.6098 27.1666 8.19342 12.011 -0.00404506 0.00391966 -0.00158584 
C 12.7546 23.13 19.2889 12.011 -0.00241192 -0.0060654 0.00800337 
C 39.1693 31.0341 41.4456 12.011 0.0020305 0.000796232 0.00531686 
C 9.6984 3.29533 9.42056 12.011 0.00617865 -0.00944665 0.00162361 
C 32.3759 16.0436 1.70234 12.011 0.00533895 -0.00509227 -0.015047 
C 24.8988 5.47251 25.9468 12.011 0.00497452 -0.000463504 -0.00270217 
C 50.7763 19.3179 26.7585 12.011 0.00310889 0.00471176 -0.0054706 
C 1.98946 38.3271 50.4443 12.011 0.00947835 0.00654338 -0.00318785 
C 50.8365 11.1423 32.3987 12.011 -0.00503814 -0.00934361 0.0013729 
C 19.7441 47.7873 23.7627 12.011 0.00153036 0.00596216 -0.000156334 
C 25.1537 45.7345 25.2202 12.011 -0.00390603 0.0084703 0.000354942 
C 43.2111 18.8269 46.5837 12.011 -0.00342459 -0.0059689 0.000764233 
C 21.5033 26.8048 37.6009 12.011 -0.00104145 -0.00123094 -0.00283223 
C 27.7419 21.0631 1.57028 12.011 -0.00379599 0.00056974 -0.000385878 
C 41.833 1.15742 16.1068 12.011 -0.00310708 0.00157967 -0.00449946 
C 4.70571 49.5589 13.1525 12.011 0.00301292 0.00107335 -0.00567691 
C 33.4187 15.745 2.71863 12.011 -0.00707801 0.00505503 -0.00132287 
C 43.3959 5.41712 17.8493 12.011 -0.00467092 0.0101118 0.00148539 
C 13.5831 31.4988 43.1384 12.011 -0.00312121 -0.00220279 0.0030794 
C 14.1834 23.2477 0.856138 12.011 0.00178566 -0.00272618 -0.00261508 
C 48.8532 28.4333 24.9669 12.011 0.000912181 0.00144877 0.0027959 
C 4.69539 25.9444 39.4752 12.011 0.00457147 0.00578578 0.000620667 
C 49.454 25.4113 44.8452 12.011 -0.00257538 -0.000133063 -0.00302022 
C 21.2779 15.0145 17.5365 12.011 -0.000711011 0.00687539 0.00593421 
C 10.7833 30.4205 43.6536 12.011 -0.00305135 -0.000312836 -0.000528136 
C 46.3764 9.08584 26.2761 12.011 0.0031529 0.00163035 0.000375154 
C 12.4953 49.3921 7.64032 12.011 -0.00436255 -0.000687392 -0.00363191 
C 5.73677 26.2842 40.352 12.011 0.000579244 0.00565498 -0.00825883 
C 42.1479 27.3331 28.4585 12.011 -0.0109907 -0.00872724 -0.00399813 
C 34.9226 5.58183 34.633 12.011 0.00252649 -0.00633985 -0.0094311 
C 40.9008 19.6569 37.8647 12.011 -0.00743636 -8.4045e-05 0.000520544 
C 42.0462 34.8539 37.7434 12.011 0.00808784 0.00472481 0.00194859 
C 6.80551 3.60531 21.2448 12.011 -0.00576984 0.00718557 0.0033145 
C 27.9436 47.8765 50.2432 12.011 0.00310839 -0.00532785 5.50904e-05 
C 28.4607 14.6198 38.4945 12.011 0.00560519 -0.00441586 -0.0023861 
C 41.0082 20.145 13.9531 12.011 -0.00100483 -0.00872183 -0.00557267 
C 47.3539 0.750031 37.0569 12.011 -0.000190587 0.00472004 -0.0109134 
C 30.7211 2.00496 29.2483 12.011 -0.003967 0.00119605 -0.00417403 
C 25.7153 18.9943 40.3008 12.011 -0.00858653 0.00710171 -0.00384327 
C 24.1088 14.3278 34.5605 12.011 0.000953914 -0.00544607 -0.0041461 
C 5.58464 13.2901 25.4935 12.011 0.00364579 -0.00192972 -0.00132233 
C 22.7721 31.6156 16.374 12.011 0.00057212 -0.00033796 0.00241801 
C 34.4914 10.9389 30.4726 12.011 0.00386581 -0.00283044 0.005168 
C 21.2095 25.9489 35.0494 12.011 0.00640377 -0.00227611 -0.000741067 
C 10.4695 33.4138 10.2838 12.011 -0.00291677 -0.00406388 0.00223819 
C 44.7485 27.4502 27.195 12.011 -0.00532546 0.000121912 0.00098214 
C 24.9069 13.891 15.4973 12.011 -0.000309163 -0.0149658 0.00564235 
C 6.59961 35.0082 26.41 12.011 -0.00492644 -0.00707453 -0.00440631 
C 18.8924 48.3383 25.9972 12.011 0.00111211 0.00053361 0.00313344 
C 45.0555 21.7294 32.8337 12.011 -0.000860997 -0.0053069 -0.00561407 
C 42.4191 9.49298 31.9997 12.011 -0.00331978 -0.00229487 0.00678778 
C 0.551721 4.38876 43.9437 12.011 -0.00184662 0.00454186 -0.00480538 
C 37.1151 17.5203 30.7339 12.011 -0.00297234 0.00191549 0.00414304 
C 34.8313 27.1115 48.0005 12.011 -0.00672156 -0.00225837 -0.00462525 
C 19.5782 26.0819 7.8326 12.011 0.00027463 -0.00385548 -0.00140232 
C 7.32653 30.3951 10.8804 12.011 -0.00166768 -0.00516319 0.000126311 
C 19.4958 45.218 39.4202 12.011 -0.00220189 -0.00851803 -0.00148332 
C 19.354 17.7555 33.8412 12.011 0.00562229 0.0119126 0.00334236 
C 15.6764 38.9942 14.2624 12.011 -0.00327731 -0.00628843 0.00344642 
C 17.6505 46.6241 19.0876 12.011 -0.00486914 -0.00455664 -0.00236063 
C 50.7032 35.0883 37.1732 12.011 -0.000913778 0.00643616 -0.00567063 
C 41.1779 49.861 50.2482 12.011 -0.0080355 -0.000354811 -0.00364317 
C 3.41596 36.5538 49.7019 12.011 -0.000703376 0.00614941 0.000665181 
C 12.5213 15.716 27.6809 12.011 -0.00291128 0.000546061 0.0106595 
C 0.265383 7.31424 23.6979 12.011 0.00336609 -0.00368278 0.00256207 
C 11.1382 31.9785 15.3 12.011 0.00367806 0.00661186 -0.00203684 
C 34.7228 34.0729 27.3394 12.011 -0.00167814 -0.000525243 -0.000965323 
C 28.8594 15.5289 9.76979 12.011 0.000623948 0.00865979 -0.0108049 
C 25.7743 3.00518 6.49638 12.011 -0.00064903 -0.00117957 0.0126278 
C 31.4261 29.4603 6.88363 12.011 -0.00170942 -0.00280816 0.00247919 
C 26.8628 26.7868 46.4172 12.011 0.00272079 0.00686222 0.00415079 
C 26.3145 23.9834 12.6124 12.011 0.00213405 -0.00098893 0.00502975 
C 7.32887 22.5584 35.9135 12.011 0.000867048 -0.00723123 -0.00438171 
C 25.2811 4.4374 38.072 12.011 0.00241051 -0.00440369 -0.00371588 
C 17.5691 48.4941 25.4119 12.011 -0.0024908 6.21788e-05 0.00105647 
C 8.46659 35.76 12.7711 12.011 -0.00236846 -0.000683925 -0.0012808 
C 23.2028 15.6291 4.49247 12.011 -0.00139833 0.00297096 0.00211101 
C 50.0369 27.4403 47.4887 12.011 0.00328624 -0.000558944 0.00157632 
C 34.3175 41.2322 20.3573 12.011 0.0042233 0.00298915 0.00148291 
C 40.9578 32.8478 38.5597 12.011 -0.00252928 0.010427 0.00721302 
C 35.7599 16.4728 4.78541 12.011 -0.00972655 0.00374894 -0.000832853 
C 24.0313 4.6504 32.4097 12.011 0.00137712 0.00636343 0.00446587 
C 42.8976 8.64375 40.1253 12.011 -0.0125562 0.00800848 0.00919804 
C 42.7498 0.269033 27.7753 12.011 0.00113902 -0.00761014 0.00526418 
C 5.06572 5.4506 21.4211 12.011 0.00882777 -0.00263329 -0.00508396 
C 12.681 10.1736 16.5185 12.011 -0.00884009 0.00470502 0.00234205 
C 23.0314 28.8607 5.64112 12.011 0.00375188 0.00429555 -0.00139542 
C 23.1019 34.752 7.50701 12.011 0.00323835 -0.00550767 0.00131824 
C 35.0911 39.5722 41.4078 12.011 -0.00212623 0.00109531 0.00319207 
C 27.3174 18.2345 45.4376 12.011 -0.0063025 0.00859645 -0.00138156 
C 1.05713 26.0689 47.4319 12.011 0.00144231 0.00552365 -0.00832178 
C 41.7272 2.70765 38.6613 12.011 -0.00415626 -0.00107519 -0.0040538 
C 2.19735 29.4743 3.34858 12.011 -0.00242054 -0.00167172 0.00190844 
C 24.8571 24.9416 47.1173 12.011 -0.0060165 -0.00639019 -0.00669989 
C 24.1545 16.9456 18.8223 12.011 -0.00477933 0.00072594 0.0075429 
C 29.1779 10.1877 2.63228 12.011 0.00546552 -0.000691952 -0.0015417 
C 2.79244 41.0506 40.1408 12.011 0.0108987 -0.00361069 0.00222461 
C 19.5329 9.87298 35.6796 12.011 0.00112816 -0.00846465 -0.00082581 
C 18.794 37.6913 21.6988 12.011 -0.0010328 0.000737019 0.00193977 
C 24.5856 32.2447 22.9522 12.011 -0.00348457 0.00306904 -0.00563991 
C 18.0166 8.3545 39.2628 12.011 0.00295374 -0.00363533 -0.00637326 
C 15.7412 6.11487 4.10648 12.011 0.00702613 0.00151711 -0.00120709 
C 4.1033 45.979 7.78916 12.011 -0.00370493 0.00807226 -0.000949341 
C 16.6943 7.83971 13.295 12.011 0.000698177 0.00580417 -0.00466418 
C 11.5905 29.4077 32.324 12.011 -0.0061093 -0.00070852 -0.0011499 
C 1.36305 9.89407 31.2668 12.011 0.00553808 0.00450856 -0.00303821 
C 39.3799 27.139 39.8607 12.011 -0.00143465 -0.00335848 0.00396497 
C 32.1644 9.65886 33.7284 12.011 -0.00419502 -0.00136866 -0.000144513 
C 10.2273 9.46244 17.0252 12.011 -0.00553487 0.00331795 0.00219253 
C 26.7893 43.4734 40.6007 12.011 0.00338186 0.00131438 0.00191551 
C 21.7998 38.8415 35.7745 12.011 -0.000623633 0.00117087 0.0105932 
C 47.7128 39.2202 48.0569 12.011 -0.0078125 -0.00764053 0.00227697 
C 21.7206 4.9448 16.594 12.011 0.00520978 0.00812166 0.009968 
C 41.4845 0.758238 40.2304 12.011 -0.000248768 -0.00266382 -0.00766123 
C 40.387 12.3394 50.0219 12.011 -0.00637611 -0.00174011 -0.00385327 
C 4.33048 39.155 19.8208 12.011 -0.00353599 -0.00129492 -0.00419004 
C 41.3861 46.0181 31.0515 12.011 -0.00188238 0.00748829 0.000832334 
C 22.0046 34.6191 8.43507 12.011 -0.00350359 -0.00213899 0.00293892 
C 34.6451 3.64984 39.4749 12.011 0.000904376 0.00186771 -0.00363701 
C 32.1781 28.3995 0.0400608 12.011 0.00178302 -0.00652714 0.00125778 
C 25.264 20.9363 10.5729 12.011 0.00619466 0.000956073 0.00313349 
C 24.753 45.1784 43.3786 12.011 0.00252095 -0.00565001 -4.11922e-05 
C 19.7806 17.3341 11.697 12.011 -0.00351284 -0.00907764 0.00199426 
C 25.0735 41.3195 22.6442 12.011 -0.00292649 0.00270182 0.000519747 
C 33.2333 0.939362 28.2789 12.011 0.00098488 0.00409959 -0.00491253 
C 48.6108 11.6596 19.0122 12.011 -0.000394973 -0.00032906 1.84751e-05 
C 8.22309 40.3641 18.5283 12.011 0.00757315 0.0123242 0.0022763 
C 23.9264 18.0245 16.2948 12.011 -0.00102118 0.00162307 -0.00598194 
C 34.1223 30.2354 44.8733 12.011 0.00883923 -0.00568223 0.0021134 
C 5.98382 15.3255 48.481 12.011 -0.00822097 -0.00038248 -0.00268694 
C 0.684227 17.3601 17.9011 12.011 -0.00180289 0.00316103 0.00327602 
C 12.6029 46.6374 0.493325 12.011 -0.00601181 -0.00856936 0.00428473 
C 35.7163 43.1058 14.5354 12.011 0.00775775 0.00741468 -0.0026221 
C 19.2911 5.46548 4.63012 12.011 -0.00171859 0.00342185 -0.00244723 
C 27.7429 46.7323 17.8174 12.011 -0.00516315 -0.00685084 -0.00660163 
C 31.4862 23.542 5.65449 12.011 -0.0023543 -0.00381979 0.00282364 
C 42.2126 23.9262 31.684 12.011 0.00200014 0.00397317 -0.0067762 
C 44.6029 18.8822 22.5846 12.011 0.00263433 0.000572216 0.000713392 
C 9.66952 18.3221 15.0258 12.011 0.004543 -0.00296641 0.00509601 
C 33.5705 46.1875 20.6909 12.011 0.00192202 -0.00602349 -0.00299411 
C 4.85321 21.3617 19.7165 12.011 -0.00451381 0.00915473 -0.00731286 
C 39.5796 11.3594 25.6993 12.011 -0.00507023 -0.000110075 0.00139984 
C 16.5796 35.5634 34.5791 12.011 0.000709107 -0.00126643 0.00192077 
C 24.2091 34.4408 33.7423 12.011 -0.00150195 0.00322715 -0.00317793 
C 7.90577 42.0687 37.9184 12.011 0.000829179 0.0139186 -0.00761112 
C 28.3975 34.5273 27.8053 12.011 0.00166668 0.00021539 -0.00583913 
C 17.468 6.24214 40.3625 12.011 0.00636512 0.00868473 -0.00127331 
C 45.22 43.0344 29.4463 12.011 0.00367904 0.00964965 -0.00342699 
C 42.9762 37.3315 8.55801 12.011 0.00653181 0.00414029 -0.00197724 
C 40.6146 16.0635 15.6595 12.011 0.00386015 -0.00441982 0.0112387 
C 31.5268 4.90602 3.65832 12.011 -0.0010985 -0.00223706 -0.0081724 
C 46.957 44.1988 4.69532 12.011 0.00084704 -0.0026773 -0.00180824 
C 23.2092 12.314 33.441 12.011 0.00219566 -0.00201438 0.00246883 
C 4.2823 34.2168 25.9721 12.011 -0.00344688 -0.00947708 -0.000756727 
C 26.3168 5.38054 25.732 12.011 -0.00622939 0.000175581 -0.00421677 
C 47.4688 31.6753 15.6687 12.011 0.00643651 -0.00572987 0.000916173 
C 18.0125 5.77822 4.19241 12.011 -0.00372626 0.0105556 0.00380636 
C 26.5611 41.6805 38.8202 12.011 0.0101624 0.00342096 0.00127876 
C 27.3032 25.665 11.1889 12.011 0.00530157 0.0104002 0.00433003 
C 13.6263 37.714 30.5361 12.011 -0.00461796 0.0051195 0.00327483 
C 28.6266 22.4758 36.8607 12.011 0.00698446 -0.00358654 -0.00450782 
C 36.7932 42.2157 44.1928 12.011 0.00263406 7.3086e-06 0.000296504 
C 41.2869 24.1717 2.99688 12.011 0.000329945 0.000624419 0.00557427 
C 10.1293 23.8563 39.0936 12.011 0.0033903 -0.00933796 -0.001095 
C 35.7957 42.4518 21.9538 12.011 -0.00527411 0.00165201 -0.0017911 
C 18.549 15.1344 50.1717 12.011 0.00265771 0.00750025 -0.00688649 
C 7.21152 28.0546 34.4137 12.011 0.00257269 0.00433915 0.0075751 
C 9.45196 28.6632 4.47702 12.011 -0.000118573 0.00184493 0.00448373 
C 13.3134 41.3883 46.0415 12.011 -0.00303646 0.000270277 -0.00082698 
C 28.27 41.1431 46.3639 12.011 0.00282361 0.00112704 -0.00342633 
C 12.8283 45.9747 44.6379 12.011 -0.0015283 -0.00640532 -0.00509449 
C 14.8411 47.1327 50.737 12.011 0.00510114 0.0011357 -0.00255629 
C 42.0398 7.006 24.8033 12.011 0.000299205 0.00310551 -0.00449199 
C 17.0045 4.94098 40.2752 12.011 -0.00114391 0.00379821 -0.00375441 
C 23.7286 9.6874 42.3108 12.011 0.000116487 -0.0067139 -0.00200892 
C 45.957 47.9205 24.6682 12.011 -0.00341127 -0.00436098 0.00232588 
C 27.3263 22.0454 30.866 12.011 0.00104233 0.00182395 -0.00408976 
C 6.42207 11.8019 3.40763 12.011 0.00149509 -0.00122066 -0.0085631 
C 43.0438 23.1206 17.0993 12.011 0.00435654 -0.000193215 0.00024947 
C 7.96677 41.4594 47.76 12.011 0.00491771 -0.00345513 -0.000977536 
C 5.68519 13.7363 18.0062 12.011 0.00380804 0.00370752 -0.00428258 
C 10.5805 28.2479 45.041 12.011 0.00188436 -0.000516418 0.00114916 
C 13.51 30.1539 39.9964 12.011 0.00511732 0.00147876 -0.00155281 
C 46.6121 39.7143 5.13292 12.011 0.00347061 0.000891805 0.00264519 
C 43.2618 31.6434 21.6603 12.011 -0.000606361 0.00355534 -0.004846 
C 45.6246 31.6297 13.715 12.011 -0.000335373 0.00172288 -0.000546211 
C 47.9432 3.69 0.559516 12.011 0.00227879 0.00144436 0.000953367 
C 0.293192 7.74426 45.1611 12.011 0.0046855 0.00430527 -0.00336052 
C 19.0568 35.0961 31.3315 12.011 -0.00458069 -0.00312406 0.0100344 
C 18.0391 48.4651 29.5251 12.011 0.00180799 0.0113042 -0.0137136 
C 18.0977 48.3293 31.7638 12.011 0.00118486 -0.00422459 4.63871e-05 
C 4.25645 21.567 5.72738 12.011 0.000769371 -0.00677833 -0.00768899 
C 24.0059 20.28 31.7389 12.011 0.00168355 0.00610318 0.00331518 
C 3.02102 2.88397 24.3293 12.011 -0.0078792 -0.00119348 -0.00377684 
C 35.2333 29.7386 44.1141 12.011 0.000950233 -0.00154052 -0.000662765 
C 30.7938 23.4476 26.611 12.011 0.0024833 0.00273302 -0.00254118 
C 11.1261 3.40181 46.6935 12.011 -0.0022796 0.00132852 -0.00547647 
C 43.5042 11.7677 5.37301 12.011 -0.00285524 -0.00453123 0.00519038 
C 12.0832 41.3864 46.6782 12.011 0.00711544 -0.000309494 -0.00522125 
C 44.8315 46.6698 14.3008 12.011 -0.00978242 -0.000851054 0.00473181 
C 12.541 23.3331 50.2855 12.011 -0.000273356 0.00343503 -0.00359751 
C 32.1972 30.3329 14.4412 12.011 -0.0114134 -0.00769802 0.00494952 
C 3.72768 15.1339 18.3146 12.011 -0.00140983 0.00886601 -0.0049788 
C 35.7898 7.69948 43.8972 12.011 0.000965486 0.00205905 0.00111546 
C 39.4795 47.5045 47.6342 12.011 -0.00490755 0.00134194 0.00342356 
C 40.5546 42.962 13.5308 12.011 0.00406577 0.00323351 -0.000269189 
C 21.2853 19.9308 24.4548 12.011 -0.00468425 4.31711e-05 -0.00419845 
C 37.2498 42.2192 16.1965 12.011 -0.00549995 0.00533389 -0.00302971 
C 44.3903 47.2003 37.8829 12.011 -0.00474628 0.00456363 0.000190388 
C 42.7603 34.3159 2.02889 12.011 0.000935398 0.0102244 -0.00694638 
C 27.9827 36.6022 22.2552 12.011 -0.000104165 -0.00368017 -0.0129967 
C 49.4915 43.1378 7.54504 12.011 0.0064599 0.000204372 0.00499159 
C 24.984 36.8921 42.4352 12.011 0.00756743 -0.00483953 0.0101328 
C 3.34081 34.7273 22.5146 12.011 0.00188328 0.00268319 -0.00123586 
C 17.1981 28.3018 9.95317 12.011 -0.00145298 0.00194344 -0.00109097 
C 18.3432 16.7005 34.0236 12.011 0.000900869 -0.00110726 -0.00578042 
C 8.53112 19.3582 9.531 12.011 -0.0108492 0.00169212 0.00417905 
C 16.396 13.7967 15.3176 12.011 -0.00475898 -0.00534353 0.00288629 
C 3.998 9.2767 15.0431 12.011 0.0110965 0.00640804 0.00632279 
C 44.7102 31.9318 21.4065 12.011 -0.00110323 -0.00320559 -0.00232072 
C 30.1179 15.8088 35.1693 12.011 0.00128871 0.00103559 0.00523602 
C 35.9976 34.9548 2.46278 12.011 -0.00158039 0.00280966 -0.00299083 
C 17.5147 48.1945 33.0594 12.011 0.00233496 0.00354788 0.000516398 
C 29.0689 49.1471 48.4762 12.011 0.00189033 -0.00122207 0.00467927 
C 32.4109 9.69686 8.88286 12.011 -0.00436444 -0.000507425 0.0028814 
C 44.3741 29.2678 25.7932 12.011 -0.000460885 0.00887232 0.0022401 
C 15.1118 1.97728 8.002 12.011 0.00379716 0.00735881 -0.00386407 
C 48.5519 36.7618 48.2913 12.011 0.00383148 0.00197791 -0.00775332 
C 31.5555 27.3416 44.3418 12.011 0.000286211 0.00236285 0.00531851 
C 7.69311 34.3122 28.4786 12.011 -0.00546049 0.000900411 0.00345183 
C 14.0836 23.4186 6.24488 12.011 -0.00677732 0.00190728 0.00302822 
C 17.652 6.89987 23.8264 12.011 -0.00746308 0.00831034 -0.000447482 
C 30.326 20.4903 50.816 12.011 0.00285009 0.00100793 0.000260613 
C 46.0715 32.6221 30.6847 12.011 -0.00055186 -0.00593561 -0.0101252 
C 25.194 43.2693 16.6635 12.011 0.0034477 -0.000956655 0.00682675 
C 8.79489 31.3809 34.5929 12.011 -0.00105936 -0.00260928 -0.0106066 
C 20.7937 11.5757 37.0051 12.011 -0.00271995 0.00107121 4.84379e-05 
C 45.2229 0.235311 49.8021 12.011 -0.00114996 0.0023541 -0.000189161 
C 7.85964 18.0892 2.43177 12.011 0.000898936 0.00305892 -0.00184722 
C 16.2918 4.76421 44.8362 12.011 0.000676213 -0.00482688 -0.00565977 
C 5.52017 46.9091 3.16962 12.011 0.00488339 0.00509722 -0.000790166 
C 38.3074 31.9183 50.6707 12.011 0.00517739 -0.00230675 0.00422102 
C 4.49957 18.0742 24.7014 12.011 -0.000238905 -0.00369062 -0.00614281 
C 10.5951 2.0513 46.4457 12.011 -0.00453063 -0.000990842 -0.00116674 
C 49.2774 9.28395 45.3891 12.011 -0.00274732 -0.000669908 -0.000455406 
C 21.7252 29.4985 17.7335 12.011 -0.00922124 -0.00173527 0.000811641 
C 38.0779 9.95073 38.011 12.011 -0.00146582 0.00560402 -0.0031172 
C 37.0635 8.13582 5.84507 12.011 0.00098699 -0.00161511 -0.00378335 
C 37.8836 37.2832 47.5593 12.011 -0.000148331 0.00380757 -0.00644695 
C 28.8896 22.9073 22.0441 12.011 -0.00360701 0.00112164 0.00232152 
C 9.33789 41.474 47.5026 12.011 0.00707609 0.002711 -0.00634731 
C 31.5662 47.4946 31.8556 12.011 0.000657197 -0.00357574 0.0023891 
C 23.1478 6.46955 45.0984 12.011 0.00268772 -0.00916095 0.00777051 
C 30.4852 14.7662 19.1632 12.011 -0.00633297 0.00447957 -0.00334845 
C 46.623 13.2955 20.4944 12.011 0.000782179 0.00714038 0.0131293 
C 0.094771 28.5921 41.646 12.011 0.0049161 0.00158308 -0.00534013 
C 27.8867 1.58297 33.5129 12.011 0.000180687 -0.00458678 0.0039567 
C 25.3413 33.5824 22.8183 12.011 -0.00677979 0.00431676 0.0052136 
C 0.979149 31.0707 17.2686 12.011 -0.0040197 0.00196085 -0.00521045 
C 36.6419 36.3849 20.7812 12.011 -0.008636 -0.00389363 -0.000904392 
C 21.0329 15.5216 16.2086 12.011 0.000179583 -0.00527962 3.6916e-06 
C 12.0347 37.08 37.8255 12.011 -0.00382729 0.00297306 0.000755597 
C 21.3279 33.6438 23.942 12.011 -0.00412489 -0.00157134 -0.00376028 
C 14.9631 48.2353 24.5271 12.011 -0.000658838 -0.00158802 -0.0043304 
C 27.9203 22.4878 5.58369 12.011 0.00146891 0.00328923 -0.00185589 
C 29.6491 44.3826 46.8313 12.011 -0.00906041 0.00368498 0.00652572 
C 14.0333 24.7704 11.9899 12.011 0.00565066 -0.000297532 0.000990813 
C 41.3871 42.4069 50.9647 12.011 0.00200265 0.00132057 -0.00390289 
C 38.3731 20.1314 6.88866 12.011 -0.00703046 0.00133876 0.00598468 
C 5.64429 30.2501 41.1047 12.011 0.00301543 -0.0052675 -0.00247434 
C 14.0491 6.21287 2.00612 12.011 -0.00268255 -0.0032907 -0.00291635 
C 36.0835 24.7633 40.2508 12.011 0.00292471 -0.00178661 -0.0034946 
C 13.7508 43.9749 36.0009 12.011 -0.00340818 -0.0084084 -0.00765373 
C 45.317 25.6541 1.97991 12.011 0.0106743 -0.00198524 -0.00773964 
C 2.23262 12.4544 33.1477 12.011 0.00170485 -0.00174424 0.00418243 
C 44.3701 27.4817 45.4064 12.011 0.00392655 0.00348384 -0.00367608 
C 15.4624 13.1694 29.3094 12.011 0.00358051 -0.00597088 -0.00424996 
C 13.1352 35.1414 8.27071 12.011 -0.00838248 -0.000452868 -0.000791628 
C 4.67545 11.6564 27.0236 12.011 0.0008084 0.00362211 -4.17578e-05 
C 35.8697 50.3595 44.0912 12.011 -0.00651395 -0.00412666 0.00719003 
C 30.3814 47.0636 10.686 12.011 -0.00196167 0.007689 -0.0017983 
C 27.9624 38.9651 43.3938 12.011 -0.0099928 -0.00438624 -0.00757157 
C 50.1275 16.9509 29.464 12.011 0.00432264 -0.00675446 -0.011627 
C 11.9326 36.2248 29.6892 12.011 0.00162276 -0.00880425 0.00493072 
C 49.0278 49.9513 1.94959 12.011 -0.000427821 0.000837925 0.000184236 
C 50.1863 36.7839 46.734 12.011 0.00771486 -0.00264907 -0.00272082 
C 16.9788 36.9913 39.5449 12.011 0.00513638 4.87821e-05 0.0013973 
C 30.7134 42.3028 37.7729 12.011 -0.00429309 0.000357743 0.00307573 
C 15.7769 21.6559 50.3919 12.011 -0.00439506 -0.00357443 -0.00637402 
C 14.6484 35.5877 45.5422 12.011 0.00197342 -0.00212433 -0.00217001 
C 8.81025 30.8246 1.35682 12.011 0.00847553 0.002931 -0.00121028 
C 14.4564 21.6619 49.911 12.011 -0.00607721 -0.000197576 0.00195611 
C 10.3035 14.7335 2.60613 12.011 -0.000801103 0.00474544 -0.00734856 
C 34.8881 34.2398 48.4798 12.011 0.00125013 0.00118241 -0.00330973 
C 16.037 5.33443 37.9974 12.011 0.0100574 -0.0086077 -0.00766161 
C 9.14355 19.6698 32.9304 12.011 0.00189792 -0.00369104 -0.0034529 
C 32.7014 25.5528 48.8215 12.011 0.000353798 0.00705758 -0.00184594 
C 25.8891 45.3324 26.4226 12.011 -0.0033893 0.00338702 0.000177445 
C 2.8744 13.3497 3.05 12.011 0.00725725 0.00258123 -0.000944773 
C 37.8061 50.976 9.15671 12.011 0.00256104 0.0022123 0.00992203 
C 35.8527 25.1252 18.1896 12.011 -0.000833108 -0.000254172 -0.00963585 
C 16.8638 20.4203 7.2261 12.011 0.00649078 -0.00892664 -0.00251587 
C 10.2918 15.265 32.3799 12.011 0.00100472 -0.00611695 -0.0046807 
C 31.5654 45.6761 45.7468 12.011 0.00211912 -0.00180326 -9.06642e-05 
C 31.3413 49.2689 18.0246 12.011 -0.00427027 -0.0085852 -0.00377532 
C 33.5839 24.4962 28.8769 12.011 0.00537986 -0.000842869 0.00159977 
C 3.21084 28.2777 26.6507 12.011 0.00526622 -0.0044422 -0.00378669 
C 4.8582 50.8087 29.6992 12.011 0.00125422 -0.000422204 0.00574461 
C 45.6403 22.613 30.6952 12.011 0.000684017 0.00210389 -0.00232884 
C 50.4814 26.756 11.591 12.011 0.000321769 -0.00184312 0.00103219 
C 40.2069 23.532 16.7339 12.011 -0.00153411 0.002294 -0.000989513 
C 24.6706 49.3003 3.2435 12.011 -0.00375464 -0.00889328 -0.00155685 
C 25.9091 44.9842 28.8063 12.011 0.00307927 -0.0109892 -0.0072352 
C 31.1511 38.2163 47.4424 12.011 0.00969676 -0.00387457 -0.000342627 
C 30.2883 23.4273 37.9869 12.011 0.00663837 0.00225412 -0.00202036 
C 29.6253 47.8087 16.7782 12.011 0.000391893 -0.00338006 0.000218042 
C 46.0606 38.5587 7.15052 12.011 0.00289427 0.000222542 -0.000496206 
C 16.8318 6.2529 26.0317 12.011 -0.00568379 -0.00744436 0.00265371 
C 39.4509 34.5817 43.7004 12.011 -0.0047296 0.0014401 -0.000931476 
C 41.8585 20.6697 11.6602 12.011 -0.00267684 0.00525325 -0.000842652 
C 30.349 17.3692 40.0727 12.011 0.0049945 -0.00390254 -0.00362529 
C 13.2282 46.0793 8.98992 12.011 0.000454677 0.003106 0.00211084 
C 7.85202 27.6623 11.102 12.011 0.00990993 -0.00241224 -0.00420448 
C 41.0047 30.2622 37.5785 12.011 0.0043806 -0.00677973 0.00792794 
C 46.1293 32.1151 7.05343 12.011 0.0082524 0.00127925 -0.00398641 
C 41.5204 35.8492 21.7486 12.011 -0.00244379 0.00675313 -0.00633777 
C 34.2413 33.9191 33.2479 12.011 0.00152038 0.000256752 -0.00336535 
C 14.0534 40.1874 46.0151 12.011 0.00059544 -0.00525623 -0.0042508 
C 45.3403 40.3814 38.7144 12.011 -0.00140979 0.00254895 0.00193874 
C 34.6886 24.8544 2.85492 12.011 0.00150444 -0.00416254 0.00710682 
C 2.73324 30.4249 2.51698 12.011 0.00178716 -0.00429812 0.00235797 
C 21.5825 33.2624 17.9965 12.011 0.000694513 -0.00237108 0.00272286 
C 38.5139 39.3341 50.379 12.011 -0.00333529 0.00364264 0.00726365 
C 49.9907 6.19387 25.4732 12.011 0.000962409 -0.00457296 3.74869e-05 
C 25.4806 46.9901 16.6159 12.011 0.00317878 0.000501367 0.00233037 
C 25.0764 39.5962 49.3569 12.011 0.00407112 -0.00915655 -0.00126185 
C 24.8196 9.31975 39.7594 12.011 -0.00774171 -0.00296109 0.00997095 
C 35.3026 23.6695 2.51546 12.011 0.00700056 -0.00240367 0.0015359 
C 19.8814 45.0292 34.5319 12.011 0.000536266 -0.00328838 0.00377847 
C 23.1471 25.5193 42.2144 12.011 0.00252671 -0.005381 -0.00154348 
C 24.7193 30.3494 41.4382 12.011 0.00142065 0.0103661 0.00786467 
C 16.9375 2.77144 4.85545 12.011 0.00114251 -0.000158738 0.00574969 
C 37.4744 47.4564 27.4285 12.011 -0.00849537 -0.00294217 -0.00981558 
C 39.0392 2.67921 50.0853 12.011 0.00160403 0.00171865 0.00343419 
C 36.7849 15.8813 39.136 12.011 8.82941e-05 0.00472875 -0.00467064 
C 30.2347 18.1173 20.6411 12.011 0.00432395 -0.00321604 -0.000602654 
C 40.3028 49.4939 16.9962 12.011 0.00787229 -0.00185209 0.00958734 
C 7.26953 3.12709 3.8155 12.011 -0.00805429 -0.00561749 4.83336e-05 
C 26.6574 20.0865 42.1649 12.011 0.00439592 -0.000492303 0.000423354 
C 13.0109 4.91896 28.0806 12.011 0.00150157 0.000513571 0.00280523 
C 12.7718 18.1649 27.6802 12.011 0.000443243 0.00171004 -0.00107614 
C 27.3033 1.5914 34.7578 12.011 -0.00474619 -0.00757374 0.00430556 
C 32.4721 23.7714 2.42256 12.011 1.63163e-06 0.00123861 -0.0119409 
C 1.37434 2.24138 12.2446 12.011 0.00479307 0.00133089 0.00799517 
C 13.076 12.3063 42.8876 12.011 -0.000190603 0.00572357 0.00273624 
C 48.7179 32.7048 2.80033 12.011 0.0037567 -0.000724649 -0.00363868 
C 47.3996 11.9725 35.5712 12.011 0.00103546 -0.00252413 0.00733804 
C 11.7912 37.6757 23.7805 12.011 0.00143694 -0.000399576 0.00021065 
C 38.6399 33.2563 35.7419 12.011 0.00517172 -0.00283509 -0.00976488 
C 0.701749 9.67588 35.6547 12.011 -0.00229739 0.0100843 0.00130481 
C 47.6022 22.6347 1.30988 12.011 0.00758468 -0.00149453 -0.000559413 
C 41.4678 28.8674 37.2821 12.011 0.00281432 -0.00289197 -0.00546585 
C 7.56184 49.0979 9.02292 12.011 0.00736102 0.000354615 -0.00135892 
C 35.7835 46.8063 21.2518 12.011 0.00909296 -0.0082767 -5.71711e-05 
C 32.3069 28.5208 2.60481 12.011 -0.00260298 -0.00260107 0.00195754 
C 32.8832 40.6028 0.138726 12.011 0.00960468 -0.000347834 0.00068042 
C 26.7109 38.3164 43.5479 12.011 -8.71165e-05 0.00323751 0.0045152 
C 34.3804 45.0787 37.9247 12.011 0.00295017 -0.00229942 -0.00025737 
C 10.702 25.0201 24.504 12.011 0.00516653 0.00777795 -0.00300373 
C 26.196 34.6481 28.3007 12.011 0.00140114 -0.00381217 -0.00158283 
C 12.7173 24.694 44.9978 12.011 -0.00170228 -0.00137667 0.0060787 
C 48.9417 30.1615 14.4767 12.011 -0.000406415 -0.000127205 0.00204329 
C 29.5226 6.94837 37.0762 12.011 -0.00334138 0.000761715 0.00474748 
C 2.63632 43.0572 4.88052 12.011 0.000131071 0.00364526 0.00463624 
C 10.3105 16.2218 48.1081 12.011 0.00514129 0.00909983 -8.56773e-05 
C 28.996 0.647733 32.9862 12.011 -0.0020786 0.00129351 0.00412768 
C 47.0635 24.0239 1.27045 12.011 0.00726393 -0.00787855 0.000453682 
C 44.8255 46.7727 3.08542 12.011 0.00112266 0.00244385 -0.00366231 
C 4.57849 10.0812 44.2727 12.011 0.00165118 0.00518221 0.00144659 
C 36.8272 20.1533 39.7799 12.011 -0.00461976 -0.00443842 -0.00333313 
C 6.62447 0.341353 31.2886 12.011 7.80581e-05 0.00696763 -0.00616931 
C 13.211 45.3121 15.8123 12.011 0.00285688 0.00232537 0.0052882 
C 16.497 9.56619 16.2123 12.011 0.00640108 0.00634071 0.00194347 
C 40.9474 9.01835 44.3328 12.011 -0.00232373 -0.00414052 0.00245215 
C 2.46962 9.97545 30.361 12.011 0.00591391 0.0090547 -0.000117435 
C 30.4731 26.9806 49.8546 12.011 0.00926891 0.00226069 0.00519857 
C 37.9109 22.6701 21.119 12.011 0.00327613 -0.0074418 0.00587649 
C 9.83651 39.7174 15.2334 12.011 0.0018443 -0.00222595 -0.000788608 
C 34.6647 14.5898 25.9976 12.011 0.00869237 0.00359649 0.00172422 
C 5.75423 47.9589 7.65203 12.011 -0.00727978 -0.00435711 0.000476374 
C 17.5462 6.20286 7.38581 12.011 0.00170867 -0.00531039 9.32371e-05 
C 16.6574 50.2391 3.9457 12.011 -0.00717154 -0.00194767 -0.000427391 
C 38.7407 35.975 10.9342 12.011 -0.00799888 0.00111793 -0.00168288 
C 14.4316 32.3029 5.35715 12.011 -0.00507322 0.00878733 0.00413214 
C 44.8021 13.9352 25.3178 12.011 -0.00191096 -0.00174737 -0.00405757 
C 5.92367 25.7538 35.2887 12.011 0.00554269 0.0032205 -0.00313203 
C 23.7258 33.4514 34.6891 12.011 -0.00388849 -0.00368414 0.00459137 
C 28.7122 17.6509 48.9043 12.011 0.00326749 0.00520597 0.00154318 
C 20.7431 46.6244 48.2613 12.011 -0.0025934 -0.00626354 0.000699506 
C 5.81829 45.0749 47.9969 12.011 0.00282356 -0.000283354 -0.00647874 
C 13.5814 49.0026 6.78379 12.011 -0.00342482 -0.000425104 0.00250692 
C 12.6366 15.4831 14.2838 12.011 -0.00263341 0.00195511 -0.000363655 
C 17.3757 36.827 37.0375 12.011 0.00455941 6.30576e-05 0.00363838 
C 7.33983 18.0826 18.5563 12.011 -0.00121668 0.000122192 0.00391636 
C 24.0315 39.8229 27.4278 12.011 -0.00478157 0.00598292 0.000523348 
C 33.2926 44.3791 22.4243 12.011 0.00229532 -0.00180991 0.00143704 
C 1.47876 36.2223 10.749 12.011 -0.000197438 -0.00203227 0.002425 
C 38.3832 16.877 30.9722 12.011 -0.00290215 -0.00633363 0.00190801 
C 36.1142 35.5354 1.1622 12.011 -0.00494268 0.00252075 0.0137711 
C 8.57778 1.36537 30.2785 12.011 0.00122774 0.0034088 0.000602542 
C 35.965 31.1207 16.5371 12.011 -0.00316441 0.00014092 -0.0108257 
C 37.0611 19.9016 15.0223 12.011 -0.00174647 -0.0032543 -0.00657223 
C 35.7454 3.54203 41.6142 12.011 -0.00405727 0.00675004 0.0046943 
C 28.6872 3.2969 28.6843 12.011 0.00675304 0.00159501 0.00749983 
C 46.8298 41.216 28.4279 12.011 0.0032141 0.00286437 0.00283847 
C 8.34852 13.3127 3.02943 12.011 0.0046363 -0.00770896 0.00222328 
C 45.8815 41.2456 30.6571 12.011 0.00230745 0.00106386 -0.00179411 
C 26.3689 34.7648 26.8792 12.011 0.0012128 0.00570766 -0.0104953 
C 6.70866 43.6552 26.1255 12.011 -0.00200059 -0.00709175 -0.00453275 
C 7.56123 21.8144 16.5189 12.011 -0.00502972 -0.0017778 -0.00458862 
C 7.77791 42.8727 36.7064 12.011 0.00226848 -0.00339288 0.00116643 
C 0.645095 27.865 37.4544 12.011 -0.0031815 -0.00526376 0.00318636 
C 5.55754 31.2184 28.9739 12.011 -0.000999829 0.00600589 0.00140991 
C 27.85 18.5016 46.7178 12.011 -0.00275805 -0.00618921 0.00670945 
C 9.97824 8.12381 35.8401 12.011 -0.00313498 -0.00621689 -0.00390895 
C 15.1108 34.0183 38.232 12.011 -0.00612413 0.00200347 -0.00299585 
C 15.0166 28.4986 49.5931 12.011 0.00497663 0.00261228 -0.0074035 
C 26.8763 47.3552 2.91854 12.011 -0.00631367 -0.00734367 0.00327133 
C 48.2016 33.1404 7.91423 12.011 0.00165767 0.00745671 0.00149579 
C 8.51143 33.0301 46.7492 12.011 -0.00160356 -0.000401222 -0.00282466 
C 12.4362 13.354 26.6458 12.011 -0.00727186 -0.00500996 -0.000270632 
C 16.1015 2.90307 43.1251 12.011 -0.00526918 -0.00380895 -0.00517916 
C 10.7099 4.94097 24.5056 12.011 -0.00281243 0.00127072 -0.00383661 
C 27.6595 47.2572 15.4782 12.011 0.00411266 0.00424641 -0.00336594 
C 4.61472 15.2835 47.9714 12.011 -0.00655177 0.00513783 0.00155005 
C 34.3393 49.6191 29.4617 12.011 -0.00731319 -0.00172989 -0.00105633 
C 14.4222 6.42981 4.35622 12.011 0.00367434 0.00232656 0.0100485 
C 14.0338 22.2185 11.2843 12.011 -0.00046455 -0.0111885 0.00141007 
C 1.92367 43.8551 27.4941 12.011 -0.00300801 -0.00694818 0.0035697 
C 21.2233 33.9213 31.3621 12.011 -0.00589436 0.00491244 0.00273757 
C 35.5469 19.2056 46.8783 12.011 -0.00454056 0.00413507 0.00470619 
C 4.84852 18.4841 46.0102 12.011 -0.00183818 -0.00199669 -0.00306332 
C 48.2998 24.8809 25.7588 12.011 -0.000869286 -0.00238052 -0.000299386 
C 9.12911 48.9466 17.7863 12.011 -0.00137012 -0.00310098 -0.0050723 
C 11.3881 6.05633 23.8421 12.011 0.00170316 0.00222513 0.00323005 
C 2.90685 44.8267 29.7237 12.011 -0.0088101 0.00314806 0.00424999 
C 29.0271 20.2827 21.3983 12.011 -0.00250637 -0.00507241 0.00111732 
C 7.5449 32.8252 30.2621 12.011 -0.00322168 -0.00497348 0.00567251 
C 15.0545 15.294 13.9283 12.011 -0.000554711 -0.00164203 -0.00153223 
C 28.5752 50.7302 12.7442 12.011 0.00532012 0.00621258 -0.00665005 
C 12.2929 30.4829 34.349 12.011 -0.00733256 0.00325291 0.00719135 
C 31.0351 17.726 28.1208 12.011 -0.00379912 0.0026934 -0.00107419 
C 49.4148 43.5593 3.28499 12.011 -0.00450144 0.00235766 0.00947245 
C 35.0884 18.0333 29.2495 12.011 0.00139824 -0.000791973 -0.0018717 
C 16.6692 50.1597 10.9923 12.011 0.00103885 0.000361574 0.00773129 
C 24.2623 12.7099 44.5143 12.011 -0.00174962 -0.00405517 0.00255049 
C 10.4321 37.1843 23.8144 12.011 0.00331907 0.00524658 0.00103375 
C 29.9027 47.7836 40.5247 12.011 -0.00186122 0.0047952 0.000556836 
C 47.1692 39.2831 39.7339 12.011 0.00327852 -0.00677342 0.00464123 
C 22.924 20.1929 5.76017 12.011 -0.00317905 0.00848148 0.00513958 
C 13.8515 13.1531 0.00540634 12.011 0.00449546 0.00374474 0.00199551 
C 29.1583 8.59669 49.6507 12.011 -0.010217 0.00987607 0.00368963 
C 37.9724 42.2735 20.2824 12.011 -0.015467 -8.78775e-05 -0.00179252 
C 48.0404 0.125121 12.8805 12.011 0.00484085 -0.0108916 0.00364226 
C 15.3778 35.2428 43.1653 12.011 0.00562945 0.00347786 -0.000439444 
C 10.2209 9.55248 44.5369 12.011 -0.00385884 -0.00449672 -0.00142578 
C 31.7216 14.3632 28.052 12.011 -0.00211051 0.00231827 -0.00862496 
C 46.6892 22.5402 16.2171 12.011 0.00449699 0.00411852 0.00709368 
C 26.2867 15.5408 8.7766 12.011 0.00379661 -0.00360279 0.00618241 
C 17.5023 50.6348 9.87288 12.011 0.00119175 -0.00558281 -0.00527244 
C 37.5633 3.26905 47.6391 12.011 0.00442976 0.000617759 0.00115393 
C 36.4335 44.4531 45.2923 12.011 -0.000406626 0.00378699 -0.000658524 
C 49.5544 30.2904 3.06378 12.011 0.00295574 6.2323e-05 -0.00171183 
C 20.8715 21.2498 42.902 12.011 0.000710264 0.00525096 0.00204029 
C 20.6774 26.1457 6.9576 12.011 -0.00968127 -0.00131175 0.00221379 
C 33.5215 32.1015 2.95574 12.011 -0.00863809 -0.00368037 0.00267885 
C 35.7073 7.91179 20.1829 12.011 -0.00662913 0.00523806 0.00269573 
C 44.8063 42.7378 16.2799 12.011 -0.000469194 0.00276586 -0.000347308 
C 41.1463 49.423 2.89893 12.011 -0.00157487 0.000513412 -0.00326795 
C 8.78038 0.473727 46.8958 12.011 -0.0109493 -0.000588525 0.00125814 
C 28.9051 15.5104 39.5016 12.011 -0.000486648 -0.000668982 -0.00248432 
C 10.0512 19.0466 47.1756 12.011 -0.00640371 -0.00516731 0.00552273 
C 23.1067 42.7913 16.0645 12.011 0.00225577 0.00353696 0.00220556 
C 47.4414 2.33964 22.4416 12.011 -0.00693561 0.00494811 -0.00703357 
C 22.4105 33.6782 32.3245 12.011 -0.00411845 0.00287721 0.000793769 
C 23.8583 23.3213 31.2439 12.011 0.00743496 -4.66689e-05 -0.00416317 
C 45.1978 32.1427 5.91691 12.011 0.000923894 -0.00631115 0.00828571 
C 12.4966 45.2399 13.3233 12.011 0.0088534 -0.00307344 -0.00267147 
C 42.3482 24.2797 45.8221 12.011 -0.00534821 0.00526356 0.00721737 
C 28.3803 45.0926 4.48299 12.011 0.00176794 -0.00850522 -0.00140577 
C 36.5244 11.4887 19.9542 12.011 -0.00524769 -0.00610932 -0.00561123 
C 45.1888 44.1613 28.5745 12.011 0.00229911 0.00109711 -0.0047209 
C 46.747 42.9343 48.0999 12.011 0.00186123 0.00132151 0.00124933 
C 21.0466 8.2435 18.305 12.011 0.00307131 -0.00168205 -0.00256616 
C 26.5453 39.0154 45.9083 12.011 -0.0072117 -0.00715036 -0.00141504 
C 16.8405 6.53933 38.0247 12.011 -0.00638483 -0.00271632 -0.00143968 
C 23.443 4.31485 33.7064 12.011 -0.00723388 0.000686959 -0.00401184 
C 38.1689 42.822 21.5971 12.011 0.00331894 -0.0056555 -0.000155154 
C 5.49534 25.3032 17.7881 12.011 0.0033835 0.00126959 0.00269128 
C 19.0718 36.8681 25.3266 12.011 -0.00228977 0.00810794 -0.00337454 
C 43.4492 30.3434 6.76092 12.011 0.00301937 -0.0112574 -0.00354845 
C 25.888 45.1202 42.396 12.011 -0.00234454 -0.00280115 -0.00153108 
C 48.8017 37.0465 14.9658 12.011 -0.00135695 0.00939092 0.00816168 
C 30.7124 4.52065 1.35631 12.011 0.00690869 -0.0046967 0.000856542 
C 20.2702 12.6955 43.1754 12.011 -0.00185647 0.00194936 0.0108735 
C 33.2126 33.037 47.1858 12.011 0.000190668 -0.00201101 -0.00214017 
C 6.68969 12.9496 9.33446 12.011 0.00151938 -0.00631266 0.00602648 
C 11.08 38.2801 19.5472 12.011 0.00109054 -0.00190684 -0.00112258 
C 37.8117 48.6161 4.49694 12.011 -0.00730514 0.00172457 0.00265507 
C 36.4648 3.88469 21.1454 12.011 0.00098842 0.00227045 -0.00479798 
C 11.4346 41.1557 13.9897 12.011 0.00115268 0.00310785 0.00342526 
C 4.11376 27.3036 16.8816 12.011 -0.000446172 0.00109511 -0.00226804 
C 16.5965 42.5937 49.0995 12.011 0.00217525 -0.00539722 0.00222468 
C 44.4984 10.0891 38.8707 12.011 -0.00871436 -0.00707306 -0.00814817 
C 10.2435 45.8668 25.4591 12.011 0.00367033 -0.00270936 -0.00160573 
C 45.1244 34.0208 2.52094 12.011 -0.00268428 0.00297531 -0.00124092 
C 47.8675 43.3026 12.2753 12.011 0.00302598 -0.00994435 0.00901597 
C 32.7201 32.8247 7.08447 12.011 -0.00192645 -0.00415147 -0.00130356 
C 10.6316 22.4429 9.40077 12.011 -0.00228717 -7.17384e-06 0.00505112 
C 45.3156 37.9669 43.9864 12.011 -0.00102683 -0.00589019 0.000356256 
C 29.3728 8.49793 0.934195 12.011 0.0109981 -0.00255998 -0.00892943 
C 20.2608 21.7622 40.301 12.011 0.00462082 0.00183959 0.00112784 
C 27.4564 0.594496 10.8107 12.011 -0.00598404 -0.00441614 -0.00895186 
C 28.9256 12.7765 3.08529 12.011 0.00560398 0.00216664 0.00274834 
C 12.5868 34.379 14.7835 12.011 0.00299283 0.00582015 0.00236218 
C 1.46516 27.2082 25.0866 12.011 0.00245558 -0.00305368 0.00271874 
C 38.2968 32.0514 12.7076 12.011 -0.00282687 0.00444759 0.00122711 
C 6.61813 45.1469 30.7441 12.011 -0.00983602 0.00114866 -0.00324329 
C 40.7826 36.372 19.5736 12.011 -0.00840913 -0.00464116 -0.00506343 
C 34.1641 44.1155 12.89 12.011 -5.45613e-06 0.000287765 -0.01046 
C 16.1794 40.5966 17.5283 12.011 -0.00773884 -0.0062911 0.00801963 
C 46.5703 43.2179 11.7935 12.011 0.0104627 0.00246761 -0.000360862 
C 49.1653 4.31762 43.414 12.011 -0.0082336 0.000749568 -0.00222341 
C 46.9649 29.4543 32.5645 12.011 -0.00604712 0.00341138 -0.00759696 
C 46.542 39.1813 27.2236 12.011 0.00337841 0.000814018 0.00304233 
C 43.5734 45.1945 8.72253 12.011 0.00676066 -0.000890068 -0.00234688 
C 11.7729 26.9339 37.9491 12.011 0.00744207 -8.08754e-05 -0.00646251 
C 28.441 35.545 13.1278 12.011 0.00558774 0.00475254 -0.00329905 
C 39.6649 17.3717 27.4985 12.011 0.00309543 -0.00267382 -0.0014553 
C 46.5282 46.507 49.1806 12.011 -0.00318906 0.00609309 -0.00121561 
C 34.8646 17.3745 4.21229 12.011 -0.00282503 0.000117714 -0.00145918 
C 10.1922 26.6261 10.2169 12.011 -0.00282704 0.0016991 -0.00345377 
C 31.1651 30.1504 10.9554 12.011 -0.00369876 -0.000112659 0.00366374 
C 26.9646 11.8696 28.2597 12.011 -0.00732844 -0.0031114 0.00113805 
C 45.6546 36.7897 16.7445 12.011 -0.00749899 0.00192266 -0.011967 
C 36.8893 2.7839 45.1732 12.011 0.000768949 0.00255323 0.0065786 
C 32.1719 18.3824 42.2867 12.011 0.00014648 -0.00510395 -0.00248447 
C 17.5708 14.4907 14.9438 12.011 -0.00246941 0.0002901 0.00418865 
C 14.2292 12.1434 8.82024 12.011 0.0102288 -0.00164111 -0.00232485 
C 50.4448 11.7127 2.21809 12.011 0.00370733 0.00314112 -0.0033224 
C 17.719 6.8033 31.9054 12.011 0.000675508 0.000409265 0.00163568 
C 3.78456 40.3934 6.02909 12.011 -0.00266589 -0.00251096 0.00538979 
C 13.1395 10.7479 34.3349 12.011 0.00268289 -0.00526145 -0.00172087 
C 8.42771 22.0305 10.4918 12.011 0.0108682 0.003321 0.00396408 
C 27.0739 23.484 25.1543 12.011 0.000447085 -0.00553631 0.0023518 
C 25.6064 48.3866 9.35528 12.011 0.00383391 -0.00830821 -0.000669194 
C 47.9437 22.8286 5.7224 12.011 -0.00187312 -0.0046677 0.00064006 
C 42.8397 42.5272 19.5398 12.011 -0.00275026 -0.00409834 -0.00769577 
C 7.75254 14.4875 20.9422 12.011 -0.00180823 0.00632715 -0.000603044 
C 13.9766 19.5894 11.3323 12.011 -0.00120504 0.00504831 0.00198143 
C 11.4544 4.80995 25.7617 12.011 0.00444912 -0.00387385 -0.0025682 
C 48.2726 10.1291 23.2745 12.011 -0.00685733 0.000844894 -0.00221682 
C 22.5452 29.4234 37.776 12.011 0.00165037 -0.00310606 0.000304386 
C 13.0293 47.602 27.3387 12.011 -0.0018531 0.00101298 -0.00413978 
C 3.4199 25.5402 24.2011 12.011 -0.00674476 -0.00124555 0.0075153 
C 22.1398 6.32827 19.0541 12.011 0.000783741 -0.000440747 -0.000609299 
C 41.3354 32.187 29.777 12.011 -0.00213217 0.0056678 0.00378028 
C 17.2739 18.1128 10.6415 12.011 8.47872e-05 -0.00177489 0.000512123 
C 35.5884 9.34494 20.0613 12.011 0.00142696 0.000756131 -0.00542634 
C 12.2894 38.9345 19.3835 12.011 0.0112063 -0.0023131 0.00214305 
C 1.46443 39.6667 50.3861 12.011 -0.00561449 0.00346017 -0.00227938 
C 38.9261 9.491 7.32577 12.011 0.000257185 -0.00569694 -0.00395435 
C 22.6277 35.4916 45.0418 12.011 -0.00404464 -0.00208473 0.00901703 
C 22.6798 29.3322 25.2765 12.011 -0.00742326 0.00914434 0.00584917 
C 42.9995 4.73516 6.51955 12.011 -0.00666728 -0.00191868 -0.000513396 
C 35.1119 5.87475 21.4163 12.011 -0.0024678 0.00841051 -0.00287815 
C 32.0051 40.4417 43.097 12.011 -0.00313198 0.0112632 -0.0066516 
C 8.4441 34.6414 43.4676 12.011 -0.000795811 -0.00613745 0.00396131 
C 11.5181 44.2926 19.5633 12.011 0.0074024 -0.00654143 0.00542903 
C 21.475 21.4589 47.0761 12.011 0.00569472 -0.00520451 0.0048341 
C 49.8591 1.23648 2.46708 12.011 -0.00224604 0.00507331 0.00076609 
C 10.7045 22.8581 28.0305 12.011 0.001534 0.0043493 -0.00385356 
C 14.2423 16.3476 5.92566 12.011 0.0047604 -0.00867713 0.00300244 
C 49.5024 36.7344 38.4725 12.011 0.00800337 -0.000210472 -0.00756151 
C 11.2081 43.4256 18.4989 12.011 0.00277596 -0.00143836 -0.00200319 
C 12.9993 31.5126 32.2979 12.011 -0.00376246 -0.00224091 0.00078173 
C 8.13936 24.6808 5.67475 12.011 -0.00206112 0.00509329 -0.00383405 
C 1.94843 3.94335 4.00489 12.011 0.000838121 0.00130278 0.00786968 
C 50.2375 28.3095 13.8498 12.011 0.00859923 0.000393692 0.00403761 
C 21.1155 35.5034 25.4918 12.011 0.00061929 0.00232002 -0.0047065 
C 11.8027 6.13775 6.20277 12.011 0.000803063 -0.00198052 7.64984e-05 
C 7.06441 5.74878 20.0269 12.011 -0.000664145 0.00122652 -0.000497188 
C 39.0528 15.808 49.7546 12.011 -0.0015503 0.00391313 0.00222993 
C 40.1737 11.7369 35.5143 12.011 -0.00324616 -0.00583134 -0.00299529 
C 48.1279 19.5196 46.2433 12.011 -0.00799911 0.00143766 -0.000612712 
C 44.3191 26.4338 28.1023 12.011 -0.000980702 -0.00514791 0.00869745 
C 29.6295 30.4795 1.55317 12.011 -0.000646056 -0.00275461 0.00631458 
C 4.52325 35.9739 49.0405 12.011 0.00620058 -0.000794245 0.00184429 
C 20.0118 33.3236 9.20502 12.011 0.00395498 0.00519055 0.00351393 
C 17.8956 15.5947 5.17652 12.011 0.00275242 0.00182183 0.0109959 
C 4.77723 19.414 38.4865 12.011 -0.00318229 0.00811693 0.00223371 
C 27.7769 21.9295 41.2047 12.011 0.00731441 0.00306598 -0.00532314 
C 28.2226 11.087 36.621 12.011 -0.00665676 0.00234836 -0.000703191 
C 20.2316 30.9952 18.9099 12.011 0.00369838 -0.0054526 0.00635181 
C 35.0919 34.0112 3.08883 12.011 -0.000539707 0.0015926 0.00501955 
C 3.09942 7.07058 12.7493 12.011 0.00707035 -0.00422498 0.00296761 
C 33.7938 6.40694 34.864 12.011 -0.00151891 -0.00305805 -0.00795995 
C 27.1973 34.9483 17.6549 12.011 0.000967808 0.00414942 0.000411386 
C 6.51312 26.0753 44.0023 12.011 0.00642181 -0.00291465 -0.00297851 
C 36.4538 30.2754 18.779 12.011 0.000889423 -0.00264895 0.00370707 
C 23.9671 18.4911 14.9551 12.011 -0.00526842 -0.00366332 -0.00908207 
C 49.471 44.254 14.0733 12.011 0.00547869 -0.00164161 -0.000901496 
C 24.5543 23.8479 49.6341 12.011 -0.000911455 -0.00243069 0.00994617 
C 36.6099 24.1198 17.4375 12.011 -0.00507914 0.00375062 -0.0078052 
C 15.7092 50.6996 0.304922 12.011 0.00104207 0.00125207 0.00632113 
C 41.3852 36.1103 44.1461 12.011 -0.000372734 -0.00851032 0.000184968 
C 21.4104 45.1048 37.9357 12.011 -0.00842611 -0.00797892 0.00171156 
C 9.51284 12.9511 22.4738 12.011 -0.000400137 0.000786809 0.00380066 
C 10.9319 46.5383 26.5356 12.011 0.000645445 -5.41753e-06 -0.000395193 
C 15.9302 25.7294 10.6657 12.011 0.00115126 -0.00473459 0.00571571 
C 47.507 10.0645 47.4817 12.011 -0.00465321 -0.00396397 -0.00166666 
C 20.3229 11.9651 39.4425 12.011 -0.00323817 -0.0116135 -0.0106809 
C 47.0722 17.4062 22.4722 12.011 0.00943727 0.000849517 0.000997158 
C 7.23886 24.7449 25.9159 12.011 0.00812077 -0.000985233 -5.3644e-05 
C 38.1379 3.77489 50.048 12.011 0.00802883 0.00275913 -0.00182314 
C 13.049 5.03646 46.4725 12.011 0.00480144 -0.00903977 -0.00668454 
C 38.1752 2.38119 3.74161 12.011 0.0043991 -0.0066497 3.38049e-05 
C 32.984 23.5013 34.7781 12.011 -0.00247907 -0.00787622 0.000712838 
C 13.7289 24.8545 6.1642 12.011 -0.0047673 -0.000815863 -0.0128561 
C 13.8059 37.5955 25.4129 12.011 -0.00544449 0.00261518 -0.0082223 
C 7.86091 8.98261 42.2321 12.011 -0.00011826 -0.00441454 -0.00317065 
C 5.22114 1.94207 23.0316 12.011 0.00588724 0.00685639 0.00392074 
C 5.36301 48.6791 14.0982 12.011 -0.00595085 0.00650272 -0.00751919 
C 12.5588 10.2814 38.5678 12.011 -0.00434715 -0.000750751 0.00694135 
C 8.11651 2.40652 25.5045 12.011 -0.00044686 0.00281499 -0.000659272 
C 32.0433 27.3243 3.64559 12.011 0.00526938 -0.00341262 -0.00277825 
C 34.2749 28.7965 49.7189 12.011 4.23455e-05 0.00594006 -0.00304478 
C 15.164 36.7083 13.4361 12.011 -0.00582148 -0.00524069 -0.00504659 
C 3.68925 0.55974 3.77181 12.011 -0.00446709 -0.00349429 -0.00425687 
C 36.5589 38.7348 28.6058 12.011 -0.0033236 -0.0020696 -0.00274052 
C 37.2338 48.677 20.7156 12.011 -2.21859e-05 0.00541065 -0.000468216 
C 0.712085 46.1237 3.56878 12.011 0.00638805 -0.00261261 0.00601561 
C 18.0681 15.88 1.41527 12.011 0.00187105 0.00431646 0.00422051 
C 22.4404 6.5689 46.3706 12.011 0.00618871 -0.00201248 -0.011541 
C 25.5334 46.4779 19.0495 12.011 0.00851736 -0.000738305 -0.00129953 
C 22.2628 40.1502 29.5499 12.011 0.00144818 -0.00502168 0.00486889 
C 37.3718 13.5041 38.9794 12.011 0.00262039 0.000178946 0.00686721 
C 5.33899 42.8034 36.7027 12.011 0.00255586 0.000762487 -0.00824745 
C 47.5886 10.8557 36.4373 12.011 -0.00131384 0.00685952 -0.00158225 
C 29.8833 34.3275 1.03117 12.011 0.000379295 0.00325564 -0.00450325 
C 21.8667 47.0309 26.744 12.011 -0.000776354 0.000149679 0.000579716 
C 21.7694 40.0969 12.1182 12.011 -0.000773669 0.00165323 -0.00118711 
C 20.6626 7.62425 47.4581 12.011 0.00545172 0.000555092 -0.00621483 
C 35.3372 22.948 47.7199 12.011 -0.0013897 -0.00522531 0.000612384 
C 47.8817 31.8318 0.149078 12.011 0.00523613 -0.00626663 -0.00917068 
C 23.6155 50.3313 3.36331 12.011 0.000783708 0.00296164 -0.00691519 
C 27.6433 36.4617 3.17483 12.011 0.00621096 0.00400882 -0.00447375 
C 3.3909 47.725 20.3229 12.011 0.00153888 -0.00485129 -0.0050742 
C 10.2128 34.5377 5.30067 12.011 0.00273093 0.00187815 0.000168386 
C 27.1621 14.1363 17.3431 12.011 -0.00868311 -0.00297258 -0.00344661 
C 21.9215 46.7607 29.2044 12.011 0.00180847 -0.0021151 -0.0033604 
C 9.62067 3.37614 3.5257 12.011 0.00235071 0.00139535 0.00702692 
C 10.2353 22.8785 41.2576 12.011 -0.00471931 0.00989512 0.000887062 
C 4.67494 10.506 13.1216 12.011 -0.00295715 0.00608406 0.00474746 
C 12.7576 37.0351 33.2672 12.011 -0.00715076 -0.00359597 -0.00356564 
C 23.8476 26.6214 4.03999 12.011 0.000773972 0.00538735 0.00351236 
C 28.7125 17.6039 26.9096 12.011 -0.00155598 -0.00233634 0.00297815 
C 24.4669 8.13661 40.5644 12.011 -0.00824286 0.000744419 -0.00219324 
C 13.7753 32.2552 37.1033 12.011 -0.000526249 -0.00128983 -0.00613735 
C 13.3075 42.5012 0.170301 12.011 0.00116705 -0.00277692 0.00361355 
C 42.6926 48.394 0.536835 12.011 0.00316711 -0.00484638 0.00331943 
C 28.3391 38.0326 41.1545 12.011 -0.000111062 -0.00270071 0.00749014 
C 40.1688 4.66241 29.0987 12.011 -0.00129073 -0.00169177 -0.00256834 
C 24.8934 42.196 40.5918 12.011 0.00746463 -0.00051608 0.00102621 
C 18.4204 47.2655 13.807 12.011 0.00255114 -0.0013327 -0.00316882 
C 5.43017 45.0486 33.2393 12.011 0.00578496 0.00906623 -0.0032375 
C 12.3931 10.1966 31.9449 12.011 -0.00233686 -0.00256441 -0.00220538 
C 39.0311 10.4751 12.8416 12.011 0.00353039 -0.00231391 -0.0093187 
C 49.1556 21.4031 16.4574 12.011 -0.000101168 -0.000390818 -0.00617501 
C 37.3793 21.1707 1.78768 12.011 -0.000679298 -0.0068677 -0.00624885 
C 16.373 10.3483 12.778 12.011 -0.000821345 -0.00159501 -0.00515133 
C 29.5858 37.4334 20.4737 12.011 -0.00548628 -0.00130001 -0.000672454 
C 33.7745 47.455 30.6006 12.011 -1.6544e-05 -0.00701994 -0.00186947 
C 10.6284 23.7557 48.8531 12.011 0.00168436 0.00292311 0.00239708 
C 26.8732 38.7587 4.79258 12.011 -0.00112535 0.00110608 -0.0069785 
C 17.6534 21.5054 2.41942 12.011 0.00446183 -0.0100181 0.00712904 
C 40.0214 19.2614 24.2991 12.011 -0.000579625 -0.00346671 -0.00353404 
C 19.8279 38.0021 27.8725 12.011 0.00349992 0.00126173 -0.00061758 
C 42.3346 19.2129 23.5306 12.011 -0.0144449 -0.00334938 -0.00578982 
C 36.8158 8.12349 30.6949 12.011 -0.0003469 -0.00128674 -0.00502093 
C 1.4038 9.34991 32.5535 12.011 -0.00195539 0.00229248 0.00524879 
C 36.0611 23.1168 16.645 12.011 -0.00218409 0.003359 -0.00077308 
C 40.2432 20.0233 8.43963 12.011 -0.00304908 -0.000692552 -0.00317477 
C 2.77024 2.9295 21.8687 12.011 0.00112065 -0.00407564 0.00599777 
C 18.295 14.5662 25.4798 12.011 -0.007039 -0.00149516 0.00533385 
C 25.9763 15.423 33.4745 12.011 -0.00112687 0.0053323 -0.00153567 
C 21.7136 50.3825 7.28961 12.011 0.0010409 -0.00154504 0.00144541 
C 7.11512 27.0793 38.5804 12.011 0.000509694 0.00223597 0.00233008 
C 31.1488 22.1858 1.33317 12.011 -0.000114787 0.00507171 0.00364857 
C 43.2357 5.13747 33.6992 12.011 -0.00214888 0.00894625 -0.006411 
C 18.5766 5.70826 1.76895 12.011 0.00331632 0.00584875 -0.00324953 
C 27.4208 13.7393 38.8656 12.011 -0.000782717 -0.00142905 0.00336485 
C 0.31149 14.9487 43.0191 12.011 -0.00337693 0.00518313 -0.00369181 
C 24.9454 1.35423 43.3169 12.011 2.51351e-05 0.00243226 0.00607095 
C 1.23647 50.811 12.5868 12.011 -0.00235882 0.00118652 0.0038512 
C 36.4337 45.8172 36.3426 12.011 0.00147927 -0.00360796 0.00555213 
C 27.426 45.487 49.7667 12.011 -0.00328239 0.0066481 -0.00126572 
C 41.5639 40.0945 41.7623 12.011 -0.00366476 0.00606422 0.00455452 
C 46.9143 37.7023 30.0407 12.011 -0.00581649 0.00323845 0.00147986 
C 24.7885 26.4539 15.5705 12.011 -0.00144701 0.00359049 0.00100749 
C 23.8677 15.5109 1.8155 12.011 0.000175177 0.00521108 -0.00232328 
C 34.5386 40.98 35.1209 12.011 -0.00755449 0.00294661 -0.00331978 
C 42.7783 48.3523 43.7508 12.011 -0.00318603 0.00470876 -0.00410756 
C 13.4655 6.39714 3.21262 12.011 -0.00160906 0.00199386 -0.0121307 
C 26.8354 3.81906 3.28585 12.011 0.00641997 0.00479976 -0.00489674 
C 46.2314 18.3177 32.8233 12.011 0.00187798 -0.00576789 -0.00211626 
C 15.323 1.11376 16.7996 12.011 -0.00432048 -0.0013352 0.00481136 
C 40.4966 30.79 22.0597 12.011 -0.00843634 0.0104869 0.00583597 
C 48.9075 47.5178 23.1373 12.011 0.0033336 0.000873524 -0.000474143 
C 12.7875 28.6501 28.3669 12.011 -0.00584324 -0.00798419 -0.000676349 
C 37.9334 7.79091 29.765 12.011 -0.00169222 0.00314062 -0.00187687 
C 9.52871 31.7184 37.0001 12.011 -0.00297298 0.00198519 -0.00245059 
C 18.0011 46.4804 34.9354 12.011 0.0014592 0.00597344 0.0031548 
C 38.3066 40.7811 26.6509 12.011 -0.00129198 0.00670901 0.0038368 
C 45.6185 5.47497 11.1593 12.011 0.0028293 -0.00293468 0.000243129 
C 43.8311 18.4809 2.48895 12.011 0.00300468 0.00293061 0.0065363 
C 11.1092 50.3999 12.3933 12.011 -0.000765252 0.00544009 0.00618675 
C 27.1812 47.3754 5.46709 12.011 -0.00256967 -0.00380661 0.0061177 
C 43.7801 17.3626 24.3769 12.011 0.00488831 -0.00180724 -0.000970812 
C 7.4325 36.8065 42.8591 12.011 -0.000995825 0.00489965 -0.00653279 
C 19.8842 36.9139 33.2391 12.011 -0.0064705 -0.00192095 0.00654716 
C 31.56 21.2173 3.99763 12.011 -0.00195826 -0.00576296 -0.0088819 
C 15.4541 28.5544 45.8706 12.011 -0.00430127 -0.0021055 -0.000319353 
C 29.2796 46.1033 20.158 12.011 0.00196014 0.000967701 0.0105218 
C 28.5224 39.7132 44.4788 12.011 -0.0101699 -0.00256261 -0.00285569 
C 27.2233 15.3002 32.8014 12.011 -0.000518627 -0.000757188 0.00503316 
C 37.7677 2.06926 33.896 12.011 -0.00537934 0.00767271 0.00261928 
C 0.548485 1.04266 12.3886 12.011 0.002398 0.00162296 0.000602838 
C 5.03408 0.085031 3.63426 12.011 -0.00176002 -0.000221771 -0.00363813 
C 27.7078 47.7363 13.0357 12.011 -0.0102087 0.00872487 0.00116816 
C 27.8164 45.505 22.6546 12.011 -0.0058299 -0.000340935 0.00830714 
C 30.4169 16.5737 37.6892 12.011 0.000661661 0.00409216 -0.00186799 
C 22.1335 17.9874 26.1391 12.011 0.00247037 0.00808965 0.000186541 
C 42.6609 7.17831 22.44 12.011 -0.0100907 -0.00217883 0.00560381 
C 8.69197 29.32 3.4167 12.011 -0.00255197 0.00771331 -0.00538305 
C 32.8472 38.636 28.7226 12.011 0.00186175 -0.00223561 -9.17744e-05 
C 20.7883 36.2775 32.3287 12.011 -0.0064928 -0.000411757 -0.00516952 
C 23.9082 15.7225 6.92307 12.011 -0.00270881 0.00201909 0.0024991 
C 37.5896 36.0313 11.8075 12.011 -0.00639354 -0.00282141 0.00241131 
C 18.1966 45.0579 40.1158 12.011 0.000676982 -0.00319648 -0.00765503 
C 22.1536 16.9713 14.4525 12.011 -0.00269563 -0.00314893 -0.0011798 
C 41.4787 5.23864 26.9763 12.011 -0.00588267 0.00459398 0.00152546 
C 9.50558 8.78773 48.6429 12.011 -0.00364942 0.00434412 -0.00936092 
C 20.3555 42.6279 37.0243 12.011 -0.00654483 -0.00591128 -0.00482119 
C 31.6355 42.0108 44.8732 12.011 -0.00112625 -0.00653807 -0.000677515 
C 10.2891 4.45374 47.2727 12.011 0.00278636 -0.000279049 0.00354937 
C 27.3987 22.8685 7.96312 12.011 -0.00469595 0.00271999 0.00326311 
C 36.3881 31.8371 44.658 12.011 -0.005887 9.47774e-05 0.0037612 
C 41.6222 0.437653 41.7299 12.011 0.000603596 0.00266717 0.00361969 
C 27.8041 38.954 3.68784 12.011 -0.00313707 -0.000906944 -0.00283327 
C 43.1248 9.25828 5.35991 12.011 0.000568409 0.000965176 -0.000614119 
C 43.9167 22.4497 45.8128 12.011 -0.00253795 0.0012831 -0.00323959 
C 37.289 17.5384 14.4893 12.011 0.00691021 -0.00620103 0.00161067 
C 5.43216 24.0389 18.5928 12.011 -0.000189671 0.00824872 -0.00253547 
C 30.6208 15.7029 11.6356 12.011 0.00514634 -0.00106418 -0.00774209 
C 40.868 48.3839 30.6705 12.011 0.00759258 0.000428359 -0.00491369 
C 11.7624 17.1278 29.5773 12.011 -0.0014079 0.00650863 -6.88478e-05 
C 3.69583 35.8894 11.6686 12.011 0.00233948 0.00252347 0.0108586 
C 45.3051 29.8508 45.1817 12.011 -0.00378609 -0.00201949 -0.00129052 
C 7.76515 33.9848 11.3117 12.011 0.000120025 0.000576277 -4.44344e-05 
C 18.9179 17.5438 25.795 12.011 0.00468284 -0.0010986 0.0080051 
C 3.87851 33.0264 26.8309 12.011 -0.00387935 -0.00908968 -0.00649266 
C 8.08424 10.4803 8.78918 12.011 0.00665818 -0.00754391 -0.00399927 
C 26.3006 31.003 43.7169 12.011 0.00523348 -0.00202818 -0.00330104 
C 4.52978 45.18 32.1754 12.011 -0.00204699 0.000133872 0.00287785 
C 30.2642 36.2839 23.4419 12.011 0.00459655 -0.00591899 -0.00204421 
C 20.7826 28.2228 34.1921 12.011 0.00072139 -0.00822061 -0.0020657 
C 28.4342 13.4665 29.7687 12.011 -0.00132538 0.00237834 -0.00133315 
C 42.4435 3.62034 35.9117 12.011 -0.00168489 -0.000862215 -0.000707226 
C 18.8896 13.0985 46.8124 12.011 -0.00728282 0.00743373 0.00805348 
C 47.7187 15.1483 47.8353 12.011 0.000252411 0.00342938 -0.00345201 
C 21.5887 34.2096 42.7805 12.011 0.002289 -0.00150615 -0.0111837 
C 12.6066 41.8884 11.4941 12.011 0.00746319 -0.00293403 0.00142337 
C 33.3723 26.0383 18.252 12.011 -0.00724416 0.00107597 -0.00502955 
C 24.0566 30.1064 14.9876 12.011 -0.000987718 -1.40696e-06 -0.00469734 
C 41.8272 10.6976 43.0385 12.011 -0.000315754 0.00331159 -0.00181169 
C 43.4698 32.5262 16.7401 12.011 -0.00106174 0.000136909 0.00084324 
C 21.6471 29.2306 30.2888 12.011 -0.00486919 -0.00118172 0.00201382 
C 47.5252 35.3443 50.0583 12.011 0.00128257 -0.00312342 -0.000528653 
C 25.3899 47.489 43.8344 12.011 -0.00358456 0.00344142 0.00256454 
C 36.2184 21.0019 15.4609 12.011 0.00569309 0.00128699 -0.00165246 
C 15.6594 13.3559 31.7714 12.011 -0.000447438 -0.00150573 -0.00457897 
C 4.25242 26.1056 42.307 12.011 -0.00160509 -0.00559796 0.00479099 
C 31.959 21.5316 17.9738 12.011 0.00308949 -0.00388105 0.00331963 
C 17.6102 40.0625 40.3792 12.011 -0.00336295 -0.00327217 0.00235199 
C 36.9562 31.5741 13.0773 12.011 -0.00914671 0.00375151 -0.00295295 
C 22.6983 31.3622 35.5658 12.011 -0.00119496 0.00145547 0.00320669 
C 29.0086 10.9841 48.7484 12.011 0.00119965 0.00242979 -0.00735528 
C 16.0355 45.3827 41.7579 12.011 0.00120305 -0.00273296 -0.00119556 
C 6.72106 25.4399 17.0416 12.011 0.00425139 0.00441301 -0.00322681 
C 48.853 38.0975 35.9956 12.011 -0.00641228 0.00645225 -0.00167344 
C 26.3629 14.2798 44.9018 12.011 -0.000421693 -0.00191723 0.00606144 
C 2.85972 44.8483 48.7739 12.011 0.00846096 0.00934778 0.00592355 
C 48.4866 11.456 0.566373 12.011 0.00234021 -0.00529745 -0.00822606 
C 3.12876 6.26583 4.26106 12.011 0.00295533 0.000446031 0.00165381 
C 48.9155 37.096 11.3254 12.011 0.00461383 -0.000783087 -0.0030711 
C 9.18832 6.17687 18.7193 12.011 -0.00514689 0.0067545 -0.00428469 
C 39.208 36.252 7.39448 12.011 0.00346656 -0.000887516 0.00232331 
C 27.4816 39.5684 25.716 12.011 -0.00151403 0.00269704 -0.00805007 
C 50.0526 21.5583 26.1892 12.011 -0.00316519 8.53467e-05 -0.00316494 
C 16.714 4.14732 43.689 12.011 0.00432452 0.00181945 0.00352159 
C 11.6655 9.22047 16.8855 12.011 -0.00324165 0.0026321 -0.00433761 
C 41.5812 28.7621 26.4086 12.011 0.00815565 0.00201054 0.00248209 
C 41.4598 26.5165 38.171 12.011 0.00956323 0.0109697 0.00487109 
C 2.86341 24.0021 34.9122 12.011 -0.00597504 0.00641994 -0.00193461 
C 44.9434 38.6488 50.3547 12.011 0.00610168 0.00177936 -0.0134838 
C 15.6216 38.9688 48.7242 12.011 -0.00712357 0.00570114 0.00900602 
C 0.170021 45.0725 35.742 12.011 0.00297495 0.00221478 -0.00231358 
C 1.38734 32.0523 46.772 12.011 0.0120223 -0.00232049 0.00271835 
C 22.4343 48.9071 47.7473 12.011 0.00477166 -0.00199818 -0.00151566 
C 44.036 12.6728 39.0034 12.011 -0.00270502 0.000662399 1.8822e-05 
C 36.8272 5.67799 5.04182 12.011 0.00257514 -0.0056344 0.00182001 
C 3.081 23.7659 21.9781 12.011 0.00474885 -0.00312322 -0.00678686 
C 9.87032 49.8626 18.5428 12.011 -0.00212879 0.00941383 0.00430321 
C 29.6566 21.1878 48.5112 12.011 0.00263703 -0.00202267 0.00199972 
C 29.3463 30.0529 45.5914 12.011 0.00284753 -0.00472604 0.00325198 
C 3.57788 46.0946 48.3252 12.011 -0.00256375 -0.00909104 -0.00662837 
C 38.9932 32.6225 28.8043 12.011 -0.00973583 0.00494029 -0.00417056 
C 24.809 43.0285 41.726 12.011 -0.00184831 -0.00176182 -0.00320571 
C 7.36168 34.6296 7.94538 12.011 -0.00508218 -0.0052849 0.00213452 
C 42.9338 8.22571 31.617 12.011 -0.0011093 -0.00137296 0.000632212 
C 23.6153 46.4389 45.22 12.011 0.00524765 -0.00137873 0.000560812 
C 32.1176 46.6048 3.17583 12.011 -0.000717491 0.00478899 0.0006819 
C 31.7433 6.06391 8.12949 12.011 0.00102849 -0.00786294 0.00876746 
C 32.6793 11.2519 31.9548 12.011 -0.00221423 -0.00565318 0.00188538 
C 11.3081 11.1623 47.5152 12.011 0.000366533 0.00815845 -0.00387458 
C 6.2449 19.045 10.3648 12.011 0.000503862 -0.00465378 -0.00467915 
C 0.296044 48.9805 23.5149 12.011 -0.00732844 0.00259758 -0.00608366 
C 37.4616 34.9021 37.6601 12.011 0.00683278 0.00687637 0.00417262 
C 13.0236 1.79315 9.29599 12.011 -0.00166995 -0.000392505 0.00404783 
C 43.9013 32.4278 15.36 12.011 0.00268834 0.00417246 -0.000201464 
C 29.8146 5.35819 49.8213 12.011 0.00817357 -7.96617e-05 0.00707439 
C 8.96292 0.561791 11.8109 12.011 -0.007352 -0.000692871 -0.000343242 
C 39.1185 7.30491 18.7352 12.011 -0.00101962 -0.000893091 -0.00141103 
C 28.0316 35.5702 24.3017 12.011 -0.00251379 -0.00318209 -0.00465957 
C 13.3047 27.8558 7.15651 12.011 0.00275316 -0.000956223 -0.00993449 
C 49.138 48.5499 2.03938 12.011 -0.00494031 -0.00212053 -0.00595613 
C 48.8634 16.8432 46.8264 12.011 -0.00597383 0.00136349 -0.00791171 
C 36.3001 0.287662 24.4224 12.011 0.0015087 0.00703621 -0.00463541 
C 48.8255 46.1661 29.6633 12.011 -0.00193656 -0.00640051 -0.00283139 
C 26.8166 26.238 47.7173 12.011 0.00038523 0.00272817 -0.0046637 
C 34.8212 28.9283 9.27602 12.011 -0.00460937 0.00466045 0.00861379 
C 36.0334 3.2849 35.1936 12.011 0.00136155 0.00483674 0.00385648 
C 2.54579 0.229893 30.2068 12.011 0.00221247 0.00721264 -0.00262615 
C 3.14361 8.62286 19.3401 12.011 -0.00806023 0.00490298 -0.00570505 
C 21.5923 28.9552 31.6505 12.011 -0.00259249 0.00337576 -0.00174291 
C 29.0569 14.6267 37.0962 12.011 0.000990073 -0.000701201 0.00395378 
C 47.9312 10.9393 15.9586 12.011 -0.00182859 -0.00690726 -0.00232465 
C 32.3601 40.3695 35.6476 12.011 0.00450209 0.00422484 0.00717659 
C 15.9718 35.1592 35.8084 12.011 -0.00148361 0.00776033 -0.00752912 
C 20.7813 42.3521 20.2683 12.011 0.00454839 -0.000284751 0.0040745 
C 46.1612 41.9509 29.4413 12.011 0.00131237 -0.0037699 0.00131762 
C 23.7542 46.5606 22.928 12.011 -0.00437765 -0.00382542 0.0111629 
C 36.7326 47.7618 21.717 12.011 -0.00355025 -0.00422376 0.00494333 
C 8.93292 36.1728 25.5096 12.011 0.00656952 -0.00569632 -0.00702011 
C 4.1329 27.6371 11.7095 12.011 0.0005366 -0.00552549 -0.00615219 
C 24.306 19.9724 7.82065 12.011 -0.0073225 -0.00292244 0.00414996 
C 3.02157 26.0103 41.4225 12.011 0.00297093 0.000847244 -0.00285652 
C 27.931 40.2399 36.8448 12.011 0.0034583 -0.00574458 0.00439247 
C 32.7028 31.2671 5.13981 12.011 0.00120982 0.00299394 -0.00151369 
C 2.30145 44.446 4.4356 12.011 0.00721365 -0.00141861 -0.00399334 
C 14.3158 46.2469 15.714 12.011 0.00890121 0.00332319 0.00186304 
C 21.4024 0.0851982 2.37108 12.011 -0.0105239 0.0014456 -0.00671645 
C 12.7391 44.6556 10.8486 12.011 0.00684369 0.000305303 -0.00838648 
C 17.6124 16.3718 35.2146 12.011 -0.00302691 0.000295961 0.000341957 
C 18.8302 7.64758 32.1137 12.011 0.000155464 0.00757682 0.00585328 
C 21.4661 35.6247 18.0734 12.011 -0.00294981 -0.00440596 -0.000893676 
C 26.8676 30.9493 18.827 12.011 -0.000952761 -0.00453452 0.00338871 
C 35.3109 5.76594 10.4063 12.011 -0.00516688 0.00237224 0.00537085 
C 1.90103 9.22144 19.8007 12.011 -0.00249752 0.000263596 -0.0030862 
C 7.03939 47.5558 47.2914 12.011 0.00113657 -0.00137529 0.00958484 
C 38.7455 35.8393 45.8211 12.011 0.00157233 0.00271868 -0.00735897 
C 6.51899 48.7411 8.34649 12.011 0.00422896 0.00571504 -0.00711479 
C 44.4864 14.4601 9.72521 12.011 0.00154945 -0.00348871 0.00318661 
C 26.5119 49.4746 37.2344 12.011 -0.000115456 0.00319845 -0.00373597 
C 45.937 0.347385 0.0883294 12.011 -0.00014017 -0.00543931 0.00587647 
C 25.1375 3.56717 41.6459 12.011 -0.00219454 -0.00675785 0.0047926 
C 25.5685 34.4665 23.9388 12.011 -0.00289834 -0.0031372 0.00132977 
C 24.7595 47.2447 15.4228 12.011 -0.00439141 0.00620097 -0.00527836 
C 44.183 28.9187 45.5062 12.011 0.00381148 0.00264964 0.00377033 
C 47.767 44.3713 28.1349 12.011 -0.000336457 -0.00258074 -0.00174241 
C 25.2765 42.4669 19.0261 12.011 -0.00731219 0.00304175 -0.00270441 
C 4.00909 30.6651 44.5761 12.011 -0.000944358 -0.000189287 -0.00179152 
C 5.20474 19.7782 29.2127 12.011 0.00761189 0.00687152 -0.000308317 
C 6.63166 9.26432 10.2319 12.011 -0.00475027 -0.00392499 -0.00212682 
C 7.28419 28.9884 3.56158 12.011 0.000877591 0.00961272 -0.00785734 
C 22.5244 4.36079 2.94545 12.011 -0.00218161 0.00365786 -0.00711066 
C 39.9307 37.9313 46.3839 12.011 0.000274157 0.0086636 -0.00536943 
C 5.66725 14.563 24.7784 12.011 -0.000716977 -0.00247805 -0.00581256 
C 37.3115 20.9842 6.42302 12.011 0.00252248 0.00980005 0.00622003 
C 14.1662 26.6916 44.9701 12.011 -0.00422215 -0.00187031 0.00190038 
C 22.7844 22.3899 49.1045 12.011 0.00996752 -0.00591106 0.00574564 
C 12.5523 45.2002 19.4196 12.011 0.00334075 0.00261016 0.00051655 
C 18.2097 28.8223 33.7116 12.011 0.00463092 0.00589893 0.00277776 
C 13.07 18.7737 7.27015 12.011 -0.00685944 -0.00251089 -0.00961882 
C 19.9322 35.4712 22.022 12.011 0.00384831 0.0034887 -0.00301972 
C 32.2705 30.4581 13.0182 12.011 -0.00234905 -0.002982 -0.00428166 
C 16.6902 37.4312 5.28779 12.011 0.00330395 0.00142286 -0.00385677 
C 41.5335 4.10129 41.835 12.011 -0.00618203 -0.00324198 -0.0110313 
C 45.6617 47.7245 13.9141 12.011 -0.00258219 -0.00683553 0.00294778 
C 12.6338 30.1508 30.2183 12.011 -0.00169607 -0.00158833 -0.000943912 
C 26.5248 31.5231 3.48578 12.011 0.00447057 0.00246718 0.00731003 
C 3.91551 17.0565 33.3461 12.011 0.00206949 0.0022036 0.0146594 
C 1.4151 15.5921 24.8643 12.011 0.00662675 0.00399408 -0.00366827 
C 43.85 2.24082 3.16935 12.011 0.000286158 -0.00156895 -0.00276734 
C 45.6371 32.9386 4.6764 12.011 0.00119814 -0.00179996 0.0036033 
C 32.0005 48.9708 9.86629 12.011 -0.000511433 -0.00267837 -0.00219298 
C 37.9852 36.3544 13.13 12.011 -0.00262343 -0.00293714 -0.00903171 
C 34.651 22.8525 16.8851 12.011 0.00185885 -0.00338934 -0.00448496 
C 48.1181 37.3101 40.8273 12.011 0.000557602 -0.00168068 0.00210637 
C 7.51803 24.4108 27.3526 12.011 0.00706764 -0.00197136 -0.00585445 
C 41.7442 5.51817 47.3335 12.011 -0.000960814 -0.000587946 -0.00288695 
C 1.67741 26.9866 16.1173 12.011 0.00408503 -0.0156608 0.00831101 
C 39.7089 38.3438 35.0502 12.011 0.00514135 -0.000805323 0.00486128 
C 40.2416 13.0596 34.9001 12.011 -0.0031938 -0.00307706 -0.000891703 
C 31.7364 2.6737 2.79261 12.011 0.00529337 -0.000929436 -0.000849768 
C 26.1435 18.8058 35.2115 12.011 0.00750196 0.00106472 -0.0084487 
C 43.4721 47.4585 7.59355 12.011 -0.000153328 -0.00372944 0.00927413 
C 34.7993 42.3368 22.9422 12.011 -0.0111328 0.00658415 0.00666404 
C 48.553 3.27267 41.195 12.011 -0.00776227 -0.000401029 -0.00451758 
C 13.9439 37.8243 15.2925 12.011 0.0071425 0.00192852 0.000509524 
C 16.2138 35.768 39.5132 12.011 -0.0116431 0.00233735 6.36675e-05 
C 50.6656 14.6806 13.2815 12.011 -6.22871e-05 0.00255356 0.00443094 
C 41.1583 32.4479 12.1179 12.011 0.00244115 -0.00411653 0.00247525 
C 19.9953 40.8487 3.47141 12.011 0.00530274 0.00794114 -0.00364253 
C 32.5216 45.5493 11.465 12.011 -0.00292576 0.00299897 -0.0014052 
C 0.265186 38.0035 1.20007 12.011 -0.000177013 -0.00106919 -0.000903534 
C 28.5302 16.4583 13.3133 12.011 0.00450227 -0.000442348 0.000782356 
C 25.4861 25.2846 25.0065 12.011 -0.000385405 0.0052157 0.003847 
C 22.1152 14.152 39.3823 12.011 -0.000496306 0.00175946 -0.0065752 
C 36.4076 41.7937 18.453 12.011 -0.0075857 -0.00490655 0.00900643 
C 34.9852 22.6923 6.14059 12.011 -0.00117628 -0.00235142 -0.00221453 
C 47.9035 18.8819 20.607 12.011 -0.00456835 0.00120035 -0.0123031 
C 15.2784 5.23966 31.7481 12.011 -0.00160765 -0.00194662 -0.00293115 
C 38.1894 3.61068 10.0777 12.011 0.0064042 7.26354e-05 0.00279595 
C 8.16356 7.96958 31.2222 12.011 0.000853091 0.00290053 0.0031885 
C 26.6083 33.9597 3.74759 12.011 -0.00181704 -0.00141745 0.00424723 
C 9.33573 36.4473 47.6881 12.011 -0.00635946 0.0104107 -0.000818941 
C 49.4912 4.47565 19.2226 12.011 -0.00497453 0.00234851 0.000590633 
C 47.0222 43.2664 46.6875 12.011 -0.00138614 -0.0019623 0.00133922 
C 28.0213 1.45023 40.4797 12.011 0.000657779 -0.00389413 -0.00323522 
C 9.99977 30.3764 41.2207 12.011 -0.00919023 0.00187498 -0.00214272 
C 21.2694 14.4053 46.9078 12.011 -0.0012051 -3.89105e-05 -0.00885995 
C 12.3184 31.9288 14.4569 12.011 -0.0034803 -0.00229018 0.00111023 
C 19.8151 10.5237 36.9309 12.011 -0.00642529 -0.0021082 -0.00239257 
C 38.3192 28.7551 41.3606 12.011 -0.00282867 0.00220787 0.00177098 
C 13.0512 26.7132 40.6194 12.011 -0.00823822 0.000363508 -0.00113895 
C 14.23 6.86897 5.67432 12.011 0.00976983 0.000884155 -0.00348912 
C 49.8803 1.97131 29.1739 12.011 0.00462067 -0.00486457 0.00467598 
C 35.9315 4.97382 41.4117 12.011 0.00138234 0.00177698 0.003926 
C 13.8906 4.99621 29.2872 12.011 0.00634772 0.00602244 -0.00201612 
C 46.0597 21.4826 18.5145 12.011 -0.00212865 0.00283837 -3.17193e-05 
C 47.9791 27.0461 5.41023 12.011 0.00244953 0.00259923 -0.0042188 
C 46.4493 8.69446 38.411 12.011 0.00580604 -0.00377864 0.00794415 
C 34.5053 38.6932 32.9384 12.011 0.00372727 -0.00223162 -0.00416789 
C 20.8306 40.9034 44.1793 12.011 -0.00536289 -0.00202724 0.00366224 
C 38.3389 24.9296 39.3605 12.011 -0.000878902 0.00612173 -0.0138815 
C 40.8977 9.5541 24.7163 12.011 -0.00278511 -0.00171726 -0.00356604 
C 18.3236 5.45967 9.44923 12.011 -0.00467292 0.00579057 -0.000630144 
C 20.1315 4.38435 12.5 12.011 -0.00533069 0.0103681 -0.00636576 
C 5.11315 43.8402 48.2705 12.011 0.00293468 0.00135457 0.0012471 
C 35.8875 6.94777 10.9342 12.011 0.00226055 0.000590614 -0.00307386 
C 36.2107 46.3141 29.1023 12.011 0.0098085 0.000565374 -0.00127074 
C 19.9342 40.2355 37.5944 12.011 0.00116982 0.00310888 -0.000759237 
C 29.4093 31.4718 45.7223 12.011 -0.000625285 0.00281746 0.00826946 
C 29.5222 38.749 33.7968 12.011 0.00340054 0.00647528 0.000254113 
C 44.2187 24.425 36.5846 12.011 -0.00973015 -0.00203086 0.00802806 
C 26.2837 18.4881 32.6957 12.011 -0.00486931 -0.00176201 0.0141317 
C 12.6155 11.67 16.2358 12.011 -0.0021206 0.00280549 -0.00616901 
C 39.1427 29.8203 3.24767 12.011 -0.00157208 0.00690351 -0.00204595 
C 25.9642 19.2111 37.6968 12.011 -0.000389584 -0.00345082 0.00560517 
C 34.2057 47.5985 38.8749 12.011 -0.000156303 -0.00868484 0.00352623 
C 8.53992 18.0821 8.96719 12.011 0.00684462 0.00516247 -0.00468771 
C 12.5557 39.512 10.8985 12.011 -8.48858e-05 0.00414374 -0.00193723 
C 32.7425 48.2169 31.3573 12.011 -0.00475668 0.00386388 0.00328351 
C 39.9175 13.3585 7.70673 12.011 -0.0017405 0.00141878 -0.00557238 
C 23.758 15.6525 8.30394 12.011 -0.00255079 -0.000905596 2.77033e-05 
C 37.7082 48.4395 9.33338 12.011 0.00183308 0.00311674 -0.000272526 
C 19.7116 50.7584 38.6521 12.011 -0.0062589 0.0124959 0.00301139 
C 10.5218 36.8123 12.1123 12.011 0.00645555 0.00258052 -0.00497786 
C 33.335 43.0787 14.9578 12.011 -0.00731909 -0.00312596 -0.00238612 
C 23.1538 46.0251 28.9693 12.011 -0.00274656 -0.00557878 -0.00381655 
C 50.0894 15.1382 14.4365 12.011 -0.000375219 -0.00278095 -0.00184884 
C 45.8786 42.901 50.9813 12.011 0.0027473 -2.10872e-05 0.00327666 
C 21.9946 27.2184 38.8283 12.011 0.00808915 0.000591472 0.00259254 
C 20.5115 22.9448 38.0716 12.011 -0.00240718 0.000918018 -0.0056118 
C 0.425953 27.4843 45.4239 12.011 -0.00222828 -0.00358989 0.00680743 
C 9.99232 37.0832 4.78592 12.011 -0.00043206 0.00582178 0.00308127 
C 7.18344 45.1419 47.6328 12.011 2.0182e-05 -0.000889855 0.000286865 
C 24.438 26.0945 25.552 12.011 0.00277536 0.00325707 -0.000204897 
C 45.1971 33.1148 29.6569 12.011 -0.00630999 -0.00665443 0.00371804 
C 23.1729 24.4681 30.7163 12.011 0.00402953 0.00810558 0.00464077 
C 22.2552 20.794 33.2931 12.011 -0.00664082 -0.00574614 -0.00208088 
C 39.2422 18.7848 14.8787 12.011 -0.0098261 0.00649513 -0.00478388 
C 40.5861 0.35906 1.5226 12.011 0.00132196 0.00979294 0.00783213 
C 16.8875 37.7126 40.8263 12.011 0.0010382 -0.00175826 0.0013865 
C 47.6158 8.73864 47.0866 12.011 -0.0019557 0.0051814 -2.22973e-05 
C 33.9748 27.6399 48.9552 12.011 0.00138134 0.00224033 -0.00164794 
C 0.735007 3.51496 12.2273 12.011 -0.00158747 -0.00810597 0.0019625 
C 5.32719 27.6441 4.4256 12.011 -0.00698421 0.00314884 -0.000303502 
C 48.4185 8.25732 46.0161 12.011 -0.00133957 -0.00225402 0.00373068 
C 48.8025 30.1162 43.338 12.011 0.00354901 0.00707045 0.00971333 
C 5.27102 39.603 41.4811 12.011 -0.0026059 0.000837991 0.00625548 
C 40.753 8.53023 45.6046 12.011 0.00274735 0.00226042 0.00422785 
C 43.3256 4.00033 1.59855 12.011 0.00482837 -0.000161291 0.00522068 
C 18.7828 19.5938 40.4235 12.011 -0.00915739 -0.00332196 0.0046362 
C 35.6432 24.1451 39.1015 12.011 -0.00121256 -0.00462109 0.000671715 
C 46.7071 39.8055 28.5342 12.011 0.00502208 -0.00430996 -0.00556016 
C 36.8727 40.4762 26.5124 12.011 -0.00273385 -0.00774613 0.00559901 
C 47.1579 21.8844 37.0189 12.011 0.00275627 0.00214867 -0.00436359 
C 34.1121 9.38528 47.3967 12.011 -0.00426609 -0.00184894 0.00426056 
C 25.3852 1.49192 12.6274 12.011 0.00270347 -0.00277659 0.00167757 
C 28.9614 14.9288 44.2744 12.011 0.00204944 0.00332861 0.00808844 
C 48.3176 16.2181 1.83805 12.011 -0.00588037 0.00976628 -0.00259544 
C 6.66536 24.8545 21.4994 12.011 0.0049842 -0.00490935 0.000910929 
C 48.9412 22.3827 0.785001 12.011 8.29964e-05 0.00196715 0.00434669 
C 21.7746 33.8063 40.3327 12.011 -0.00353616 0.000236163 -0.00371241 
C 33.3756 10.5405 47.3438 12.011 -0.000726395 0.000594461 0.0014613 
C 36.0524 27.3042 23.9159 12.011 -0.00375198 -0.00127479 -0.000122553 
C 13.4316 3.81819 35.5138 12.011 0.00244265 0.00403445 -0.0032088 
C 3.48073 30.1792 16.8191 12.011 0.0041343 0.0087184 0.00339452 
C 7.1263 8.4043 48.6461 12.011 0.00232491 0.00213824 0.00665305 
C 44.4757 50.0804 47.8903 12.011 0.00702984 -0.00524689 0.00345943 
C 14.8752 22.8232 5.22311 12.011 0.00677885 -0.00474741 0.00740422 
C 19.6733 36.2078 1.82949 12.011 0.00253433 0.00454314 0.00121423 
C 22.6313 28.5112 38.8985 12.011 0.00334975 0.00474657 0.0111786 
C 23.8819 30.9245 39.1956 12.011 -0.00524381 -0.00115014 0.00099487 
C 47.579 44.2511 40.1703 12.011 -0.00324439 -0.00384307 0.00637983 
C 37.0174 47.0401 35.8715 12.011 -0.00472601 0.00356751 0.00820528 
C 18.8007 10.8987 44.328 12.011 0.000657287 -0.00434638 0.00305004 
C 46.9236 39.1005 24.7674 12.011 -0.00032504 0.00092431 0.00284373 
C 23.2022 48.3483 38.1056 12.011 0.00210163 0.0013383 0.00591882 
C 43.0422 3.52124 25.954 12.011 0.00190558 -0.00378435 -0.00118269 
C 44.3504 43.1559 21.4251 12.011 -0.00137017 0.000298825 0.00235551 
C 21.5775 17.5905 27.5393 12.011 0.00699906 0.00858367 -0.00317633 
C 17.6319 46.3579 40.3317 12.011 8.39032e-05 -0.00396537 5.23571e-05 
C 8.74883 39.5969 4.04454 12.011 -0.00198854 -0.00165179 0.004594 
C 39.4306 20.0591 39.6614 12.011 0.000587531 -0.00813107 0.00361116 
C 25.1118 25.0138 0.975837 12.011 -0.00763962 -0.00203416 0.00809159 
C 24.7921 20.4696 19.4923 12.011 -0.000194428 0.00552782 0.00346079 
C 50.2941 3.55524 12.2508 12.011 -0.00267732 0.00178091 0.00705836 
C 50.1445 0.699811 31.7528 12.011 -0.0142769 0.00445611 0.00102827 
C 19.1773 10.1653 38.1005 12.011 0.00525887 -0.00576656 0.00166306 
C 28.6334 13.6066 4.22073 12.011 -0.00192457 0.00214013 -0.000438606 
C 44.1801 35.7766 0.782986 12.011 -0.000950871 0.00308606 0.00695967 
C 45.036 35.7504 27.2595 12.011 0.0032459 -0.00197352 -0.00800254 
C 22.088 42.4969 19.7066 12.011 0.00290229 0.0106403 -0.00167905 
C 38.3386 49.2055 46.5265 12.011 -0.00716763 -0.00722162 -0.000302091 
C 12.0018 21.6299 26.4475 12.011 -0.00878515 0.00173957 -0.00174966 
C 41.421 22.0792 9.34866 12.011 0.00169005 -0.00445958 -0.00046523 
C 8.97719 2.59046 10.4268 12.011 0.00294066 -0.00379803 0.00445339 
C 26.084 21.2183 6.82008 12.011 -0.00427462 0.0023797 0.00618405 
C 15.6828 47.1702 5.65782 12.011 0.0017868 -0.00485944 -0.00142905 
C 9.28461 43.9241 47.2567 12.011 0.00127161 0.00463641 -0.00114102 
C 28.6881 12.689 18.569 12.011 -0.00309682 -0.00480592 0.00177336 
C 34.9497 41.2536 43.1853 12.011 0.00127741 -0.00722501 -0.00195502 
C 46.8007 6.04285 28.1986 12.011 -0.000784701 0.0011002 0.00109991 
C 0.744151 1.60046 45.6095 12.011 0.00492642 0.00173793 0.00126481 
C 19.7971 44.3603 47.7003 12.011 -0.00436448 -0.00209466 0.00113932 
C 25.5533 26.9814 23.262 12.011 0.000634845 0.00127842 0.000432686 
C 22.0386 28.7244 27.9397 12.011 -0.00144432 0.00834261 -0.00265959 
C 22.2453 3.24507 7.80581 12.011 0.00200513 0.00299444 0.00172098 
C 31.5602 13.2 30.0886 12.011 0.0068423 0.00325359 -0.00359879 
C 10.8306 19.6579 8.60424 12.011 -0.000133335 -0.00227108 0.00454757 
C 38.036 23.9018 17.6878 12.011 0.00202873 0.00130399 0.00113049 
C 6.48281 14.607 23.5864 12.011 0.00160741 -0.000438539 -0.00137274 
C 16.9154 38.1097 23.285 12.011 0.000202593 -0.00600292 -0.000566648 
C 44.1652 26.3956 2.58269 12.011 0.00375491 -0.00149129 0.00164934 
C 36.6475 44.764 22.4279 12.011 0.00261335 0.00960453 0.000927867 
C 29.5579 1.06728 31.6326 12.011 -0.00598498 0.00112304 0.00146161 
C 42.0849 50.5452 44.5869 12.011 0.00194841 -0.000989949 -0.00126285 
C 37.1886 40.4356 42.1378 12.011 -6.85453e-05 0.000596501 -0.00268651 
C 28.9743 21.2444 2.05159 12.011 -9.68637e-05 -0.000351345 0.00618997 
C 12.516 1.54863 44.9842 12.011 0.001421 0.00103654 0.00145139 
C 29.9904 42.6593 17.5698 12.011 0.00110949 0.00850716 -0.00585736 
C 34.829 23.9056 32.8028 12.011 0.00599547 -0.00332687 0.000342559 
C 42.7007 0.428961 6.75606 12.011 -0.00910434 0.00389822 -0.00634552 
C 23.4369 8.65853 18.538 12.011 -0.00142173 0.000718562 -0.00291186 
C 3.94755 12.877 13.774 12.011 -0.00618214 0.00597091 -0.00329475 
C 8.94795 34.6969 16.9725 12.011 0.00463378 0.00181152 -0.0040454 
C 42.2119 5.02052 48.6207 12.011 -0.00649617 -0.00357771 -0.000657717 
C 31.6408 10.739 20.0458 12.011 -0.004318 -0.00237527 -0.00361224 
C 44.7247 44.3169 8.83183 12.011 0.000462966 0.00554367 0.00702006 
C 28.2067 8.18148 19.3012 12.011 -0.00381042 -0.00229466 -0.000452141 
C 39.3988 9.85591 20.0444 12.011 -0.00787755 -0.00363169 -0.00836123 
C 12.0944 14.9425 46.9268 12.011 0.00370249 0.00247633 -0.00815776 
C 10.2354 23.2002 30.6842 12.011 0.000653022 0.00463995 0.00360565 
C 31.9303 37.0925 20.3176 12.011 0.00857832 -0.00160319 -0.00489952 
C 4.16582 19.3623 34.0984 12.011 -0.00140597 -0.00248387 0.0047823 
C 28.4686 24.3515 21.419 12.011 -0.00214321 0.00319778 0.000295498 
C 24.2689 3.80271 34.7187 12.011 -8.22403e-05 -0.00266008 -0.0014316 
C 34.8969 26.5697 7.66526 12.011 0.00366531 0.000458669 -0.00271211 
C 41.9679 14.3517 43.1392 12.011 -0.00148888 -0.00182545 0.00746089 
C 46.5363 35.2515 0.0434933 12.011 -0.00659819 0.000575057 0.00934786 
C 1.41757 26.6861 46.1555 12.011 0.00649755 -0.00981762 -0.00845419 
C 36.7925 10.0857 19.7617 12.011 0.00659062 -0.00284234 0.00670619 
C 32.0786 15.4316 20.74 12.011 -0.00617689 -0.00651868 -0.00732254 
C 15.1753 48.4983 28.2331 12.011 0.00604386 -0.00174909 -8.15964e-06 
C 1.10929 27.2321 4.67435 12.011 -0.00510993 0.000773978 0.00235088 
C 44.3683 20.8115 2.37465 12.011 0.000650044 0.00798568 -0.00901029 
C 9.11467 30.1642 2.44233 12.011 -0.00111412 0.00273772 -0.0111056 
C 5.46403 27.2177 11.6899 12.011 0.000992443 0.0069894 -0.000935326 
C 34.9439 13.2118 44.3567 12.011 -0.00486381 -0.00959595 -2.48959e-05 
C 0.910651 16.3526 7.57854 12.011 0.00265329 0.000175707 -2.54231e-05 
C 5.3954 26.2162 28.7093 12.011 0.00355027 -0.00438026 0.00197762 
C 14.7985 46.7957 6.69798 12.011 -0.00343498 0.0015011 -0.00548792 
C 36.9666 35.5192 4.69529 12.011 0.00652654 0.0022517 -0.00247506 
C 24.2659 42.1069 12.1285 12.011 -0.00745305 -0.00659052 -0.00456932 
C 5.40205 43.1985 26.3259 12.011 -0.00425186 -0.00314291 0.00473845 
C 47.9002 20.8757 45.897 12.011 -0.0125218 0.000974128 0.00166272 
C 40.4936 9.29823 35.1767 12.011 0.000495187 0.00701728 -0.000682447 
C 48.5571 20.1778 18.5004 12.011 -4.98001e-05 -0.00269052 -0.000514422 
C 22.0761 26.5944 31.1163 12.011 0.00715808 0.000870125 0.00687036 
C 1.67554 20.9466 36.1396 12.011 -0.00565069 -1.61305e-05 -0.00358833 
C 23.7892 23.3386 48.6114 12.011 -0.00213611 -0.00566038 0.00533106 
C 15.4801 48.4793 5.24698 12.011 -0.00713891 -0.00395128 0.00900536 
C 7.69145 48.7932 47.0593 12.011 -0.0131044 -0.00535103 -0.000336942 
C 31.3128 2.47887 28.0811 12.011 6.98879e-05 0.000459808 0.00317695 
C 36.4169 6.00882 49.9332 12.011 0.00509767 0.00339564 0.00629025 
C 49.2971 38.4899 8.72122 12.011 0.00376575 0.00120949 0.00433325 
C 6.89535 22.9174 16.9841 12.011 -0.00203308 -0.00171211 0.00105659 
C 11.9908 15.7988 29.0844 12.011 0.00547106 -0.00334586 0.00397882 
C 45.2524 32.055 15.0493 12.011 0.00579194 -0.00358642 0.00265164 
C 45.2366 50.0831 49.0694 12.011 0.0017317 0.00369491 0.00739267 
C 15.8928 18.4288 45.5088 12.011 0.00416416 -0.00927487 -0.00217784 
C 8.26651 30.1396 34.9393 12.011 0.00270877 -0.00240517 -0.000181449 
C 27.268 40.5146 23.4534 12.011 0.000734827 0.004292 -0.00205706 
C 41.6237 37.0857 8.14839 12.011 -0.00693486 0.000293639 0.000526028 
C 30.6637 23.0302 35.5438 12.011 0.000892653 -0.00059398 -0.00324149 
C 36.1574 42.4807 0.631695 12.011 0.00550768 -0.00546111 0.00857649 
C 16.0355 14.0368 50.098 12.011 -0.00423786 0.00186039 0.000140026 
C 16.6977 41.6855 42.102 12.011 0.00189536 0.00460221 0.000611052 
C 7.80266 40.1313 40.0911 12.011 -0.00317033 -0.00675299 -0.000728115 
C 29.9747 25.4222 43.8994 12.011 0.00313085 0.0036627 0.00821038 
C 14.491 15.5847 43.9183 12.011 -0.00260419 0.00339805 -0.00313348 
C 42.9801 47.4987 42.634 12.011 -0.000813911 0.000472573 -0.00784187 
C 0.355494 25.5236 34.6128 12.011 -0.000734479 -0.00200012 -0.00504326 
C 18.5663 30.8215 40.7009 12.011 0.0084678 -0.00328816 0.010876 
C 39.3735 42.8042 46.8416 12.011 -0.00157556 -0.000538801 -0.00316821 
C 7.87255 33.6271 45.6413 12.011 0.00260032 -0.00335097 -0.012898 
C 20.2807 5.14961 3.6127 12.011 0.00167891 0.00376875 0.00169904 
C 13.5844 7.11914 0.885402 12.011 2.57193e-05 0.000653664 0.00118876 
C 5.42602 50.6795 12.5668 12.011 -0.00145219 0.000993429 0.00250751 
C 37.2595 33.7564 35.526 12.011 0.00148247 -0.000311313 -0.0028799 
C 42.8424 1.25609 35.3937 12.011 -0.000406548 0.000763759 -0.00370373 
C 50.6493 34.2866 36.0011 12.011 0.00107708 -0.00442716 -0.00272426 
C 28.6001 33.834 11.5975 12.011 -0.00460523 0.00353084 -0.00285009 
C 31.0951 18.4106 1.35786 12.011 0.00702757 -0.00586153 0.00179847 
C 20.458 39.8433 43.3451 12.011 -0.000214588 -0.00608323 0.00408752 
C 6.63567 40.8408 39.6255 12.011 0.00419313 0.00764627 -0.00613681 
C 7.83852 47.2183 2.46466 12.011 -0.00483952 0.00131474 -0.00242116 
C 24.866 20.1353 17.0529 12.011 0.000862454 -0.00470684 0.00182126 
C 46.615 15.1223 43.958 12.011 -0.00512481 -0.00710605 0.000465935 
C 34.0811 1.00272 9.30154 12.011 0.00127304 -0.00555398 -0.00345845 
C 42.0638 9.51905 42.2339 12.011 0.0051294 -0.00298261 0.00202438 
C 29.5191 8.74492 19.4279 12.011 -0.00146459 -0.00375663 0.00139572 
C 44.9916 14.7717 36.0032 12.011 0.0038699 0.00699467 0.0021538 
C 31.3696 12.5492 49.8054 12.011 0.00868004 -0.00300877 3.81916e-05 
C 32.8285 11.1336 48.5841 12.011 0.00290105 -0.00835392 -0.000789344 
C 28.9394 9.8975 1.20778 12.011 -0.00376427 -0.00896347 0.00234278 
C 10.2871 35.9659 40.4711 12.011 0.00570228 0.000281655 0.00337152 
C 39.8256 11.7158 47.7132 12.011 0.00620792 -6.22126e-05 0.00334983 
C 13.8299 26.3096 46.3042 12.011 0.000596422 0.00108437 -0.00335414 
C 47.9278 27.4893 50.8401 12.011 0.000376723 0.00358143 -0.0097365 
C 17.1457 18.6056 44.841 12.011 0.0015765 0.00121177 -0.00229532 
C 30.631 4.35527 43.8674 12.011 0.00287921 -0.00951352 0.00374314 
C 35.4323 24.6041 30.4814 12.011 0.00128127 0.0011517 -0.00131401 
C 2.51962 0.951988 35.275 12.011 -0.0111159 -0.000182358 -0.00463844 
C 39.6883 5.13503 17.4946 12.011 0.00619481 -0.00838255 -0.00304235 
C 3.21796 13.6997 14.7919 12.011 0.00682429 0.00527256 0.00511089 
C 10.1078 32.0585 45.1399 12.011 -0.000465738 -0.0107619 0.00465551 
C 15.6933 5.59707 35.5506 12.011 -0.00487718 -0.00470897 0.00942411 
C 37.7128 9.25998 6.52591 12.011 -0.000545103 -0.0046198 0.00555775 
C 23.8727 45.5996 30.1244 12.011 -0.00264955 -0.000995839 0.00162996 
C 34.8723 0.693477 26.3994 12.011 0.00293563 0.00499741 0.00382892 
C 29.7538 14.1524 50.9435 12.011 -0.00719633 -0.00327336 0.00289298 
C 32.4184 4.59815 4.62122 12.011 0.00197227 -0.000367107 -0.00160121 
C 7.71866 48.6974 17.9168 12.011 -0.00662311 0.0034405 -0.00580787 
C 1.43688 37.1933 16.1268 12.011 0.00104446 0.000219105 -0.000481193 
C 5.7415 6.11853 20.3659 12.011 -0.00591781 -8.28893e-06 0.00956752 
C 11.498 35.8599 3.59013 12.011 -0.000788106 0.00720472 0.00966828 
C 44.882 47.3073 5.43354 12.011 -0.00379338 -0.00515333 0.00396722 
C 17.422 48.1386 24.0246 12.011 0.00405068 0.0035948 -0.00446572 
C 21.5047 25.9198 33.6793 12.011 0.00283588 0.00526056 -0.00531668 
C 6.44385 42.3075 32.6935 12.011 0.000459494 0.00390784 -0.00324312 
C 42.3255 14.9607 16.755 12.011 0.00423721 -0.00718668 -0.00454328 
C 13.4259 47.6746 29.7921 12.011 0.00187115 -0.00281821 -0.00434511 
C 3.87285 41.3192 48.3655 12.011 -0.00412159 -0.0006644 -0.00320596 
C 29.0836 13.4489 5.55324 12.011 -0.00252177 -0.00393887 0.00273474 
C 9.31545 20.7845 45.5101 12.011 0.00430412 0.000733053 -0.00735727 
C 6.78106 48.8296 14.3455 12.011 0.0043629 0.00400592 -0.00207137 
C 25.972 24.1599 25.6505 12.011 0.00168425 0.00380374 -0.000122735 
C 21.2472 33.4072 8.43648 12.011 0.000494313 -0.00561537 -0.000450289 
C 32.9866 49.8021 39.402 12.011 -0.00518611 0.00233436 -0.00368191 
C 3.86885 15.1908 38.752 12.011 0.000609103 0.0029276 -0.00890613 
C 14.657 40.6814 50.2135 12.011 0.00131303 -0.00631271 -0.00219044 
C 36.2866 35.7967 11.492 12.011 -0.00698243 -0.00755558 -0.00590174 
C 48.0657 27.4009 44.9713 12.011 -0.00236482 0.00280001 0.00130218 
C 30.3787 25.901 48.9149 12.011 -0.00991995 0.00465041 0.000426057 
C 24.8931 15.6146 9.18083 12.011 0.00332377 -0.00448832 0.0043055 
C 19.9101 43.094 38.395 12.011 -0.00463511 -0.00199349 0.00145766 
C 19.2733 41.8636 4.16265 12.011 0.00571808 0.00462021 0.000599307 
C 39.3848 8.28689 27.8983 12.011 -0.00108406 -0.000322369 0.00179576 
C 9.54732 50.9421 19.4574 12.011 -0.00400094 -0.00464563 0.00160165 
C 19.0747 42.189 39.0813 12.011 5.35589e-06 0.00834947 -0.00497426 
C 47.758 13.6273 33.8288 12.011 0.0111177 -0.00319621 -0.00374885 
C 19.5491 28.4573 8.25671 12.011 -0.00134747 0.00271657 0.00146401 
C 29.0591 41.6395 19.8004 12.011 -0.00290595 -0.00189635 0.00242044 
C 21.9587 5.6448 31.8469 12.011 0.00435858 -0.00813532 0.00477914 
C 29.6722 47.1518 33.131 12.011 0.00406131 -0.00357422 -0.00897297 
C 4.9985 46.1842 48.0729 12.011 0.00967244 0.0081133 -0.00586695 
C 9.92796 12.1454 23.5646 12.011 0.00237382 0.00234556 -0.0112032 
C 13.1833 27.8409 39.83 12.011 0.000184175 0.00338624 0.00955055 
C 11.4585 24.4626 22.0634 12.011 0.00255072 0.00168439 0.000138639 
C 18.2289 35.6301 32.3314 12.011 -0.0030542 0.00138044 0.000439383 
C 12.2476 6.06789 47.1285 12.011 -0.00610762 -0.000489747 -0.00919655 
C 34.0018 3.42806 9.45134 12.011 0.00551058 -0.00864985 -0.0107495 
C 24.906 48.7345 44.3475 12.011 -0.00560366 -0.00275377 0.00413537 
C 22.2801 15.2774 49.4917 12.011 -0.00506139 0.00345091 0.00324572 
C 5.64162 36.5257 48.4126 12.011 0.00499716 -0.00531539 -0.00492825 
C 39.0335 23.6447 33.6922 12.011 -0.00316381 0.00202037 0.00463618 
C 42.4625 12.508 32.0639 12.011 -0.00557826 -0.00216589 -0.00456476 
C 27.8948 36.1756 17.5423 12.011 0.00230275 0.000401099 -0.00446687 
C 3.37579 14.8134 32.5392 12.011 0.00331938 0.00394653 -0.00775681 
C 42.6936 50.1459 45.7695 12.011 -0.00260617 -0.00124732 0.010743 
C 21.0596 17.1954 12.3358 12.011 -0.00704622 -0.000452469 -0.00624645 
C 34.76 17.6731 33.8858 12.011 0.000114857 -0.00308852 -0.000970935 
C 13.7847 36.5021 8.17478 12.011 -0.00449069 0.00400962 -0.00431426 
C 6.05915 22.4828 28.7054 12.011 0.00557224 -0.00236809 0.00868348 
C 13.3985 50.3152 0.941538 12.011 -0.00131633 -2.48127e-05 0.000836982 
C 36.7568 5.30503 48.7386 12.011 -0.000892143 0.00189124 -0.000724143 
C 40.649 31.1826 10.0213 12.011 0.000747987 -0.00173769 0.000652224 
C 1.15448 45.8922 31.1395 12.011 -0.00776977 0.0071841 -0.000527883 
C 39.747 9.21443 26.8616 12.011 0.000802198 0.00175248 0.00703267 
C 46.6778 39.1026 29.8461 12.011 0.00539508 -0.00444795 0.00515426 
C 34.8063 9.59546 45.0689 12.011 0.00690168 0.00538005 -0.00393425 
C 14.3498 25.9398 24.0842 12.011 -0.00244866 0.00426804 0.00727817 
C 23.623 6.15447 22.5115 12.011 0.00202919 0.00151179 -0.00302471 
C 37.063 35.5025 9.16333 12.011 0.000778892 -0.00177458 -0.000437531 
C 35.1302 8.20504 10.8678 12.011 -0.00297842 -0.00313628 0.00258737 
C 29.8188 6.32365 50.8874 12.011 0.00643381 0.00414016 0.00173723 
C 22.2174 47.7375 3.0816 12.011 0.00350385 0.00193829 -0.00211794 
C 43.4771 6.64743 8.18468 12.011 -0.000716968 -0.00436911 -0.00792995 
C 30.341 2.17825 0.829268 12.011 0.00197507 -0.00705289 -0.000932369 
C 43.8766 44.5309 1.71259 12.011 -0.00653803 0.00581221 0.00274847 
C 47.7546 39.4846 23.6187 12.011 -0.00492895 -0.00610797 -0.00631548 
C 39.137 10.5493 26.7881 12.011 0.00116379 -0.00719951 0.00625179 
C 47.4741 7.79337 0.344736 12.011 0.000679551 0.00464505 0.00227413 
C 48.8459 4.99654 27.1301 12.011 -0.00904477 -0.00497066 0.00278578 
C 21.4897 24.8355 39.6821 12.011 -5.45247e-05 -0.00361255 0.0049625 
C 19.067 24.7269 23.0286 12.011 -0.00560129 -0.00183269 -0.00195271 
C 4.50048 36.4618 13.9548 12.011 0.00121385 -0.00246857 -0.00336191 
C 26.5865 36.7777 40.0224 12.011 0.00823966 0.0081476 -0.000723945 
C 21.6591 48.757 48.9396 12.011 -0.00231683 0.0102541 0.00215952 
C 23.1685 42.8201 17.5063 12.011 -0.000819838 0.00109637 -0.00183342 
C 39.372 19.8006 42.2691 12.011 -0.00500182 -2.8349e-07 -0.00962304 
C 17.2947 17.5588 40.7308 12.011 0.00199241 0.00821082 -0.00649575 
C 15.6824 40.3021 49.1714 12.011 -0.000919594 0.00488718 -0.00150957 
C 3.07383 4.8431 4.16634 12.011 -0.00244749 -0.00373982 0.00335258 
C 2.403 46.3172 14.4794 12.011 -0.000763284 -0.00928264 0.00357811 
C 38.0048 28.4412 46.9636 12.011 0.004616 -0.00281449 0.00261317 
C 23.5827 49.8041 5.77032 12.011 0.0124158 0.00060497 0.00130491 
C 41.1752 9.11354 8.11214 12.011 -0.000369804 0.00157766 -0.00514386 
C 33.4068 48.8263 19.3517 12.011 0.00199683 -0.00142189 0.00151106 
C 44.449 46.0618 41.3777 12.011 -0.00516214 0.00247437 0.000689263 
C 42.8936 3.30756 6.54378 12.011 0.00609492 0.00174942 -0.00582401 
C 18.352 47.3353 33.905 12.011 -0.00173636 0.00333641 0.000353294 
C 37.4196 15.9661 36.434 12.011 -0.000578982 0.00218983 -0.00347828 
C 15.3192 8.75959 11.345 12.011 -0.00367811 0.00396752 0.005803 
C 36.3338 26.2477 26.9616 12.011 -7.34342e-05 0.00195166 -0.00364101 
C 10.9954 28.968 9.62462 12.011 -0.00653543 -0.000618576 -0.00111162 
C 38.5724 12.5318 37.0674 12.011 -0.00550087 -0.00210151 -0.00530894 
C 49.7343 13.4567 32.13 12.011 -0.00203306 0.00107178 0.00168888 
C 2.29475 30.8335 10.9359 12.011 -0.00173114 -0.00116009 -0.00122762 
C 3.40732 26.2753 4.99166 12.011 -0.000186663 0.00728045 -0.000167668 
C 36.5993 34.1847 46.2867 12.011 -0.00239111 -0.00263932 0.00350542 
C 45.5155 16.5114 34.3747 12.011 -0.00591804 -0.00517043 0.00401726 
C 12.9564 6.87464 6.32291 12.011 0.00452013 -0.00144111 0.0020298 
C 27.8653 15.9037 15.604 12.011 -0.00279212 0.00281563 0.00399106 
C 42.2342 45.944 29.8627 12.011 0.000242171 0.000142835 -0.00319426 
C 23.1723 5.45929 18.4274 12.011 -0.000812688 -0.00221941 0.00351064 
C 41.9834 1.19026 7.6816 12.011 -0.0042487 0.00845277 -0.00535929 
C 4.64303 13.0219 26.6426 12.011 -0.00797076 -3.26069e-05 0.00394275 
C 22.6432 38.3378 34.7289 12.011 -0.00204622 0.011045 0.00156525 
C 26.9954 5.95797 19.7189 12.011 -0.00246388 0.00107921 -0.00471297 
C 15.7706 2.99227 5.72262 12.011 0.00035506 -0.00474505 0.00562802 
C 42.7381 12.1321 41.422 12.011 -0.0057979 -0.00638241 -0.00755025 
C 48.989 22.323 15.3157 12.011 0.00437766 -0.00523059 0.00538301 
C 27.7365 43.3839 6.11185 12.011 0.000941472 0.00169311 0.000175551 
C 3.92085 20.0922 21.6093 12.011 -0.000461168 0.00326278 -0.00240461 
C 24.6131 2.65992 7.33046 12.011 0.00617116 0.00125556 0.00350544 
C 27.5457 5.40356 38.179 12.011 0.00153814 0.00313447 0.00595538 
C 23.6155 42.2882 13.3797 12.011 0.00646017 0.00394323 -0.00137255 
C 46.5613 46.2964 28.9065 12.011 -0.00141784 -0.00121243 -0.000925037 
C 42.0642 43.29 23.1762 12.011 0.00428985 -0.00492922 -0.00848052 
C 39.1513 41.2021 44.5154 12.011 -0.00320232 -0.00221564 -0.00294774 
C 46.4658 15.7458 33.7582 12.011 0.00417005 0.000139599 -0.00562962 
C 24.6091 3.37184 2.17095 12.011 -0.00402172 0.00477767 0.00652931 
C 40.4572 0.132443 50.0174 12.011 0.0100959 0.00220231 -0.00198686 
C 9.416 36.706 13.0571 12.011 -0.00592066 -0.000378585 0.00351815 
C 38.5724 24.3415 46.2658 12.011 -0.00476343 0.00214899 0.00491078 
C 22.4724 47.6744 46.9796 12.011 -0.0069331 -0.00460967 -0.00527084 
C 47.2116 24.7468 26.7205 12.011 0.00357699 0.00573998 -0.00033357 
C 6.34277 1.05801 26.5991 12.011 0.00192771 -0.00572673 0.00329511 
C 8.96799 4.25261 47.6667 12.011 -0.000288437 0.00242086 0.00518623 
C 42.818 36.6013 12.3679 12.011 -0.00484352 -0.00151028 0.00257981 
C 33.5579 15.7672 22.6274 12.011 -0.00897296 -0.00406593 0.0017504 
C 26.4417 10.2571 38.0127 12.011 0.00395678 -0.00359143 -0.0027804 
C 5.69299 25.8029 11.7611 12.011 -0.00123662 0.0103609 -1.3422e-05 
C 24.0255 44.0444 2.15899 12.011 -0.00440285 -0.00752373 -0.00233139 
C 50.9845 17.2084 6.86714 12.011 0.00476886 0.00110194 0.00543406 
C 11.6067 17.0718 1.99829 12.011 -0.000277715 -0.00588511 -0.00915695 
C 40.0073 40.8845 45.5626 12.011 -0.00651823 0.0105392 -0.00367181 
C 29.7587 39.203 26.6845 12.011 0.00804285 -0.000283277 -0.00136562 
C 50.4577 32.3798 18.542 12.011 0.00213642 0.00347004 -0.00133565 
C 34.4509 3.19736 5.13561 12.011 0.00516037 -0.00488201 -0.000473478 
C 3.94885 16.6385 30.9625 12.011 0.00274455 0.003165 0.00380615 
C 15.777 47.8197 41.1161 12.011 0.00326218 0.000297791 -0.00257322 
C 34.6904 25.3345 23.5038 12.011 0.00419557 0.00200134 0.00411071 
C 9.60502 21.5395 9.80105 12.011 -0.00272556 -0.00403444 -0.00688518 
C 8.97065 19.3972 15.5328 12.011 -0.0035874 -0.0074651 -0.00234081 
C 22.8538 0.0254517 2.2949 12.011 0.00161549 9.81835e-05 -0.00746338 
C 10.8611 35.8371 11.1732 12.011 -0.00216307 0.00358953 -0.00124286 
C 33.814 33.3442 0.919239 12.011 -0.00299545 -0.00561374 0.00416902 
C 34.0888 24.0668 23.7924 12.011 -0.00172767 0.00445373 0.00475636 
C 42.8904 36.3731 0.269121 12.011 0.00389977 0.000362288 -0.00633315 
C 6.2635 32.3183 49.8977 12.011 -0.00271588 0.00256337 -0.00163709 
C 42.4029 34.5863 47.6662 12.011 0.0049403 0.00438178 -0.00292725 
C 47.0053 36.9254 13.3346 12.011 -0.000268319 -0.00113741 -0.000791979 
C 18.6422 16.2088 31.6235 12.011 0.00805925 -0.00617754 0.00118275 
C 13.9767 27.0789 4.80758 12.011 -2.95168e-05 0.00166973 -0.000612577 
C 0.257197 45.3224 15.1968 12.011 0.00443697 0.00817806 -0.00327724 
C 10.2481 2.6956 29.1731 12.011 0.000768836 0.000263416 0.000685262 
C 37.3889 19.9864 41.0224 12.011 -0.00130158 -0.00525457 -0.00247974 
C 9.94577 44.9211 34.227 12.011 -0.00883807 0.00334053 -0.00956483 
C 28.2144 16.2403 11.9265 12.011 -0.000948019 -0.0043093 0.00541612 
C 37.413 33.3249 33.1758 12.011 0.00326073 0.00194551 0.00195084 
C 36.5558 7.2005 31.7491 12.011 0.00706635 -0.0014391 -0.00437831 
C 26.2352 37.5403 42.4142 12.011 -0.00527505 0.000971102 -0.00517103 
C 26.3512 38.0222 30.3122 12.011 0.00759351 0.000164123 0.0054032 
C 37.944 35.8206 6.82871 12.011 0.00142225 -0.00567432 -0.0042163 
C 7.62546 23.361 5.79076 12.011 0.00488105 0.00250689 -0.00176852 
C 4.21463 24.1103 49.7501 12.011 -0.00234382 0.00805601 0.00600112 
C 38.8421 41.9767 18.0444 12.011 -0.00287685 0.00474398 -0.00440375 
C 36.8684 36.6095 19.4 12.011 -0.00104796 -0.00765341 -0.00135233 
C 33.5675 44.3457 45.0205 12.011 0.00170438 -0.00527139 -0.00485274 
C 12.586 36.8084 30.8205 12.011 0.00335617 0.000949841 -0.002199 
C 17.9031 29.5433 9.75237 12.011 0.00237174 0.00617131 -0.000431461 
C 4.11498 48.7744 21.0314 12.011 0.000597492 -0.00383201 0.00578841 
C 26.1116 35.6682 37.991 12.011 -0.00652564 0.00238609 -0.000394081 
C 47.25 11.1381 23.4001 12.011 -0.00312925 0.00267649 0.00174825 
C 42.2094 50.8584 15.7684 12.011 0.000509164 -0.00176048 -0.0033894 
C 17.3517 24.4721 9.1355 12.011 -0.00973809 0.00217316 0.00734938 
C 45.912 45.6412 38.9107 12.011 0.00494149 0.00255795 0.00388827 
C 43.4541 23.2984 31.7994 12.011 0.00492039 -0.00800509 -0.00505351 
C 31.0273 16.7514 34.5044 12.011 0.00756241 2.78919e-05 0.00674246 
C 22.5921 13.7521 36.9325 12.011 -0.000389806 0.00574998 0.00563077 
C 31.0441 15.8451 19.827 12.011 0.000941787 -0.000930417 0.00250969 
C 32.1584 46.9724 45.4999 12.011 0.00192951 0.00217381 -0.00158986 
C 32.4676 13.7218 0.861193 12.011 0.00100395 0.00147837 0.00953342 
C 30.1418 17.7304 30.3913 12.011 -0.00407786 -0.00222841 0.000570578 
C 39.56 33.27 34.574 12.011 -0.00768403 -0.00740508 -0.000355179 
C 21.1388 22.6552 40.9285 12.011 -0.00486851 0.00356954 -0.00175718 
C 43.4764 15.2693 37.9212 12.011 -0.00472041 -0.00252682 -0.000894256 
C 2.99718 34.2289 50.6497 12.011 -0.000298129 0.00271513 -0.00553857 
C 49.2403 14.6913 9.66423 12.011 0.00680863 -7.74124e-05 0.00297246 
C 17.2073 9.68591 14.9652 12.011 -0.00976035 -0.00363662 -0.007937 
C 45.2365 36.7191 19.1143 12.011 0.000573474 0.00333717 0.00100427 
C 3.90208 7.6893 20.0881 12.011 0.00460409 -0.0030524 -0.00425003 
C 17.2475 6.21772 8.83042 12.011 -0.00294852 0.00381454 0.0142459 
C 46.4949 46.5624 36.7403 12.011 -0.00762765 -0.0069143 0.00529958 
C 8.89139 43.4602 36.1076 12.011 -0.00237385 -0.00650546 -0.0099304 
C 29.9952 12.9961 49.9254 12.011 -0.00330492 0.000192663 -0.00448829 
C 35.5551 7.0759 49.928 12.011 0.00884146 0.00952598 -0.00136337 
C 41.4402 3.99657 16.5101 12.011 0.000221151 0.000440453 0.00595776 
C 49.6206 36.0355 34.8015 12.011 0.00402904 0.00106353 0.00403132 
C 19.2752 46.6346 14.781 12.011 0.000955631 -0.000606449 0.00496317 
C 46.5872 1.74269 32.013 12.011 -0.00243777 0.00303543 -0.000845371 
C 12.5396 30.4861 35.7555 12.011 0.0095259 -0.000466289 -0.00325926 
C 37.3878 15.0822 13.9097 12.011 -0.00830435 0.00510066 0.00284352 
C 38.3601 43.2849 0.981711 12.011 0.0025767 0.00737433 0.0029648 
C 11.2739 10.1594 45.2887 12.011 0.000347902 0.00736342 0.00236506 
C 50.2179 27.9086 46.0712 12.011 0.00397642 -0.00437621 -0.00266828 
C 21.9064 9.95808 17.024 12.011 0.00401221 -0.000827096 -0.00146042 
C 2.31293 41.3859 23.9982 12.011 -0.000679643 0.00569246 0.0015703 
C 41.1595 36.8668 36.4967 12.011 0.00236444 0.00456311 0.00313272 
C 4.75151 18.7177 25.9462 12.011 -0.00539181 -0.00339762 0.00264225 
C 19.1094 12.9057 20.5498 12.011 0.00767868 -0.00406247 0.00594668 
C 5.93368 12.1367 16.2121 12.011 -0.00476706 -0.00308443 -0.00603249 
C 24.6458 15.3772 10.5978 12.011 0.00507274 -0.00503372 0.00282001 
C 29.9081 3.12973 47.8517 12.011 0.00220432 -0.00286588 0.00367257 
C 17.8219 40.0251 14.1069 12.011 0.000794644 -0.00581965 -0.00341273 
C 47.1887 31.8347 44.2929 12.011 0.00172134 -0.00214429 -0.005638 
C 8.52682 21.9003 15.509 12.011 -0.00125416 0.00752302 -0.00531289 
C 28.5802 47.8926 48.9628 12.011 -0.003628 0.000868983 0.00635891 
C 9.5555 2.1945 32.8303 12.011 0.00345235 -0.00617475 -0.000559088 
C 5.17656 13.2399 16.7155 12.011 -0.00229359 -0.0046694 -0.00755845 
C 3.48555 14.409 40.9814 12.011 -0.00420473 -0.000972378 0.000769049 
C 43.6721 0.223109 47.6889 12.011 0.00826983 0.00419107 -0.00187286 
C 39.9515 6.97486 27.9881 12.011 0.000714211 -0.00583397 -0.00193324 
C 13.5844 37.2895 28.0111 12.011 -0.00578891 0.00223765 -0.00272338 
C 7.17515 20.8064 40.9045 12.011 0.00637737 -0.00599934 0.00147247 
C 29.377 7.74559 50.7739 12.011 0.00474351 0.000717273 -0.00205088 
C 22.5755 14.6744 47.0894 12.011 0.00209452 0.0030705 0.00328641 
C 44.8046 47.7659 4.08173 12.011 0.00898105 0.00484424 0.00428673 
C 37.0539 3.21837 34.1848 12.011 0.00595106 -0.000522788 -0.00672773 
C 34.832 21.5628 23.8461 12.011 0.000962548 -0.00272019 -0.0052025 
C 5.88181 9.43198 16.8315 12.011 0.00626226 -0.00143451 0.00847288 
C 31.9217 8.50796 8.26119 12.011 0.00292503 0.00252072 -0.000962925 
C 25.3448 18.5265 20.9661 12.011 -0.00256915 -0.00704618 -0.00158285 
C 48.1769 43.6654 13.6797 12.011 -0.0102206 0.00344738 0.000734589 
C 31.1033 19.7699 1.9526 12.011 0.00371214 -0.00310591 -0.00651216 
C 12.5073 37.1794 10.1334 12.011 0.00562127 -0.00571854 -0.000889928 
C 22.5404 45.4454 3.41668 12.011 -0.00391248 0.0092975 0.00635185 
C 5.00931 20.2105 37.3205 12.011 0.00455185 -0.00720521 -0.00318261 
C 32.06 38.7891 33.4471 12.011 -0.00193117 -0.00245171 -0.00701798 
C 14.9734 17.4892 12.1324 12.011 -0.00224374 0.00905904 -0.00430719 
C 39.3556 36.3178 19.9444 12.011 0.00594206 0.00792961 -0.000271249 
C 40.7449 23.3132 18.027 12.011 0.0053604 -0.00342111 -0.00473852 
C 50.7113 42.1529 24.84 12.011 0.00664311 0.00377742 0.00445779 
C 36.5214 24.5884 20.3768 12.011 -0.00605578 0.00174192 0.00558032 
C 19.1021 40.8373 38.7148 12.011 -0.00247942 -0.00146727 -0.00150706 
C 27.5911 41.7291 47.5447 12.011 0.00493459 -0.00394939 -0.00379832 
C 24.8046 46.7411 17.8129 12.011 -0.000835231 -0.00550969 0.0107483 
C 33.9531 8.30635 10.1681 12.011 -0.00575262 0.00282734 0.000614684 
C 3.38115 31.339 45.4455 12.011 0.000711848 0.00380967 -0.0147569 
C 47.6961 28.8906 50.9314 12.011 -0.00488793 0.00336704 -0.00782354 
C 33.8373 17.9119 45.5145 12.011 0.000794658 0.001262 -0.00478153 
C 17.5505 32.4485 28.723 12.011 0.00450823 -0.00465294 0.00333775 
C 4.83329 23.9498 19.92 12.011 -0.00162796 -0.00152273 -0.00628515 
C 49.6406 45.2839 50.1002 12.011 0.00251996 -0.00365827 0.00177169 
C 1.08154 45.6067 16.3095 12.011 -7.80766e-05 -0.00279254 0.00269862 
C 24.1844 42.8438 1.41113 12.011 0.00464827 -0.000465155 0.000620614 
C 33.5345 42.4972 16.2471 12.011 -0.00422539 -0.00596057 0.000163605 
C 50.0662 45.1554 19.2864 12.011 -0.00765509 0.00153915 0.00667651 
C 37.7633 3.72073 3.86953 12.011 -0.00206625 0.00287628 -0.00714078 
C 44.9738 4.0728 32.2026 12.011 0.00467152 0.00641586 -0.000220077 
C 46.0449 50.1701 13.7294 12.011 -0.00444274 -0.00390772 -0.00232246 
C 49.2742 9.55863 1.83168 12.011 -0.00127052 0.000429761 0.00438719 
C 33.8796 23.8274 17.6119 12.011 0.00604369 -0.00614899 0.00540002 
C 17.5522 46.1509 17.7117 12.011 0.00592627 -0.00481481 -0.00300568 
C 41.3845 9.00208 23.5372 12.011 -0.00105296 -0.00343454 0.00357166 
C 19.1286 1.24674 5.17839 12.011 0.00887071 -0.00505088 -0.000396324 
C 41.0545 38.2485 38.8269 12.011 0.00433947 -0.00425608 -0.00203654 
C 27.6993 38.8039 28.0235 12.011 -0.00164937 -0.00326638 -0.0048264 
C 8.4851 29.7114 36.3269 12.011 0.00150945 0.000898884 0.00168748 
C 12.4861 22.8669 7.93742 12.011 -0.00951016 0.00582013 -0.00212265 
C 27.9392 22.5272 29.6118 12.011 0.00204507 -0.00727936 0.000842668 
C 40.9753 15.4115 30.9363 12.011 -0.00115905 0.00493982 0.000474478 
C 23.7161 25.6367 17.6923 12.011 0.00312531 -0.00239714 0.00229118 
C 0.0547029 15.8755 29.2575 12.011 0.00688672 -0.00590537 -0.00233181 
C 36.447 18.644 14.5563 12.011 -0.0012765 0.00560028 0.00690045 
C 49.6725 46.7758 34.6883 12.011 0.00197841 0.00213689 0.000286024 
C 18.9025 12.5634 19.1918 12.011 -0.00172948 0.00867134 0.00403155 
C 4.66997 11.1578 39.4338 12.011 0.0075986 -0.00134795 0.00639249 
C 38.8753 5.93756 18.3063 12.011 0.0014146 0.00035409 0.00460376 
C 19.7143 12.9859 45.6386 12.011 -0.00618355 -0.00457567 -0.00910448 
C 32.2522 4.82137 8.5625 12.011 -0.00991398 -0.00952329 0.00787336 
C 22.6977 46.7925 19.2084 12.011 -0.000217408 -0.00878134 0.00589013 
C 29.821 14.0056 33.374 12.011 0.00648017 -0.00748604 0.00354364 
C 42.501 44.1439 25.8843 12.011 0.00365312 0.00770474 0.00300523 
C 35.1831 16.3969 42.5404 12.011 0.00835003 0.00306097 6.8142e-05 
C 41.0862 5.26052 17.1222 12.011 -0.00032261 0.00453713 0.00186026 
C 47.4 23.6226 45.2733 12.011 0.00149938 -0.00333262 0.00216047 
C 43.6872 42.5323 17.1891 12.011 0.000351111 -0.00297598 0.0021743 
C 3.79256 38.3647 31.8887 12.011 -0.000321419 -0.0033574 0.00109486 
C 50.7339 28.4536 43.1005 12.011 -0.00274409 5.10245e-05 -0.000547413 
C 33.9565 19.9482 25.6115 12.011 -0.00119852 -0.00138426 0.00160953 
C 49.4033 11.685 44.8426 12.011 0.0147744 0.00172438 -0.00697249 
C 45.4086 43.2235 20.5203 12.011 -0.00434066 0.00769214 0.00244555 
C 6.682 26.4056 42.663 12.011 0.000936628 0.00477317 0.00440886 
C 13.4315 25.6335 44.1426 12.011 0.0109329 -0.00280217 -0.00512513 
C 47.9913 10.9918 46.546 12.011 -0.000178597 0.00145188 -0.00154857 
C 5.36649 23.5439 50.4029 12.011 -0.00501926 0.000482683 0.00517692 
C 26.4496 20.0554 40.7278 12.011 -0.00100047 -0.00654376 0.00507483 
C 30.4006 17.8325 22.1111 12.011 -0.00463923 -0.00157783 0.00348974 
C 20.7897 40.6314 25.9341 12.011 0.00160437 -0.00632558 0.000534836 
C 22.3849 23.1463 42.7914 12.011 0.000787476 0.0030798 -0.0057018 
C 14.3402 37.5585 26.7478 12.011 -0.00282999 -0.00303855 0.00503527 
C 25.8429 40.7873 23.7316 12.011 0.00154281 -0.000750211 0.00886821 
C 1.82198 19.3947 37.9334 12.011 0.0014467 -0.0077399 0.0083638 
C 36.5341 50.7353 36.4972 12.011 -0.00374259 0.000101294 -0.00389827 
C 30.8983 0.968933 44.8659 12.011 -0.00451888 0.00514318 -0.00537595 
C 50.8771 20.9426 14.9839 12.011 0.00787817 -0.00323356 -0.00502867 
C 35.9811 12.2745 5.18372 12.011 -0.00401871 0.00164028 -0.000419021 
C 25.8568 50.6625 37.291 12.011 0.00259916 -0.0023327 -0.00294626 
C 15.429 12.7698 26.9884 12.011 -0.000115553 -0.00237299 0.000629723 
C 29.9209 41.2636 37.1944 12.011 -0.00635127 0.000752665 0.000786188 
C 27.5879 10.0487 37.1308 12.011 0.00584564 -0.000609709 0.00412384 
C 48.748 39.976 4.18475 12.011 -0.0061593 -0.000155133 -0.00190314 
C 17.1357 7.79212 49.9501 12.011 0.000335006 -0.00400673 -0.00288284 
C 31.3918 41.5559 19.2737 12.011 0.00193763 0.00180468 0.00636195 
C 39.9612 35.0572 23.3594 12.011 0.00305816 0.00464472 -0.00116075 
C 30.6033 17.2308 19.5508 12.011 -0.00104794 0.00432153 0.00591413 
C 0.614185 27.6697 44.0006 12.011 0.00362111 0.00291569 -0.00155939 
C 13.6209 47.9787 24.0936 12.011 0.00139248 0.00744183 0.000680398 
C 16.1968 30.1076 48.2607 12.011 -0.00556681 -0.00128561 0.00195733 
C 9.63136 17.1248 15.7087 12.011 4.0222e-05 0.00563726 0.00039488 
C 20.4189 20.5124 4.69398 12.011 0.000413872 -0.000861094 0.00145225 
C 16.0455 36.2133 5.19934 12.011 -0.00266737 -0.00300948 0.00296324 
C 48.9677 45.143 28.5951 12.011 0.00478697 -7.12769e-05 -0.00412831 
C 23.7303 3.47736 15.3269 12.011 0.00757608 -0.00303404 -0.00386732 
C 42.3479 18.7332 2.44352 12.011 -0.00133116 0.0107785 -0.00484378 
C 31.7397 30.0356 45.4364 12.011 0.00122353 0.00622082 0.00133922 
C 2.77027 37.1616 15.6715 12.011 -0.00377203 0.00164433 0.00279435 
C 21.7569 44.5757 36.6887 12.011 0.00142106 9.13548e-05 -0.00150642 
C 49.07 45.5254 36.8296 12.011 0.00512694 0.00399129 0.00202934 
C 17.0532 14.7362 30.4554 12.011 -1.6914e-05 -0.0006573 0.00074639 
C 22.0547 8.36974 30.382 12.011 0.00168216 -0.00175851 0.00142805 
C 38.9864 44.1554 12.004 12.011 -0.000209209 -0.00795732 -0.0077074 
C 40.0497 48.1516 16.9531 12.011 0.000841818 -0.00269038 -0.00128504 
C 12.9992 26.6021 7.79066 12.011 0.00565378 -0.00221232 -0.00217492 
C 41.5121 12.6798 44.9788 12.011 -0.00482219 0.00282288 -0.00171941 
C 37.5915 46.7011 23.7637 12.011 0.00126941 -0.00153137 0.00306901 
C 4.56384 30.3215 43.4583 12.011 0.00561703 -0.0039444 -0.00790835 
C 20.897 5.11042 1.20677 12.011 -0.00814624 0.00312069 -0.000601468 
C 50.2258 11.1586 17.0818 12.011 -0.000128518 0.0010458 -0.00136658 
C 22.9236 26.5028 41.1067 12.011 -0.00109164 0.00346575 0.0130779 
C 5.77053 32.2017 10.9196 12.011 0.00385359 -0.00541856 -0.00121154 
C 25.1528 24.2171 16.0971 12.011 0.00028066 -0.0014802 0.0060074 
C 47.2069 4.08432 46.5795 12.011 -0.00681306 -0.00562819 -0.00211188 
C 30.0063 35.2308 25.6377 12.011 -0.00670873 0.00523202 -0.00577511 
C 11.287 11.5508 24.0861 12.011 -0.00290771 -0.00639047 -0.00686876 
C 9.20504 25.5717 15.699 12.011 0.00166681 0.00689296 0.00668501 
C 25.7596 44.1383 0.00696687 12.011 -0.00418532 -0.0084491 -0.00141983 
C 6.94135 22.2565 0.566468 12.011 -0.0100523 0.000505509 -0.00190413 
C 26.1068 12.5708 30.3827 12.011 -0.00059798 0.00432254 -0.00271998 
C 12.8005 10.2859 37.1514 12.011 0.00200796 0.00540333 -0.00416281 
C 50.4175 37.845 9.36679 12.011 -0.00117411 0.00409909 0.00417353 
C 39.3636 16.3434 7.53954 12.011 0.0052619 0.00559199 -0.0039399 
C 1.38846 22.3714 13.3066 12.011 -0.00548352 0.00120208 0.00121945 
C 3.84569 44.0728 35.0233 12.011 -0.00613514 -0.00665013 -0.00604964 
C 14.1277 45.1595 8.37294 12.011 -0.00203485 0.00660823 -0.0104146 
C 39.7368 43.8342 47.7885 12.011 -0.00206627 0.00605492 0.0018114 
C 29.3892 43.5795 13.4634 12.011 -0.000174212 0.00535644 -0.00347412 
C 11.8416 10.3766 41.2257 12.011 0.00536352 -0.00500078 -0.000998351 
C 27.409 23.7405 23.7784 12.011 -0.0040102 -0.00376619 0.000373182 
C 23.9775 30.0331 40.2685 12.011 -0.00170081 0.00152978 -2.79333e-06 
C 40.6919 10.2876 0.398474 12.011 0.00164958 -0.00396927 0.00368026 
C 11.0542 49.8744 1.64572 12.011 -0.00261256 -0.00424508 -0.0012713 
C 30.0997 9.97802 5.3128 12.011 0.00977065 0.00260705 0.000730359 
C 0.375023 43.2192 5.90661 12.011 -0.00531559 -0.00373661 0.00182368 
C 12.7743 42.0912 37.026 12.011 -0.00763828 -0.000864573 -0.00126929 
C 24.2544 38.7605 13.8194 12.011 -0.00687656 0.00221732 -1.82877e-05 
C 20.0396 38.0008 19.1574 12.011 -0.00316683 -0.0012152 -0.00599032 
C 20.1033 14.772 8.15475 12.011 -0.00229303 0.000217159 -0.00647854 
C 22.3476 37.0279 16.389 12.011 0.000298229 -0.00579007 0.00130839 
C 20.5362 37.8413 34.035 12.011 -0.00476281 -0.000937414 0.0042762 
C 9.26091 2.36763 35.2983 12.011 -0.00262548 -0.00141155 -0.00750717 
C 24.8601 49.095 5.68282 12.011 -0.00388875 0.00844599 -0.00314176 
C 22.2999 36.4799 49.7594 12.011 0.00562783 0.00791274 -0.00749144 
C 37.1722 27.9988 24.4323 12.011 0.000950006 -0.00239856 0.000817914 
C 37.7026 42.9802 26.2627 12.011 0.00815978 0.000736437 -0.00561225 
C 29.8023 46.8082 47.1464 12.011 -0.00192553 -0.00514172 -0.00770529 
C 35.744 36.8117 18.5383 12.011 0.00691898 0.00288945 -0.00340929 
C 31.6261 40.6136 0.856604 12.011 -0.00151598 -0.00267706 -0.00164104 
C 43.78 22.4174 32.8453 12.011 -0.00262507 0.00197405 0.00552691 
C 2.11189 3.08587 25.3861 12.011 0.00799257 0.0016829 -0.00559885 
C 15.6959 44.5542 6.57425 12.011 -0.00333346 0.000184778 0.00298857 
C 43.1682 7.04712 32.2608 12.011 0.00459155 -0.00209194 -0.00184825 
C 2.54234 29.472 11.2521 12.011 -0.00239599 0.00535347 -0.000993649 
C 41.2058 23.6913 15.627 12.011 -0.00231066 -0.00521237 -0.00908399 
C 23.8362 45.9541 27.7148 12.011 -0.00120009 0.00101643 0.0074057 
C 16.4586 35.2322 4.19878 12.011 0.00165921 0.00235641 0.0017258 
C 10.4825 25.6471 30.3735 12.011 -0.00344183 -0.00196706 0.00821446 
C 8.62755 1.53284 43.1128 12.011 -0.00155035 -0.00629288 0.0039361 
C 1.94276 17.4607 2.13659 12.011 0.0058022 -0.000209073 0.00652042 
C 46.6994 43.885 20.7982 12.011 -0.00342095 -0.00289949 0.00760862 
C 42.0229 7.74454 23.6106 12.011 -0.00871441 0.00600151 -0.00564522 
C 32.1084 38.5864 49.925 12.011 -0.00011215 0.00136473 -0.0040641 
C 3.87424 29.0484 11.4158 12.011 0.00255228 0.00178792 0.00318556 
C 19.3386 20.645 38.3439 12.011 -0.00069355 0.00331085 0.00106023 
C 11.3296 28.2537 34.4858 12.011 -0.000937245 0.00671744 -0.000498128 
C 16.0626 41.3135 34.9887 12.011 -0.000161294 -0.00054681 -0.00285321 
C 4.89748 7.71224 35.7005 12.011 0.00433561 0.00167279 -0.00281299 
C 40.3969 42.3755 19.964 12.011 0.00403019 -0.00615021 -0.000233523 
C 14.6707 7.32537 7.9048 12.011 -0.00568141 0.0032466 -0.00390705 
C 26.3018 2.47496 35.2279 12.011 0.00567588 0.00560747 0.00732861 
C 23.3534 32.2903 23.6785 12.011 0.00397004 0.00271583 0.00573115 
C 9.7776 0.656127 2.64083 12.011 0.00319866 0.00554091 0.000308903 
C 4.53683 2.29135 37.9553 12.011 -0.00185567 -0.00470628 -0.00722947 
C 29.388 2.96327 7.3255 12.011 0.000149624 -4.80392e-05 -0.00571082 
C 17.9657 30.5969 41.9833 12.011 0.00120684 -0.0028093 -0.00285841 
C 12.788 19.2344 12.1532 12.011 -0.00241007 0.00373668 -0.00516718 
C 26.9054 24.8637 23.187 12.011 0.00697155 0.00222372 -0.000964186 
C 46.567 19.2003 39.8145 12.011 0.00154638 -0.000218411 -0.0055105 
C 43.4276 47.9692 45.0534 12.011 -0.0061115 -0.00321183 0.00206926 
C 8.55064 41.0959 19.7053 12.011 -0.00865305 -0.00412069 -0.00200308 
C 32.8936 2.53337 21.6996 12.011 0.00561243 -0.00507154 -0.00520164 
C 13.7839 17.1039 12.7877 12.011 0.00678536 -0.00141947 -0.00448739 
C 21.1659 45.2941 3.81735 12.011 0.0020323 -0.000588975 -0.00331198 
C 45.8886 37.9821 27.1047 12.011 -0.00643851 0.0126686 0.00607947 
C 3.68696 43.7224 48.6143 12.011 -0.00273825 -0.00509587 0.00743612 
C 36.6575 34.5665 36.5619 12.011 0.0027876 -0.00608038 -0.0033729 
C 21.6294 27.5784 31.9605 12.011 0.00471391 -0.00569738 0.000292643 
C 19.6339 20.5876 40.9589 12.011 -0.00623523 -0.00650415 -0.00281263 
C 32.2254 25.2327 18.4402 12.011 0.00498118 0.00803719 0.000320109 
C 17.2928 1.64406 6.85598 12.011 0.00107137 -0.000138339 -0.0043119 
C 12.576 43.2851 36.3526 12.011 0.000816301 -0.00300079 0.000677279 
C 37.9183 12.9742 26.2555 12.011 -0.00254121 -0.0018554 0.00216409 
C 6.66129 41.6372 38.4323 12.011 0.00029487 0.00118052 0.00284523 
C 18.4291 39.1535 29.3091 12.011 4.13906e-05 0.00890944 -0.00412759 
C 12.6822 6.25205 24.431 12.011 -0.00144713 0.00484422 0.00509714 
C 36.6008 6.14974 1.3286 12.011 0.00434462 0.00177146 0.00432873 
C 43.5524 28.4951 3.49988 12.011 -0.000325645 -0.00354099 0.00324405 
C 0.275365 37.308 28.444 12.011 -0.00591708 0.00442722 -0.00519687 
C 49.1886 31.1697 42.3104 12.011 0.00734565 0.00294117 -0.00265669 
C 6.77185 27.9001 4.30499 12.011 0.00589454 -0.00782186 -0.00226266 
C 12.5767 47.3651 28.725 12.011 0.0041551 0.00407264 0.000932054 
C 17.9233 6.45221 25.1318 12.011 -0.00083186 0.00391123 -0.00727364 
C 45.9671 13.9719 35.4044 12.011 -0.00829161 -0.00030496 0.0103592 
C 19.4535 34.5746 0.259766 12.011 0.00133995 0.00497556 0.00208245 
C 46.4079 27.5428 7.4586 12.011 0.00208298 -0.00134082 -0.00235246 
C 46.2807 45.3333 48.3168 12.011 -0.0047571 0.00121983 -0.00554342 
C 22.5676 44.896 33.5154 12.011 -0.000648469 0.00854475 -0.00331243 
C 50.1155 39.0774 45.8104 12.011 -0.00667555 -0.00122908 0.00820326 
C 23.2637 46.7795 17.9164 12.011 -0.000623019 0.00154856 -3.3227e-06 
C 16.3115 29.6394 45.804 12.011 -0.00384497 -0.0020944 0.00667239 
C 32.844 17.9443 3.024 12.011 0.00385682 0.00588001 -0.00154032 
C 25.3553 41.758 50.5087 12.011 -0.00199726 0.00079401 0.00107455 
C 16.3959 14.6478 6.94249 12.011 0.00199988 -0.00396307 0.00226773 
C 14.8387 42.1831 44.3318 12.011 0.00504467 -0.00826684 -0.00930339 
C 50.8645 2.92341 27.1659 12.011 0.00405705 0.0017026 0.000635609 
C 44.4001 31.0132 31.4788 12.011 0.00355069 -0.0040743 -0.00660373 
C 42.0053 22.809 12.8855 12.011 0.00171249 -0.0013476 -0.00145012 
C 38.6702 46.2608 17.5713 12.011 0.00316601 -0.0010091 -0.00242451 
C 23.2185 5.28633 31.3981 12.011 0.00208363 0.00758265 -0.00563335 
C 27.732 17.8087 30.6565 12.011 -0.000394102 0.000163953 -0.00247191 
C 4.0015 20.1955 43.8995 12.011 0.00215029 -0.00394457 -0.00439602 
C 12.684 30.2521 7.81213 12.011 0.0073875 -0.001538 0.0121263 
C 40.22 37.0515 35.4462 12.011 0.00593005 -0.00426634 -0.00483412 
C 18.6771 13.4003 16.8936 12.011 -0.000591582 -0.00446283 0.000159996 
C 25.5801 41.7271 21.3987 12.011 -0.00487387 0.0032393 -0.0045414 
C 31.1657 42.7645 16.6942 12.011 -0.00637439 0.00346282 -0.00336628 
C 36.4883 33.3139 28.8994 12.011 0.00405886 -0.0102534 -0.00451053 
C 14.4682 42.0785 50.4251 12.011 -5.44698e-06 -0.00188699 -0.00114486 
C 33.1451 5.71802 22.7961 12.011 0.00275623 0.000847748 -0.0029609 
C 47.6231 36.453 49.2579 12.011 -0.00328459 0.00140317 0.00401668 
C 17.7369 27.0411 9.42636 12.011 0.00446679 -0.00928375 -0.000880825 
C 35.282 26.1633 24.4527 12.011 0.0047092 0.00479596 -0.000121248 
C 41.8004 28.5047 46.2945 12.011 -0.00318361 -0.00664642 0.000417625 
C 46.5559 10.8131 24.651 12.011 -0.00627442 0.00271248 0.00238309 
C 44.6018 1.92789 24.8891 12.011 0.00952617 0.000789928 -0.00420657 
C 14.5288 47.2991 21.8518 12.011 0.00334179 0.0021386 0.00142389 
C 33.1972 43.1888 24.5573 12.011 0.000106784 0.0038062 -0.00484413 
C 9.64337 6.01378 3.71365 12.011 0.00171623 0.00569125 8.69432e-05 
C 35.0535 16.0384 46.7195 12.011 -0.000482854 -0.000720029 0.00103447 
C 9.30249 45.3794 1.9069 12.011 0.00266736 0.00336666 -0.00111233 
C 27.0715 41.4858 21.1343 12.011 -0.00779498 -0.00398097 -0.00152904 
C 1.03341 2.12069 27.3622 12.011 -0.00234184 0.000413085 -0.000194367 
C 23.6663 10.0441 43.6881 12.011 0.00304045 -0.000187641 -0.00675088 
C 47.1964 4.73481 49.0545 12.011 -0.00590102 -0.00281915 -0.0049668 
C 26.3339 37.4977 5.07041 12.011 0.0026667 0.00100721 -0.0011918 
C 50.8645 18.1446 27.5368 12.011 -0.00544021 -0.00360962 -0.00347693 
C 45.1835 19.2946 40.0552 12.011 -0.000375169 0.00596737 -0.00248198 
C 50.1051 37.1897 10.5373 12.011 0.00184902 0.00230487 -0.00288241 
C 33.4274 39.0801 33.7754 12.011 0.00250934 -0.00166533 -0.000117958 
C 18.9535 46.8469 19.5186 12.011 -0.00600879 -0.00491967 -0.00107088 
C 44.7595 37.2364 10.3288 12.011 0.00755695 0.00280253 0.00340134 
C 14.673 8.5426 10.0418 12.011 -0.00434539 0.00488393 0.000578325 
C 20.8814 34.6252 48.8268 12.011 -0.00603011 0.00185261 0.0049195 
C 6.24734 50.8434 30.0339 12.011 -0.000615802 -0.00248385 -0.00221191 
C 11.4504 49.9874 44.6919 12.011 -0.000582256 -0.00949322 0.00444194 
C 3.93476 18.1906 38.2287 12.011 0.00127098 0.00469608 0.00453057 
C 26.8154 35.7755 22.3904 12.011 0.00122891 -0.00278883 -0.00126793 
C 40.3079 0.913571 0.264269 12.011 -0.000190976 0.0129463 0.00426375 
C 17.5272 4.75816 42.6605 12.011 0.00537959 -0.00298215 -0.00570165 
C 38.3777 3.57028 32.2892 12.011 0.00483534 -0.00117693 0.00325117 
C 22.2251 40.3076 39.1153 12.011 0.000769612 0.0026803 -0.005718 
C 37.584 23.6703 20.1945 12.011 0.00202589 0.00472792 -0.00159654 
C 11.3073 1.11687 45.6809 12.011 0.00147047 0.0038688 -0.00407543 
C 30.7881 11.7699 47.3756 12.011 0.000666779 0.00583866 -0.00359437 
C 48.7679 46.3656 35.7625 12.011 0.00938348 -0.00993944 0.0014711 
C 50.6209 9.02194 45.013 12.011 0.000233163 -0.00123863 -0.00420001 
C 15.0957 46.5764 19.5888 12.011 0.00566692 0.00598354 0.000311621 
C 1.2526 44.5638 11.5031 12.011 -0.00292854 0.00344371 0.00336689 
C 46.1003 19.6405 32.564 12.011 0.00133192 -0.0115096 0.00262416 
C 41.8501 16.7684 26.3601 12.011 0.00472155 -0.00010162 0.00122397 
C 5.14084 47.7151 18.4358 12.011 0.000818001 -0.00157127 0.0065971 
C 44.758 15.093 48.6371 12.011 0.00493286 0.00510623 -0.00189176 
C 36.9273 27.56 46.8679 12.011 -0.00426331 0.00196454 0.00537118 
C 15.0621 48.4832 25.9306 12.011 -0.00942169 -0.00685524 -0.000494285 
C 7.25811 2.21123 21.6797 12.011 -0.00175445 -0.00843518 0.0082897 
C 16.4949 37.0506 41.9952 12.011 0.00061745 -0.000736695 -0.00280296 
C 11.6733 1.93513 9.60735 12.011 -0.00064364 -0.00751759 0.000211059 
C 20.2862 4.29726 8.66235 12.011 0.000604923 -0.00187305 0.000885421 
C 32.4348 34.6719 10.3187 12.011 0.00262088 -0.00379976 0.000427229 
C 34.2724 14.3581 20.7956 12.011 0.00351943 -0.00795561 0.00157765 
C 5.41627 1.61168 35.7316 12.011 0.000209236 -0.00240395 -0.00121973 
C 10.9199 2.85011 8.9328 12.011 -0.00167853 -0.00585562 0.0085139 
C 3.81726 13.822 16.1146 12.011 0.00170231 -0.000818716 -0.00438585 
C 1.5518 10.0997 17.6001 12.011 0.00474587 -0.00261417 -0.00331112 
C 26.3659 14.9619 0.598614 12.011 -0.00457353 0.00215825 -0.00126817 
C 50.5697 43.9797 37.9908 12.011 0.00476166 -0.00135518 -0.000678971 
C 31.2713 48.1336 45.615 12.011 -0.0101545 -0.000586168 0.00895557 
C 46.4982 27.9303 25.6072 12.011 -0.00765221 -0.00496205 0.000884399 
C 21.9237 47.1839 24.3099 12.011 -0.00106815 -0.00214033 0.00819235 
C 16.778 21.4642 4.63968 12.011 -0.00246966 -0.00418656 0.00687106 
C 35.6054 49.5745 9.29535 12.011 0.00474962 0.0045092 -0.00704036 
C 33.8135 11.0913 1.10165 12.011 -0.0002618 0.00930623 0.00853073 
C 8.74075 34.5568 29.3587 12.011 0.00480615 0.00952507 0.00165833 
C 26.7181 22.3945 9.19246 12.011 0.000897043 0.00546918 -0.00076231 
C 3.97306 43.2381 36.2617 12.011 -0.00084321 0.00418057 -0.00139769 
C 40.4948 15.7047 8.25392 12.011 0.00198803 0.00945736 3.89237e-05 
C 19.6066 6.9595 29.873 12.011 -0.00366031 0.00564435 -0.00148464 
C 32.4193 26.5824 7.54688 12.011 -0.00290118 0.00214344 0.00360214 
C 7.32928 29.0878 16.2738 12.011 -0.0013682 -0.000958483 0.0089428 
C 12.6092 48.9227 15.9959 12.011 -9.66112e-05 0.0098906 0.00788486 
C 31.5605 0.945496 43.4944 12.011 0.00382696 -0.00867665 0.00128773 
C 37.0154 29.4877 21.013 12.011 0.00588588 6.66787e-05 0.00160647 
C 39.549 5.99985 28.9939 12.011 0.00822126 0.00363943 -0.00596914 
C 29.4507 48.6091 14.4641 12.011 0.00491923 -0.00137034 -0.00883148 
C 28.6303 13.9338 31.1311 12.011 -0.000482594 0.000766753 -0.000985789 
C 24.9164 29.3812 42.4144 12.011 -0.00609559 -0.00621728 0.00272781 
C 9.19085 25.7273 10.6145 12.011 -0.00113663 0.00552517 -0.00105411 
C 24.7535 45.635 34.7281 12.011 0.00175409 -0.00996342 0.00594971 
C 0.788598 29.4383 3.50883 12.011 -0.0059504 -0.00496529 0.00429117 
C 49.902 3.23134 40.8535 12.011 -0.00322535 0.000578692 0.00396423 
C 39.2567 1.07156 32.2008 12.011 0.00382332 -0.00995117 -0.00198558 
C 32.4021 16.3375 13.1047 12.011 -0.000906117 0.000962999 0.00579886 
C 14.0845 32.1419 30.2159 12.011 -0.00322232 0.000106081 0.00578918 
C 43.8672 43.6459 10.9625 12.011 -0.000710467 -0.000538051 -2.93493e-05 
C 19.4369 15.8187 1.7331 12.011 -0.00330002 -0.0046528 -0.00468005 
C 45.4051 20.2255 20.6242 12.011 0.00582532 -0.0040619 0.00160432 
C 11.5435 19.4957 29.3422 12.011 0.00113828 -0.00760198 0.00985353 
C 37.2325 24.4003 32.1316 12.011 0.00780853 -0.00670646 -0.0018261 
C 31.0266 45.7803 11.1242 12.011 0.00420901 -0.00890564 0.00813778 
C 11.8428 43.7372 17.2622 12.011 0.00226898 0.00134298 0.00359859 
C 43.0477 18.7201 15.3648 12.011 0.000823946 0.00604975 0.00739085 
C 45.043 46.6576 46.4862 12.011 -0.00575153 0.00222969 0.00366166 
C 6.65236 18.8532 2.16524 12.011 0.0067417 -0.00350685 0.00147295 
C 21.5216 49.3718 9.57206 12.011 -0.00464741 0.00573547 -0.00354039 
C 35.7772 6.94219 45.1034 12.011 -0.0056014 -0.00945388 0.00589655 
C 23.7331 39.8247 0.21621 12.011 -0.000594778 -0.00152018 -0.00752981 
C 29.514 37.239 39.0722 12.011 -0.000803067 -0.00796038 -0.00711119 
C 35.392 0.499694 4.96426 12.011 -0.00113519 0.000251252 -0.00560943 
C 11.1663 35.4753 32.3935 12.011 -0.00405491 0.00484205 5.39543e-05 
C 40.4334 30.4195 47.1782 12.011 -5.52202e-05 -0.00273597 0.00141884 
C 11.2028 42.0426 1.51308 12.011 0.000578032 -0.0108229 -0.00222162 
C 2.32774 0.617673 28.8328 12.011 0.0044663 -0.007704 0.000112401 
C 6.04659 35.4003 12.4911 12.011 -0.00222945 -0.00747534 0.000691591 
C 15.9358 35.1547 38.2536 12.011 -0.00504473 0.00445751 -0.00461287 
C 35.9585 15.1952 23.9464 12.011 -0.00186295 0.000866445 -0.00655045 
C 46.8482 33.5325 4.57062 12.011 0.00632768 0.00270662 0.00891405 
C 23.9658 8.42279 41.9066 12.011 0.00291033 -0.00219388 0.00472767 
C 18.5811 11.1998 13.501 12.011 -5.66889e-05 -0.0063704 9.19458e-05 
C 24.4136 50.3651 37.6583 12.011 -2.13671e-05 -0.0114428 0.00229482 
C 48.6415 43.3845 9.83856 12.011 -0.00110269 0.00193985 0.00184357 
C 48.7034 3.91854 28.0609 12.011 0.0062116 0.000537927 0.00439256 
C 49.3679 18.966 39.5158 12.011 0.00137569 -0.000685396 -0.00483825 
C 34.407 23.5456 35.1524 12.011 0.00531805 -0.000644776 0.00383057 
C 15.4272 31.7857 3.12085 12.011 0.00398182 -0.00485787 0.00531587 
C 12.1407 38.1692 11.0131 12.011 -0.0113099 0.0025131 0.000411444 
C 38.6885 13.8502 7.24819 12.011 -0.00377859 0.000940002 0.00751106 
C 24.5817 15.4706 4.07222 12.011 -0.00417286 -0.00250545 -0.00193493 
C 41.1723 14.7444 15.9145 12.011 0.00213591 0.00400171 0.00262895 
C 49.4404 21.0678 1.13573 12.011 -0.00366887 -0.00185561 -0.00623396 
C 47.6787 2.87073 30.0323 12.011 -0.000777126 0.00489655 -0.00247594 
C 36.0633 5.62765 42.7137 12.011 -0.00102135 -0.00320938 0.00256348 
C 42.3791 4.81485 25.9046 12.011 0.000312345 -0.00487037 -0.00571718 
C 6.28241 34.3179 48.6169 12.011 -0.00561667 -0.00535183 -0.00121535 
C 16.7478 46.3015 5.16539 12.011 0.00205545 -0.00237889 0.00370334 
C 30.8475 48.4687 10.5808 12.011 0.00802989 -0.00214457 -0.00165714 
C 45.2716 37.9025 7.99935 12.011 0.00420535 -0.00389238 -0.00426684 
C 36.5355 19.9456 50.963 12.011 0.000608818 0.00239412 -0.00506701 
C 10.0076 7.1174 17.9885 12.011 0.00903007 0.00333323 0.000414899 
C 30.109 42.0585 18.8641 12.011 0.00114238 -0.000386796 0.00657578 
C 39.2131 11.4117 45.4466 12.011 0.00212101 -0.00362768 0.00166895 
C 44.1747 19.9704 34.1148 12.011 -0.00133667 0.000470179 -0.00156386 
C 46.8413 45.8406 37.8913 12.011 0.00464576 0.00439454 0.00405177 
C 23.3917 19.2489 31.0776 12.011 -0.00406627 0.00152782 0.00869769 
C 11.544 17.5361 13.5999 12.011 -0.00210034 0.0041853 -0.0030632 
C 10.2626 2.54613 31.6888 12.011 -0.00188824 -0.00772458 -0.00391244 
C 13.8517 15.9109 13.6568 12.011 -0.00158842 -0.00379357 0.000962849 
C 30.285 20.9772 1.26829 12.011 0.00240814 -0.00526792 -0.00542913 
C 4.9392 23.7656 33.3346 12.011 -0.000441388 -0.00614744 0.00375091 
C 1.50735 16.2882 41.4998 12.011 0.00770626 0.00303415 0.00195979 
C 47.3738 49.7861 33.642 12.011 0.00461849 -0.00046644 0.000440942 
C 21.5412 15.5451 6.29275 12.011 0.00285262 0.00260751 -0.00130367 
C 20.3777 42.0206 21.5791 12.011 -0.00109422 0.00296181 -0.000268056 
C 5.10263 44.4825 34.5286 12.011 5.74502e-05 -0.00238814 -0.00175743 
C 41.0774 10.4113 44.1381 12.011 0.00418832 0.000231746 0.00166111 
C 16.3931 15.049 36.6952 12.011 -0.00195036 0.00343589 0.00202156 
C 29.7649 50.7073 10.066 12.011 0.000694368 0.00347044 0.00562404 
C 17.6314 38.4739 28.2954 12.011 -0.00342872 -0.00191295 -0.000894031 
C 8.55885 31.9346 33.2535 12.011 0.00906451 -0.00161134 -0.00891986 
C 17.8298 6.86691 41.5913 12.011 -0.000611643 0.00375914 0.00305301 
C 46.4339 36.6096 29.1987 12.011 0.00820481 -0.00731783 0.00174634 
C 0.0327754 6.30691 24.6438 12.011 0.00300475 -0.0086118 0.0109516 
C 17.4812 12.1374 11.4658 12.011 -0.0118315 0.00389406 0.00112768 
C 13.8158 47.6771 32.26 12.011 -0.00456652 -0.00438032 -0.00860927 
C 19.4699 39.4762 3.55316 12.011 -0.0017389 0.00283666 0.000395934 
C 19.6991 33.7858 48.9819 12.011 -0.00403075 -0.00744915 0.00661004 
C 25.5417 11.7271 39.7418 12.011 0.000989566 0.00211108 0.000822555 
C 31.0403 1.738 2.03844 12.011 -0.00018097 0.00833839 0.00338642 
C 49.4671 44.1743 4.58114 12.011 -0.00583048 0.00601663 0.0072195 
C 3.00099 11.1516 35.9983 12.011 -0.00412583 -0.00081703 0.00828209 
C 0.587492 2.11021 21.7949 12.011 0.0108374 -0.00388177 0.00800875 
C 28.9242 28.5073 9.5929 12.011 -0.0045138 0.000931546 0.00259361 
C 42.4666 36.7711 10.9686 12.011 0.00424758 0.000535124 0.00149104 
C 23.3841 45.1007 34.752 12.011 0.00556732 -0.00488182 -0.00658369 
C 14.9727 34.0362 35.7779 12.011 0.00869589 0.00433562 -0.000935972 
C 16.2135 30.7122 26.8784 12.011 -0.00273077 0.00175905 -0.00277536 
C 46.1468 36.8819 18.0522 12.011 0.0055123 0.00119782 0.00390842 
C 5.62459 47.4077 47.7234 12.011 0.00159136 0.000893877 -0.000404255 
C 32.3174 17.3139 34.9966 12.011 -0.0019279 -0.000356678 0.00395731 
C 35.6061 21.4753 47.8866 12.011 -0.00224202 0.003302 -0.00153876 
C 15.9646 2.37564 16.4838 12.011 -0.000487874 0.00342587 -0.00232143 
C 39.3642 3.72863 17.4276 12.011 -0.00173472 0.00175262 -0.00311512 
C 15.5321 22.679 2.93536 12.011 0.00690339 -0.00628731 0.0032315 
C 33.5633 46.0163 30.4183 12.011 -0.00525666 -0.0014327 0.000481461 
C 21.8162 39.9019 1.91216 12.011 0.00416936 0.00630786 -0.00217247 
C 28.184 34.2432 15.5568 12.011 0.00402608 0.00253571 -0.00266674 
C 16.0119 5.61373 30.5216 12.011 -0.00355665 -0.00230283 -0.00751517 
C 7.78118 20.5629 43.6625 12.011 0.00285469 -0.00331521 0.00304947 
C 22.6262 31.0941 23.6565 12.011 -0.00252893 -0.00751942 -0.00440177 
C 33.7897 51.0189 21.0803 12.011 -0.00165966 0.0140476 0.000123852 
C 41.4408 14.3912 32.9926 12.011 -0.00624076 -0.00861992 -0.00484839 
C 14.2729 46.7981 42.8624 12.011 -0.000530903 -0.000189691 0.00394361 
C 40.6214 39.6033 2.94008 12.011 0.000572386 0.00842383 -0.00372407 
C 50.8603 41.4298 42.4269 12.011 0.00423587 0.000515888 -0.000372248 
C 1.095 4.09093 25.3709 12.011 -0.00308492 -0.00101578 -0.00587547 
C 45.066 11.0001 15.3418 12.011 -0.001149 -0.00105611 -0.00464948 
C 18.5644 37.8993 12.3235 12.011 0.00334467 0.00128026 1.21994e-05 
C 17.5885 17.7718 25.7959 12.011 -0.00354051 -0.000443425 0.00211669 
C 5.25491 9.1387 38.2861 12.011 -0.00134013 -0.00202107 -0.00124246 
C 19.3486 32.6554 45.4611 12.011 -0.00625328 -0.00303659 -0.0063592 
C 25.9312 25.7129 23.7854 12.011 0.00938787 0.00353499 -0.00177374 
C 48.9127 32.6347 25.5014 12.011 -0.00549138 0.00336326 0.0105613 
C 22.8757 11.876 15.7751 12.011 0.00243045 0.00299258 0.00191616 
C 25.5709 22.2733 14.162 12.011 0.00597051 -0.00517131 -0.000514787 
C 16.15 7.72504 11.9722 12.011 -0.00274972 -0.000249732 0.00232408 
C 17.8352 37.7721 4.45623 12.011 0.00281382 9.04594e-05 0.000133286 
C 5.12916 9.9605 15.7155 12.011 0.00647306 0.0037622 0.00781583 
C 25.2222 15.6344 6.48 12.011 0.00549341 -0.00156774 -0.00088356 
C 28.9775 1.35861 16.0655 12.011 -0.00448312 -0.00141365 0.00272748 
C 30.6369 34.9744 12.1421 12.011 -0.0038868 0.00856402 -0.000223571 
C 48.2124 21.4284 28.3684 12.011 -0.00495641 0.0044364 0.00282879 
C 40.8625 6.52913 26.9183 12.011 0.00433086 0.00989789 -0.000309061 
C 33.3317 18.5852 27.5405 12.011 0.00709958 0.00275989 -0.00245563 
C 39.269 8.26885 11.8764 12.011 0.000632938 0.000996027 0.00106997 
C 22.2282 14.7903 10.0165 12.011 0.00668029 -0.00560979 0.00879826 
C 35.8796 40.9828 34.6435 12.011 0.00476059 -0.00713562 -0.00242061 
C 5.24669 41.3325 48.1367 12.011 0.00158199 0.00850016 -0.00692762 
C 39.2036 28.5945 25.5505 12.011 0.00198984 0.00508093 -0.00366194 
C 30.8686 13.414 19.4376 12.011 0.00462856 -0.000355056 -0.00443927 
C 18.3669 39.133 4.39012 12.011 0.00659093 -0.00407237 -0.0138262 
C 46.9336 30.8108 32.1504 12.011 0.00582805 0.000610816 -0.000332335 
C 41.2448 18.2987 40.0145 12.011 -0.00585284 -0.0023148 0.00124772 
C 46.0331 39.3627 40.6512 12.011 0.00227311 -0.00410689 -0.00254471 
C 45.6337 18.0491 4.7861 12.011 0.000156867 -0.00154642 0.00254167 
C 16.9726 6.0921 27.4497 12.011 0.00328558 0.00353183 -0.000335102 
C 25.7516 45.2846 0.900932 12.011 -0.00146507 -0.0006881 -0.00110725 
C 47.871 38.1679 8.66928 12.011 0.00134621 0.000947463 -0.0090534 
C 0.884649 20.2485 14.2975 12.011 -0.00509095 -0.00270839 -0.00412995 
C 41.2528 37.3322 6.79294 12.011 0.000346981 -0.0020945 -0.000193506 
C 1.13809 48.4109 13.1188 12.011 0.001064 0.00314295 -0.00270962 
C 20.7429 38.0647 17.9269 12.011 0.000835532 -0.00275441 -0.000359855 
C 9.76796 33.4587 41.7176 12.011 -0.000394634 -0.00211214 -0.00974691 
C 20.9415 43.0358 45.9346 12.011 -0.0146023 -0.0024789 -0.00323504 
C 26.0292 14.8541 46.1601 12.011 0.00604015 -0.00479852 -0.00157045 
C 28.9729 46.9482 10.1804 12.011 -0.00133487 0.00445833 0.00310008 
C 37.1895 50.7954 22.1099 12.011 0.000169717 0.000853002 -0.0056944 
C 24.7608 17.2729 21.2462 12.011 -0.00124456 0.000588074 -0.00155692 
C 31.6809 6.83261 36.1301 12.011 0.00115507 0.00474088 -9.70157e-05 
C 8.94183 48.0859 2.13613 12.011 -0.00479908 -0.00219114 -0.00668014 
C 2.86085 4.51778 46.1676 12.011 -0.0044007 0.00376527 0.00815068 
C 21.3498 31.569 30.8522 12.011 0.000538256 0.00364084 -0.00310929 
C 18.6879 49.1476 3.43002 12.011 0.000915625 -0.00719079 0.00275571 
C 5.78405 2.21872 43.4531 12.011 0.00873962 0.00528277 0.00254377 
C 30.3129 8.03978 43.3674 12.011 0.00525358 0.00669389 -0.00196709 
C 23.2788 23.3546 46.2672 12.011 -0.00407049 -0.00529556 0.000822264 
C 5.52459 26.2187 41.803 12.011 -0.00521319 0.00289476 0.000319554 
C 19.5528 5.22293 13.5014 12.011 0.00211057 -0.00529305 -0.00353085 
C 30.9135 11.8 33.4854 12.011 -0.00551858 0.00911028 0.000417266 
C 40.9778 16.6272 27.5205 12.011 0.00365839 -0.00755603 -0.000157736 
C 19.2944 6.83652 49.3154 12.011 0.000229653 0.0036238 0.00125851 
C 46.7192 16.4006 13.7835 12.011 0.00200449 -0.00760161 0.00453101 
C 30.1964 25.0946 7.11389 12.011 -0.00102525 0.00491879 0.00112045 
C 26.8819 5.70899 24.4833 12.011 -0.00591859 -0.00060946 -0.00220675 
C 24.769 36.1002 6.2781 12.011 0.00567578 0.00555571 0.00308052 
C 0.685319 45.966 48.7926 12.011 -0.000835737 0.00429238 -0.00218185 
C 37.005 36.5322 14.1712 12.011 -0.00503616 -0.00135619 0.00401652 
C 47.7699 27.5458 25.1397 12.011 -0.00861693 0.00378595 -0.000378132 
C 32.8522 39.099 41.0387 12.011 0.00108752 -0.00338091 0.00305764 
C 10.9108 2.86439 3.24141 12.011 -0.00289968 -0.0110764 -0.00487119 
C 0.234015 41.1534 7.05285 12.011 0.00580844 0.000330225 0.00896456 
C 25.5121 47.4875 14.2644 12.011 0.00132295 0.00425134 0.00148472 
C 2.02743 36.5599 13.3123 12.011 0.00198493 0.0029544 -0.00384521 
C 45.333 30.9021 23.6535 12.011 0.00359768 0.000227531 0.00109402 
C 30.4958 38.599 40.8574 12.011 0.00394161 0.00610342 0.0064063 
C 14.8779 12.48 28.2475 12.011 -0.00770247 0.00161725 -0.00381351 
C 20.7411 6.13142 18.5007 12.011 -0.00558907 0.00520792 -0.00697021 
C 22.9682 46.9967 37.7943 12.011 0.0026055 0.00337989 0.000644797 
C 45.2118 49.1098 14.1564 12.011 -0.00725721 -0.000988478 -0.0122515 
C 7.4301 0.265714 47.2347 12.011 0.00603195 -0.00569359 -0.000467712 
C 15.4507 38.3843 29.2596 12.011 -0.00899513 -0.000186672 0.00113001 
C 42.315 47.2489 50.7634 12.011 -0.00427647 -0.00285517 -0.0011227 
C 50.6764 22.1329 35.6338 12.011 -0.0023034 0.00137839 0.00132491 
C 37.8723 8.17846 11.6618 12.011 -0.00392461 -0.000640378 0.00531243 
C 48.7816 32.797 20.3582 12.011 -0.000570099 -0.00807837 -0.000675525 
C 22.4681 12.9526 35.7976 12.011 0.000255152 0.0101819 -0.00010048 
C 17.4397 7.05434 39.2028 12.011 -0.00237067 0.00161971 0.0082105 
C 34.7902 11.8439 44.1181 12.011 0.000644365 -0.00326853 0.00058133 
C 34.1384 9.50796 49.8139 12.011 0.00300399 0.00461172 -0.00892065 
C 0.72277 36.7095 13.7835 12.011 0.00537993 0.00504716 0.00197673 
C 29.0492 17.5875 31.2816 12.011 0.00856741 0.00707402 0.00455745 
C 1.85216 17.3215 26.3027 12.011 -0.0043781 0.012422 0.00422484 
C 13.4845 12.2768 41.5069 12.011 -0.00562086 0.00106188 0.002997 
C 48.2863 43.8033 6.94464 12.011 0.000731262 -0.00533544 0.000951376 
C 28.0324 44.7496 30.057 12.011 0.00837047 0.000178291 0.00171013 
C 16.1937 29.0173 38.4548 12.011 -0.00521163 0.00695612 0.00696523 
C 15.4535 6.30637 25.6137 12.011 0.00759737 -0.00300179 -0.00588848 
C 35.9359 28.3771 2.40006 12.011 0.00203004 0.00383165 0.00534689 
C 15.4002 5.89698 1.75599 12.011 0.00469094 0.00263286 8.76765e-05 
C 41.4292 7.22473 49.5973 12.011 -0.00148201 0.00218871 -0.00144797 
C 21.8874 43.0321 44.8538 12.011 0.0106581 0.0121136 -0.00119868 
C 23.9847 13.6694 14.4693 12.011 0.00446524 -0.0053428 0.00608266 
C 8.43423 1.73122 27.7826 12.011 0.00157915 -0.00148996 0.00114268 
C 31.8153 39.3058 46.8351 12.011 0.00276499 -0.00414258 -3.36791e-05 
C 12.1637 13.782 1.43525 12.011 0.00265776 -0.00694213 0.00702451 
C 46.142 13.1955 23.2985 12.011 0.00969267 0.00139569 -0.00424491 
C 22.05 4.55336 33.9802 12.011 -0.00849013 -0.00259027 0.00291441 
C 44.2136 46.645 25.7987 12.011 0.00418443 -0.000489462 -0.00652693 
C 0.160656 15.564 24.5452 12.011 -0.00620107 0.0165501 0.000532524 
C 37.063 48.3063 19.3637 12.011 -0.00378419 0.00483002 -0.00332866 
C 19.8896 33.2676 46.6181 12.011 -0.000773128 -0.00233171 0.00308346 
C 43.2397 48.2069 15.1389 12.011 0.000826399 -0.00646566 0.00199069 
C 24.8512 6.83436 40.1101 12.011 -0.00366888 -0.00646325 -0.0020279 
C 20.3947 16.8976 27.6367 12.011 -0.00575683 0.000196597 0.00140924 
C 25.6446 16.5994 34.3318 12.011 -0.00130511 -4.09275e-05 -0.00659624 
C 35.6945 43.5965 1.46941 12.011 0.0063144 -0.00590588 -0.00294247 
C 38.6257 24.4875 7.39785 12.011 0.00294328 -0.000661523 -0.000281 
C 15.9915 11.133 22.9881 12.011 -0.00141437 -0.000203988 -0.000252 
C 8.90781 24.6232 27.6713 12.011 -0.000356143 0.00170946 -0.000826129 
C 29.9005 36.2418 46.8268 12.011 0.00508124 0.000250934 0.00454592 
C 5.20681 17.47 46.9181 12.011 0.00673798 -0.00196797 0.00406223 
C 38.9618 39.0018 28.3097 12.011 -0.00774745 0.00838775 0.00313257 
C 37.6546 10.4507 12.4604 12.011 0.000918979 0.00562518 -0.00226781 
C 24.843 32.5578 40.6285 12.011 0.00347015 -0.000167822 -0.0038637 
C 40.5007 15.3146 32.4008 12.011 0.00708536 -0.000716398 -0.00427114 
C 30.0395 50.6031 1.67353 12.011 0.000950879 -0.00366504 -0.00509598 
C 49.6481 1.37679 37.6036 12.011 -0.00343762 0.00141683 -0.00622986 
C 6.70123 11.0968 25.8664 12.011 -0.00174376 0.00435545 -0.00253675 
C 24.3917 48.9531 37.689 12.011 0.00218321 2.29159e-05 -0.000710996 
C 45.6805 1.70785 24.0194 12.011 -0.000222722 -0.000130883 -0.000528105 
C 43.2087 10.271 13.938 12.011 0.00471801 0.00436813 0.00628945 
C 3.35336 21.0121 42.917 12.011 0.0065649 0.00834492 0.00600186 
C 11.3143 27.0304 36.6188 12.011 0.00445335 -8.85553e-05 0.00146925 
C 4.55593 35.3631 21.9505 12.011 -0.000338 -0.00522634 0.00187175 
C 49.6059 10.6016 34.8861 12.011 0.00279604 0.00693534 0.00101408 
C 12.0727 17.8785 7.53219 12.011 -0.000239123 0.00208849 0.00358692 
C 2.57594 50.7251 3.6485 12.011 0.000493106 0.00202885 -0.00311174 
C 48.999 7.20759 25.4642 12.011 -0.0013075 0.00764025 0.00846468 
C 35.7295 45.6695 45.278 12.011 0.00206033 -0.000491 -0.0026822 
C 22.0992 42.3079 15.2463 12.011 0.0052635 0.00164587 -0.00332852 
C 1.23347 18.2225 46.3469 12.011 0.00259636 -0.00315084 -0.00384058 
C 14.0878 7.51521 46.9066 12.011 -0.00412849 0.0102286 -0.00219551 
C 47.3557 12.6517 48.1173 12.011 -0.000379702 -2.00567e-05 -0.00602358 
C 40.7859 22.6168 13.6155 12.011 0.00193343 0.00446124 -0.00219842 
C 43.4061 33.3048 34.558 12.011 0.00551405 -0.00351361 -0.000959802 
C 43.2008 4.88715 2.70222 12.011 -0.00682332 0.00389802 0.00478429 
C 36.3414 14.3093 41.0192 12.011 -0.00406544 0.000595544 -0.00325509 
C 42.1016 0.312022 37.9125 12.011 -0.0118442 -0.00300979 0.00206585 
C 36.7593 35.182 47.2661 12.011 -0.00163887 -0.0069444 -0.00237185 
C 16.1968 48.9878 40.3661 12.011 0.000463925 0.00245805 -0.00494701 
C 10.1068 24.5882 32.5914 12.011 0.0103755 -0.00073027 -0.000589599 
C 16.668 39.8019 5.98462 12.011 -0.00167356 -0.00655443 -0.0020955 
C 21.565 41.2221 23.7641 12.011 0.000649626 -0.00230355 0.00200864 
C 44.5069 35.6112 24.7344 12.011 0.000292304 0.0040563 0.000477284 
C 0.20239 33.2877 20.726 12.011 -0.00740275 -0.00308324 -0.00136277 
C 23.9214 33.2961 38.4643 12.011 0.00890929 0.00203998 0.00127585 
C 50.9142 17.4799 19.0843 12.011 -0.00299581 -0.00204645 -0.00319028 
C 30.2314 22.5881 34.2973 12.011 -0.00241382 -0.00295785 -0.00715294 
C 10.2914 7.03663 7.93128 12.011 0.00701482 0.00719623 0.00483733 
C 39.2899 45.0953 47.4819 12.011 -0.00132605 -0.00436254 0.000935653 
C 20.8886 47.2485 38.9829 12.011 -0.004904 -0.00170538 -0.000323498 
C 29.75 50.2221 40.3319 12.011 0.00410585 0.00294635 0.0033909 
C 39.5473 40.2944 50.4559 12.011 0.00118701 0.00259632 -0.00129307 
C 43.7001 44.5263 28.4125 12.011 0.00344325 -0.000490227 0.000684517 
C 14.0071 32.2693 39.5101 12.011 0.00652323 -0.00693556 0.00338145 
C 4.23481 33.725 49.9736 12.011 0.00588008 -0.00383748 0.00253305 
C 49.4595 36.0719 27.0872 12.011 -0.00214559 0.00273632 -0.00484174 
C 47.7963 27.2344 10.7101 12.011 -0.00298086 0.00110555 -0.00201674 
C 22.1597 18.5815 10.5969 12.011 0.00219505 -0.00204798 0.00288399 
C 4.97378 14.6203 18.7955 12.011 0.0058591 -0.00797765 -0.0022781 
C 12.5202 28.0169 38.5507 12.011 -0.00633015 0.000837168 -0.000134409 
C 3.05425 21.244 21.9627 12.011 -0.00573095 -0.00253217 0.00149684 
C 26.8201 16.2231 43.955 12.011 0.00396914 0.00132631 -0.00109981 
C 26.5408 43.2273 16.4864 12.011 0.00721208 0.00315239 -0.00337805 
C 40.2994 32.3121 18.6436 12.011 -0.00303925 0.000201153 0.000786551 
C 15.6776 38.8496 30.6006 12.011 -0.00475582 0.00152049 -0.00530519 
C 18.0917 42.4735 40.2268 12.011 0.00286365 0.00965394 0.00591805 
C 4.83311 10.1562 48.1824 12.011 0.000475076 0.00331749 -0.000349806 
C 18.2617 37.5405 23.0333 12.011 0.00134637 -5.59995e-05 -0.0033095 
C 48.3864 36.9036 13.6472 12.011 -0.000405997 -0.00245895 0.00330126 
C 25.9455 2.41726 41.3771 12.011 0.000402729 -0.00535936 0.00265334 
C 16.0948 28.3598 10.7953 12.011 0.000427273 -0.00420294 0.0113776 
C 20.901 0.373688 38.1271 12.011 0.00524387 -0.00165561 -0.00593038 
C 1.77809 20.2336 44.9811 12.011 0.000798642 0.00501658 -0.00262898 
C 36.2362 23.7881 46.9244 12.011 0.00011662 -0.00290904 0.00167483 
C 24.6832 0.150072 44.0928 12.011 -0.00620888 0.00196328 -0.00379373 
C 9.80413 32.4336 42.6693 12.011 0.00702122 0.00454632 6.42681e-05 
C 21.9291 28.3381 29.2874 12.011 0.00733805 0.00554082 -9.51932e-05 
C 21.5122 34.8594 47.5737 12.011 0.00405855 -0.00118326 0.00320813 
C 12.2999 24.2759 8.17824 12.011 -0.00188188 -0.0083391 -0.000508019 
C 6.03277 15.2065 8.56078 12.011 -0.00193287 -0.0023625 0.000678541 
C 29.1498 5.17599 5.61645 12.011 -0.000103139 -0.00608243 0.0115153 
C 33.8396 35.6762 12.2625 12.011 0.00234748 0.000637627 0.000795703 
C 2.10662 42.2681 25.1373 12.011 0.00207113 -0.00683189 0.000220363 
C 0.870618 25.0397 12.6416 12.011 0.00932083 0.00467447 -0.00194094 
C 21.8387 24.0356 20.5735 12.011 -0.000887969 0.00554327 -0.00488863 
C 1.30581 16.0525 17.8923 12.011 -0.000643963 -0.00117733 -0.00154198 
C 49.7869 26.3651 24.6981 12.011 -0.000763259 0.00257979 -0.0050972 
C 16.8133 6.11162 5.02528 12.011 -0.000792683 -0.00506986 -0.00599576 
C 20.929 18.5349 9.89127 12.011 0.000352247 -0.00704898 0.00197337 
C 5.55524 25.4242 31.5711 12.011 -0.000791313 -0.0131427 -0.00473184 
C 35.5353 33.3585 29.9002 12.011 0.00244026 0.00798691 -0.00654491 
C 12.2589 48.3931 8.69198 12.011 -0.00690214 0.000670551 -0.00315124 
C 3.35648 46.6379 16.8013 12.011 0.00312856 -0.00117128 -0.00337638 
C 35.1565 11.9972 19.9386 12.011 0.000537616 0.0031145 0.0040677 
C 40.5722 42.405 49.7521 12.011 0.00201817 -0.000561013 0.000893329 
C 35.9694 35.0991 48.4756 12.011 0.00240651 0.00478199 -0.00252691 
C 33.2329 36.8977 18.2675 12.011 -0.003836 -0.00286474 -0.00418432 
C 17.7388 24.557 23.4196 12.011 0.00235174 -0.00494802 0.000276351 
C 2.74031 19.166 11.9419 12.011 -0.00260075 0.00062312 -0.00151579 
C 32.5104 6.71877 21.9982 12.011 -0.00146688 0.00479868 -0.000104211 
C 50.5542 32.8291 9.47295 12.011 -0.00468221 0.00690785 -0.0034313 
C 31.3987 24.6835 6.56253 12.011 0.00070132 -0.00199346 -0.00196631 
C 43.0962 43.4042 1.41879 12.011 0.00898508 0.00141327 0.00125498 
C 8.42227 2.06461 40.6834 12.011 -0.00760174 0.00841195 0.00645259 
C 36.6825 21.12 45.6552 12.011 -0.00121968 0.00514164 0.000385725 
C 28.1776 33.4327 44.9594 12.011 0.00482925 0.00858562 0.00341179 
C 9.07113 30.4553 37.3645 12.011 0.00124792 -0.00466829 -0.00239498 
C 48.3814 5.89389 1.42796 12.011 0.000128471 -0.000115056 0.00156703 
C 25.7465 2.00198 36.5369 12.011 0.00833506 -0.00418657 -0.00602472 
C 44.6277 41.6666 32.8126 12.011 0.00396925 -0.0020137 -0.000320383 
C 10.5524 4.64858 7.74905 12.011 -0.00186603 0.00804477 0.00221747 
C 37.1108 26.1628 46.6909 12.011 -0.011916 -0.0106467 0.00378851 
C 0.677675 35.0525 46.3444 12.011 -0.00986417 -0.00542112 9.03316e-05 
C 6.94374 26.8433 39.9499 12.011 0.0011888 0.00479074 -0.00518453 
C 27.8495 38.2027 30.3478 12.011 0.00744315 -0.00113427 0.00873543 
C 10.842 18.3681 8.17977 12.011 0.0107965 -0.00732172 -0.0026636 
C 24.9664 17.1687 36.629 12.011 0.00146691 0.00281831 0.00242283 
C 0.502158 50.6026 46.9835 12.011 -0.00358909 -0.00646981 -0.000379965 
C 10.7387 44.1174 20.7936 12.011 -0.00518659 -0.000486203 0.00924392 
C 35.2841 16.2769 13.7041 12.011 0.00123732 0.000337532 0.00819257 
C 5.66433 0.0678684 21.779 12.011 -0.00545701 -0.000573622 -0.0014246 
C 28.6437 43.2391 15.7476 12.011 -0.00217364 0.00131032 0.00268919 
C 44.4444 23.4301 30.8109 12.011 0.00132749 -0.00340208 -0.000936441 
C 18.1437 7.70781 48.9683 12.011 0.00527413 0.000598696 -0.00420315 
C 49.9967 12.1347 32.7811 12.011 0.00166216 -0.00411606 -0.00293932 
C 7.3279 20.5405 17.0894 12.011 -0.00812153 -0.00346606 -0.0069397 
C 12.2635 2.69587 37.7593 12.011 -0.00259325 0.000363704 -0.00597358 
C 45.4447 13.7093 9.02365 12.011 -0.00171144 -0.0111655 -0.00334148 
C 8.03842 19.616 33.7743 12.011 0.000642501 0.00350246 0.000284163 
C 29.8626 13.907 31.8418 12.011 0.00398047 0.0041273 -0.00383832 
C 19.2636 33.0587 47.8764 12.011 -0.00621243 0.00307222 -0.00418498 
C 30.6118 1.91019 18.4105 12.011 -0.00394546 0.00330454 0.000382941 
C 44.8583 15.2253 24.7215 12.011 0.00683647 0.00510626 -0.00410949 
C 29.2305 37.9758 1.97685 12.011 0.00407287 -0.000825968 0.0016092 
C 28.8154 34.3844 32.6988 12.011 0.0120354 -0.00280859 -0.00752814 
C 51.0186 0.961995 35.7213 12.011 -0.00394623 -0.00436155 -0.000312256 
C 42.3862 7.33511 40.2931 12.011 0.00782675 0.010927 0.000645371 
C 11.5453 35.8183 37.5411 12.011 0.00274951 0.00219237 -0.00266883 
C 41.8672 7.20487 34.5106 12.011 0.00082068 0.00101004 -0.00148415 
C 2.74506 49.3125 3.55981 12.011 0.00234084 -0.00322804 0.00170136 
C 20.9136 13.699 45.6794 12.011 0.00530851 0.0059577 0.00420668 
C 24.3464 36.695 43.6773 12.011 -0.000900163 -0.00326429 -0.000266206 
C 43.3183 48.7372 27.2288 12.011 -0.00410974 -0.00912127 -0.00165062 
C 29.2698 15.1788 34.0709 12.011 0.000786605 -0.00212628 -0.000966022 
C 28.3106 28.8993 18.8204 12.011 0.00118028 -0.00715985 -0.00632644 
C 29.3337 27.1002 45.5501 12.011 -0.000132759 0.00283281 -0.00642012 
C 6.97664 33.2336 28.9958 12.011 0.00305594 -0.00803085 0.000803131 
C 43.2259 14.6988 27.1314 12.011 0.00472165 -0.00378353 -0.000490675 
C 2.06994 25.34 48.1163 12.011 -0.00649566 -0.00314282 0.00470245 
C 34.4246 19.3663 43.2432 12.011 -0.00519451 0.00743039 -0.0066868 
C 43.0124 35.6824 47.0543 12.011 -0.000662538 0.00813402 0.00284674 
C 3.15091 31.9023 26.7523 12.011 0.0038537 -0.00861056 0.00282725 
C 17.8239 9.0709 19.7024 12.011 0.00117253 0.00302228 0.00168766 
C 36.378 16.7852 36.9503 12.011 0.00586401 0.00399116 0.00623629 
C 23.8628 44.0382 43.6363 12.011 -0.0065751 -0.00867128 -0.00820608 
C 29.4083 38.3953 32.383 12.011 0.00527451 0.000181434 -0.00650018 
C 47.901 29.7335 49.778 12.011 -0.00640671 0.0065126 -0.00355794 
C 43.558 40.0577 40.2954 12.011 -0.00102055 -0.00272735 -0.00553841 
C 14.2232 11.6774 32.3622 12.011 0.00410373 -0.00569077 -0.000131068 
C 28.4253 38.9776 34.7233 12.011 0.00140883 0.0120477 7.65625e-05 
C 44.3533 50.9844 2.19958 12.011 -0.0057918 0.00309303 0.00590117 
C 41.6868 29.844 5.13146 12.011 0.0039068 0.0058164 -0.0051392 
C 31.4175 23.6637 29.3693 12.011 0.00151674 -0.0057746 0.00932725 
C 21.1257 21.0911 44.2882 12.011 0.00280277 0.000522789 0.00636966 
C 1.9424 22.9432 34.9037 12.011 -0.00389635 0.0052176 0.00391879 
C 0.566931 48.296 47.8468 12.011 0.00550772 -0.00296382 -0.00630745 
C 20.952 26.6797 20.6547 12.011 0.00187124 -0.00377791 -0.00297206 
C 17.842 41.1023 47.7392 12.011 0.00328482 -0.00479612 -0.00700002 
C 47.6187 46.8826 29.5855 12.011 0.00107169 0.00167915 -0.000203172 
C 42.3566 38.0463 46.1317 12.011 0.00278231 -0.00300294 -0.000312163 
C 34.7498 43.1364 36.2908 12.011 0.00587806 0.00294598 -0.00145184 
C 39.6963 36.6816 17.289 12.011 -0.00398686 0.00192407 0.00944768 
C 50.6116 10.406 20.6305 12.011 0.00216915 -0.001259 0.00234685 
C 29.8369 8.81678 4.57911 12.011 0.00315784 -0.00177753 -0.00608279 
C 23.9424 36.4504 14.8156 12.011 0.00260391 0.00532903 0.00158094 
C 45.7143 12.242 37.1381 12.011 0.00401542 0.00385906 0.00333257 
C 1.57414 3.40638 43.8897 12.011 -0.000139497 0.00375508 -0.0105877 
C 37.6162 9.98305 28.6106 12.011 0.00458958 0.0044645 0.00589667 
C 48.1144 32.2885 18.0148 12.011 0.000935517 0.00178461 -0.00222692 
C 44.0696 10.3562 28.8513 12.011 -0.00322438 0.00642017 0.00313759 
C 15.2276 16.2275 3.72466 12.011 0.00747025 0.00368481 0.00502997 
C 40.7971 20.7547 22.4674 12.011 0.00168294 0.00290241 -0.00653325 
C 28.3107 1.0532 14.839 12.011 -0.00474797 0.00868183 0.00393529 
C 0.163127 19.3141 1.69618 12.011 -0.00232998 0.000892421 0.00206428 
C 12.5709 44.2897 12.2475 12.011 -0.00387929 -0.00333598 0.000897084 
C 37.7093 25.4995 29.9071 12.011 -0.00820285 0.00054669 -0.000535156 
C 45.9707 27.0382 26.5442 12.011 0.00738247 0.00110035 -0.00380578 
C 36.3569 28.0884 42.6802 12.011 -0.00875772 0.0122532 -0.00802433 
C 46.4779 23.0136 36.4451 12.011 -0.00903807 0.0040206 -0.013558 
C 33.4792 19.0519 40.2418 12.011 9.93046e-05 0.00715045 -0.00741645 
C 1.01045 31.2501 10.5587 12.011 0.0130442 -0.00191148 -0.00551092 
C 42.142 12.0122 42.695 12.011 0.00475272 -0.00560467 0.00320359 
C 24.6662 39.0515 35.8146 12.011 -0.00178174 0.00328365 -0.00154352 
C 27.8127 46.1193 20.1788 12.011 -0.00586318 0.00461887 -0.00395584 
C 48.0517 42.5995 44.5685 12.011 -0.00365402 -0.0077537 0.00183026 
C 25.5609 15.2931 49.3113 12.011 -0.00274891 0.00119507 0.000525809 
C 43.3698 20.7702 39.856 12.011 -0.00190945 -0.00251577 -0.00739693 
C 37.8962 14.9 37.2067 12.011 -0.00337997 -0.00470562 -0.00075356 
C 2.11603 3.05435 42.6467 12.011 0.00243192 0.00161166 0.00505603 
C 6.95608 8.41527 29.1778 12.011 -0.0006999 0.00298657 0.00650257 
C 31.4964 50.6294 18.274 12.011 0.00513881 0.00291461 -0.00392325 
C 13.9505 3.65619 17.3924 12.011 -0.000324382 0.00227797 0.00276311 
C 14.489 34.5187 6.23337 12.011 0.00023741 0.000767419 0.00255213 
C 40.6474 8.73938 25.8825 12.011 -0.00115672 -0.001285 -0.00465821 
C 15.1054 12.7543 32.9236 12.011 0.00105989 -0.000240648 0.00651484 
C 47.3702 12.4209 21.257 12.011 -0.00117012 0.00174652 -0.00637536 
C 6.78272 1.98351 36.0507 12.011 0.00460047 -0.00177126 -0.0013878 
C 50.3166 47.0961 31.733 12.011 0.00160748 -0.00109723 -0.00436558 
C 50.126 34.4808 39.5279 12.011 0.00349733 0.00542529 0.0021993 
C 29.4666 44.7819 30.229 12.011 0.00127529 0.00273182 0.000358942 
C 31.543 3.67215 8.19076 12.011 0.00195727 0.00727708 0.00406952 
C 37.4774 14.7997 38.5197 12.011 0.000369984 8.18433e-05 0.00561157 
C 13.6226 22.4898 7.1515 12.011 0.00402123 -0.0023802 -0.00567535 
C 3.92355 17.4892 10.4387 12.011 -0.0018232 0.00382837 -0.000375049 
C 24.8604 4.828 29.7092 12.011 -0.0026376 -0.00332987 0.00221648 
C 2.73727 9.14261 15.6146 12.011 -0.000503399 0.00286952 0.00147363 
C 28.1271 38.235 31.7341 12.011 0.00205956 0.00195951 0.00425906 
C 44.3376 12.3271 27.276 12.011 -0.000234339 -0.00317375 -0.00477353 
C 24.9644 40.4141 8.95932 12.011 -0.00191121 0.00224179 -0.0102231 
C 4.94152 8.87504 47.5027 12.011 0.00264621 0.00564352 -0.00222833 
C 9.81646 38.3469 40.4232 12.011 0.00900315 0.0131085 -0.00338912 
C 9.82501 25.1755 26.7156 12.011 0.00362646 -0.000935349 -0.000983579 
C 31.24 38.3118 0.0547958 12.011 0.000961013 0.00702551 0.00471454 
C 21.7118 30.0474 26.0026 12.011 -0.00443607 0.00339071 0.0012389 
C 18.703 13.615 9.8755 12.011 0.00717521 -0.000277642 0.000836506 
C 49.9767 50.8271 2.5551 12.011 -0.000270583 0.00143604 -0.00128207 
C 50.1896 14.5676 10.8179 12.011 0.00355713 -0.00388012 -0.0026247 
C 24.1009 25.0844 44.6139 12.011 0.00252732 -0.00121548 0.0049451 
C 24.6665 42.1919 20.3116 12.011 0.00493457 -0.00480143 -4.136e-05 
C 13.4388 33.9233 49.373 12.011 0.00282829 0.000745073 3.96231e-05 
C 3.48894 13.415 28.94 12.011 -0.00122917 -0.00236503 -0.0033638 
C 8.53232 1.15908 3.09467 12.011 -0.000606753 -0.00375715 -0.00146217 
C 46.817 39.467 32.3483 12.011 0.00183343 0.0125077 -8.68798e-05 
C 17.7194 40.1649 5.11439 12.011 0.000250203 0.00487243 0.00145743 
C 9.52625 10.7382 16.7692 12.011 -0.00473682 -0.00376869 0.00643194 
C 37.8945 3.78104 19.2131 12.011 0.00563886 0.00599319 0.00470037 
C 11.2568 9.17971 33.9047 12.011 -0.00857213 -0.000265986 -0.00136822 
C 12.0557 18.261 28.8531 12.011 -0.0055301 -0.00240514 -0.000925701 
C 42.8874 34.0932 26.1344 12.011 0.00542903 -0.00368746 -0.000799597 
C 10.5795 18.4772 13.9319 12.011 0.00555379 0.000618281 -0.00394831 
C 10.7429 39.865 2.46504 12.011 -0.00100592 -0.00306874 -0.000556263 
C 49.1378 8.20159 24.4664 12.011 0.00309285 -0.00244409 -0.00239577 
C 1.81648 12.4855 43.7897 12.011 -0.00917883 -0.00578765 0.00756959 
C 2.77783 27.8333 16.5598 12.011 -0.00399026 -0.00648168 0.00789183 
C 49.255 33.9476 49.0205 12.011 -0.00664271 0.0108935 -0.000254701 
C 47.2504 17.5049 32.1263 12.011 -0.00681698 -0.00455058 -0.00445218 
C 47.2951 26.7855 32.9558 12.011 -0.0046073 -0.00967997 -0.000715444 
C 8.30799 24.744 48.3758 12.011 0.00751142 0.00278031 0.00584271 
C 11.4797 10.339 42.5988 12.011 -0.0055471 0.000429916 0.00118873 
C 15.1527 13 36.6963 12.011 -0.00168293 -0.0025016 -0.00433068 
C 15.8002 35.1351 40.7072 12.011 0.000222391 -0.00272721 0.00462285 
C 21.0247 37.9664 10.9679 12.011 0.000298583 0.0056728 0.00316725 
C 30.112 43.1464 38.8089 12.011 -0.000521749 -0.00086925 -0.00594807 
C 12.8906 31.6134 33.6811 12.011 0.00279449 0.000120528 0.00903707 
C 35.1124 4.33704 35.3819 12.011 -0.00203736 0.00130828 0.00384829 
C 27.23 44.805 26.3123 12.011 -0.00329323 0.00147516 0.00318862 
C 11.8844 20.5463 8.29666 12.011 0.00474349 -0.00361447 0.000207462 
C 40.072 48.6763 48.1794 12.011 -0.00101381 -0.00354356 -0.00301061 
C 5.52765 2.0028 11.725 12.011 -0.000768397 -0.00111997 0.000505236 
C 51.0093 4.05964 26.2703 12.011 -0.00613685 0.00299457 0.00757896 
C 21.9243 19.4847 7.92846 12.011 -0.00536542 0.00461056 0.00607684 
C 20.5849 34.4129 19.9636 12.011 0.0013815 -0.00168245 0.000872192 
C 19.0465 29.6199 22.2475 12.011 0.00405138 -0.00325444 -0.00129295 
C 15.6832 37.454 44.2347 12.011 0.00344603 -0.00171119 -0.00454801 
C 26.3199 19.0934 43.1114 12.011 -0.00337797 0.00203163 0.00363543 
C 33.2747 15.3274 12.4598 12.011 -0.00192975 -2.98567e-05 0.00492272 
C 17.7542 34.6138 2.15975 12.011 -0.000554444 -0.000140301 -0.00635703 
C 11.9691 9.53049 36.2112 12.011 -0.00658985 -0.00124003 -0.00382554 
C 14.5153 47.4755 14.8221 12.011 -0.00369781 0.00477061 -0.00792896 
C 30.451 33.3711 10.0388 12.011 -0.000232206 -0.000474282 0.0080788 
C 40.7333 22.8423 8.38641 12.011 -0.00151196 -0.000385204 -0.00985604 
C 8.51976 7.70702 37.715 12.011 0.000185163 0.000476178 -0.0071902 
C 23.6065 40.6577 39.1279 12.011 0.00218927 0.00420041 -0.00150077 
C 30.019 16.628 50.8037 12.011 0.000184916 -0.000457298 -0.000525007 
C 17.3867 9.72688 17.413 12.011 -0.000515992 -0.0072886 -0.00066815 
C 40.7552 20.141 44.6751 12.011 0.00098771 -0.0044786 -0.00380113 
C 41.5774 22.6701 33.9124 12.011 0.000367887 0.00248683 0.000518013 
C 43.9478 31.4476 5.87145 12.011 0.00313177 0.00229934 0.000464193 
C 9.94887 38.7699 14.1628 12.011 0.00408667 -0.000208793 0.0100952 
C 45.4924 26.1782 10.9083 12.011 -0.00595917 -0.00125574 0.000275224 
C 44.8996 44.3872 2.66196 12.011 -0.000839734 0.00283267 -0.00073937 
C 46.8845 28.9393 2.37854 12.011 0.00453825 0.00510668 0.00457935 
C 32.3276 16.1199 21.9725 12.011 -0.0039982 -0.00112174 -0.0068083 
C 16.6452 6.62623 35.5384 12.011 -0.00638464 0.00301161 -8.3532e-05 
C 28.1844 6.29693 22.076 12.011 0.0028158 0.00501436 0.00370752 
C 24.079 10.771 41.4735 12.011 -0.00299265 -0.00580716 -0.000873513 
C 4.41001 23.7212 34.8232 12.011 -0.0068136 0.000595644 -0.000589237 
C 3.82131 15.7233 29.8807 12.011 0.00060431 0.00012373 -0.00594096 
C 20.8109 33.2674 19.218 12.011 -0.00166267 0.00399555 0.00111212 
C 4.70554 35.8877 12.6735 12.011 0.000654788 0.00457609 -0.00302526 
C 19.7286 49.404 39.0306 12.011 -0.00265426 -0.00684895 -0.00404938 
C 44.109 25.905 10.5487 12.011 0.00631033 -0.0069562 -0.00219542 
C 21.8276 6.18647 26.9127 12.011 -0.00295293 -0.0101462 0.00313909 
C 23.1635 28.1156 25.7646 12.011 0.00139651 -0.00490739 -0.00722172 
C 21.8191 46.3745 38.3467 12.011 -0.00779245 -0.00141569 -0.00241075 
C 24.3647 31.4865 14.6189 12.011 0.000211411 -0.0045789 -0.0114139 
C 9.05724 48.9356 46.5748 12.011 -0.000700296 0.00430995 -0.00330401 
C 12.6737 14.3249 15.0453 12.011 -0.00375704 0.000897874 0.00314203 
C 10.2998 23.1866 14.3468 12.011 0.000587205 0.00430334 -0.00492013 
C 11.5535 14.9294 30.1001 12.011 -0.008077 0.00103293 0.00511781 
C 17.7509 48.6898 28.1454 12.011 0.000659179 0.00157954 0.000762224 
C 25.0367 11.6732 30.2897 12.011 0.00226778 0.00344098 0.00884035 
C 34.4469 8.82131 48.6356 12.011 -0.000768625 0.00163279 0.0121387 
C 23.7524 40.5645 25.1612 12.011 0.00827396 -0.00135215 0.00455831 
C 49.501 25.9285 11.9897 12.011 -0.00645994 0.00383442 0.00205293 
C 48.2583 20.3349 5.67034 12.011 -0.00317118 0.00912868 0.0019375 
C 15.537 19.1288 46.6499 12.011 -0.00468317 -9.98114e-05 -0.00133574 
C 9.1361 2.69576 20.2465 12.011 0.00118259 -0.00457804 -0.00721645 
C 10.6005 16.1506 15.4265 12.011 -0.000473942 0.00748024 -0.000231403 
C 9.01944 41.6577 2.78675 12.011 0.00274999 0.00285852 0.00602868 
C 37.9313 29.5964 2.61542 12.011 0.00081666 -0.0087646 0.00718358 
C 4.39005 2.35369 47.2788 12.011 -0.000555814 0.00260586 0.00143967 
C 24.6388 34.2207 14.3798 12.011 -0.00421678 -0.00343423 0.00112686 
C 43.9071 31.65 46.0903 12.011 0.00595854 -0.00527674 -0.00126403 
C 28.076 27.1317 20.5467 12.011 0.00399269 0.00114712 0.0065435 
C 48.5245 35.0075 3.26541 12.011 -0.00606202 0.00255142 -0.00343551 
C 12.0516 46.5675 13.1944 12.011 -0.000863954 0.000672492 0.00527414 
C 27.7747 39.957 45.6644 12.011 0.00158012 -0.00172474 0.00698619 
C 19.4875 12.2116 44.3951 12.011 -0.00130063 0.000716944 9.31203e-05 
C 2.88288 16.6896 47.0793 12.011 -0.00186057 -0.00823651 0.000795117 
C 42.6049 18.1562 24.4755 12.011 0.000298559 -0.00433507 0.00673284 
C 1.97206 23.9447 22.9896 12.011 0.000282999 0.00225365 -0.000571273 
C 30.7041 13.3149 7.71536 12.011 -0.0006677 0.00430832 0.00289087 
C 14.0978 38.349 50.6006 12.011 0.00292436 0.00177992 0.00133986 
C 48.903 44.7821 20.1078 12.011 -0.000242966 -0.00083084 0.00173564 
C 46.6594 2.83789 31.0326 12.011 -0.00434541 0.00737269 0.00465981 
C 30.2904 8.85163 35.6666 12.011 0.00714366 0.0017894 -0.00290472 
C 41.1163 27.2275 8.54359 12.011 -0.000728439 0.00015316 -0.00875371 
C 4.59049 30.329 28.2864 12.011 0.0021231 -0.000937778 -1.16282e-05 
C 19.8607 39.0354 28.8876 12.011 -0.00963293 -0.00292723 0.00172013 
C 37.313 29.0688 9.19846 12.011 -0.00233767 -3.51561e-05 -0.00377662 
C 50.8542 13.787 43.6913 12.011 -0.00401259 -0.00415658 -0.00130542 
C 22.3517 36.6886 29.4434 12.011 -0.00483536 0.000886357 0.00165946 
C 5.64006 4.42033 11.3908 12.011 -0.00512802 -0.00411487 0.000657474 
C 18.2027 18.7683 42.6899 12.011 0.00120128 0.00124889 0.00281839 
C 27.2953 14.2971 31.7788 12.011 0.00296383 -0.00852525 -0.00754799 
C 31.1689 12.6237 46.3297 12.011 0.00599143 0.00373674 0.00101723 
C 38.3343 32.4809 43.2942 12.011 0.0034408 0.00469109 -0.00584347 
C 30.2324 48.0703 46.5825 12.011 0.00468351 0.00196508 0.00470891 
C 8.71254 10.8598 2.86583 12.011 0.000257705 -0.00194909 0.00913723 
C 40.0827 1.18637 31.0276 12.011 0.00708021 -0.000195294 -0.00309993 
C 20.3433 36.5173 26.0688 12.011 -0.00569986 0.0060968 0.0037731 
C 26.9518 15.0872 5.07172 12.011 -0.00221953 0.000440906 0.0042012 
C 20.7 32.6069 23.2141 12.011 -0.00804642 0.00709287 -0.000574368 
C 43.0254 23.6027 13.3207 12.011 0.00300084 -0.00814676 -0.00327689 
C 30.1224 45.3721 40.0006 12.011 -0.00235917 -0.00654228 0.00342502 
C 21.048 41.808 32.5475 12.011 -0.0023524 0.00212948 0.000372126 
C 0.0991487 43.6263 9.42576 12.011 -0.00514887 -0.000890696 -0.0011616 
C 27.3391 21.2541 42.4482 12.011 -0.00286419 -0.00411561 0.00207599 
C 35.5959 8.1277 2.44556 12.011 -0.00501166 -0.00841762 0.00327022 
C 44.4351 6.42761 10.7165 12.011 -0.00656983 0.00145765 0.00499123 
C 3.44245 0.466628 27.8361 12.011 0.0117876 -0.00140778 -0.00214912 
C 20.0441 32.5528 41.7851 12.011 -0.0150939 0.00283517 0.00302428 
C 50.4202 44.287 12.994 12.011 0.00311769 0.00386623 0.0023302 
C 37.6322 2.37999 9.5228 12.011 0.000299161 0.0126244 -0.000994422 
C 18.7357 43.3618 47.9189 12.011 0.00200011 -0.00581825 0.000184625 
C 45.0433 38.7693 42.8382 12.011 -0.000960543 0.00332977 -0.00301176 
C 24.4995 3.71558 42.9405 12.011 -0.00388535 -0.000769677 0.00568602 
C 39.8811 46.2614 48.104 12.011 0.00647635 0.00556931 -0.000438839 
C 17.8302 32.8155 50.4862 12.011 0.00632568 0.00516607 0.00622288 
C 2.45521 19.1687 24.3349 12.011 0.00755008 -0.00235164 0.00605804 
C 1.94898 22.4536 5.76011 12.011 -0.00232526 0.00369505 0.00193902 
C 40.1782 22.5554 45.738 12.011 -0.0102812 -0.000140103 0.00392366 
C 46.173 14.4807 21.2187 12.011 -0.0007466 0.0024308 -0.00296342 
C 29.6037 49.9449 14.8142 12.011 0.000954118 -0.000695507 -0.00590162 
C 3.56375 38.1506 17.7539 12.011 -0.00362101 0.000156237 -0.00511615 
C 23.6735 3.81071 36.0201 12.011 -0.000465908 0.00253283 0.0055619 
C 7.6082 26.1793 44.8857 12.011 -0.00582083 0.00179669 -0.000443765 
C 2.67224 26.3264 45.6055 12.011 -0.00680167 0.00091485 -0.00749282 
C 9.40181 19.6623 1.76884 12.011 0.00212589 0.00701835 -0.00488232 
C 36.4626 10.2719 29.3782 12.011 -0.0032208 -0.000329612 -0.00495801 
C 15.3955 43.0211 49.8796 12.011 0.00128842 0.0106895 0.00425666 
C 13.9946 28.8653 40.3091 12.011 0.00141515 0.00354076 0.00256741 
C 31.4254 0.988984 29.9888 12.011 0.00447903 0.000571105 -0.00536237 
C 8.54174 2.90076 47.4936 12.011 0.00342649 -0.0041431 0.00147547 
C 22.0756 2.2588 37.0984 12.011 0.00315589 -0.00561577 -0.00275018 
C 5.40515 33.5131 10.9088 12.011 0.00252001 0.012395 0.00230895 
C 22.4247 40.8881 30.7524 12.011 0.0109571 0.00478244 -0.00212976 
C 22.8876 40.2214 11.1714 12.011 -0.00104716 -0.00232504 0.00420467 
C 1.80961 37.2654 9.5551 12.011 0.0027526 -0.00493659 0.000683869 
C 45.7376 5.11746 30.1972 12.011 -0.00816625 0.00398033 0.000168958 
C 36.8567 43.339 13.6232 12.011 -0.00996217 -0.00190145 -0.00467835 
C 17.9625 30.2934 39.5306 12.011 0.00127699 0.00267606 -0.00715483 
C 30.6798 23.0775 25.2556 12.011 0.00225092 0.00108217 -0.000755691 
C 46.4939 39.9532 31.0168 12.011 0.000325172 -0.00949444 0.00501241 
C 5.83439 32.5582 28.5125 12.011 -0.0030389 -0.000177849 -0.0035471 
C 42.4593 19.1026 36.0592 12.011 0.00556665 0.000437621 -0.000780041 
C 22.6568 33.3841 24.2714 12.011 0.00976496 0.004166 0.00456896 
C 4.40915 7.45188 34.3597 12.011 0.00134923 -0.00271344 -0.00966954 
C 32.4063 34.379 28.2939 12.011 -0.00611396 -0.00353733 -0.00735721 
C 9.44267 37.1138 22.8573 12.011 0.00454072 -0.00056418 0.00253716 
C 6.62509 1.43114 47.4687 12.011 0.00280712 0.0037592 -0.00527677 
C 45.7686 31.7188 22.4745 12.011 -0.00294585 0.00294988 0.00261967 
C 10.9805 8.31627 8.0848 12.011 0.000923803 0.00490549 -0.000903342 
C 5.83718 19.2386 45.3157 12.011 -0.00460021 -0.000793085 0.00134269 
C 39.3234 34.9702 39.0007 12.011 0.00473674 -0.00190377 -0.00452987 
C 10.7704 46.5713 30.2969 12.011 0.00635645 0.000398107 -0.00089392 
C 28.2257 24.0123 7.95723 12.011 0.00181283 -0.00308447 -0.000254573 
C 4.18758 18.1731 2.19885 12.011 0.000726639 -0.00354233 -0.000682483 
C 30.6541 12.2163 6.85705 12.011 0.000323624 0.00305994 0.00710496 
C 5.0298 24.8131 35.7653 12.011 0.000824727 0.000605562 5.46039e-05 
C 27.9567 46.1247 5.51995 12.011 -0.00321324 0.000424312 0.00148688 
C 5.79488 30.33 38.3048 12.011 0.000388647 -0.00465742 0.00155722 
C 18.9771 36.7305 11.6201 12.011 -0.0095314 0.00479198 0.0015547 
C 42.2392 7.6365 21.1944 12.011 0.00246095 -0.00305342 -0.000627308 
C 35.1179 49.1844 4.76435 12.011 -0.00498163 -0.000444057 0.0100857 
C 46.5716 37.0378 11.9841 12.011 0.00420429 0.000568693 0.000680119 
C 47.9522 50.5997 1.23577 12.011 0.010562 -0.00243266 -0.00519085 
C 47.6905 15.8516 7.04802 12.011 -0.0116799 -0.00396661 0.00678695 
C 12.3203 10.5868 23.6506 12.011 -7.20195e-05 0.0048525 -0.00227624 
C 9.00465 22.7817 39.1159 12.011 -0.00109014 0.00147958 -0.00213989 
C 42.4093 14.732 28.3658 12.011 0.0044415 -0.00170334 0.00201744 
C 29.8202 39.2259 1.82484 12.011 0.00133702 -0.00935162 -0.00487149 
C 15.8773 15.9898 2.54184 12.011 0.00473427 0.00293388 0.00515523 
C 22.4803 3.96522 50.1569 12.011 -0.00421675 -0.000943404 -0.000185577 
C 42.2195 47.992 8.13075 12.011 -0.000192538 0.00027279 0.00189001 
C 37.3929 13.2021 45.735 12.011 -0.000206163 0.00226861 -0.00613995 
C 34.8772 23.6943 36.4925 12.011 -0.00227269 -0.00399917 0.00467582 
C 35.4116 35.2931 36.5 12.011 -0.00512527 0.00267732 -0.00474039 
C 19.4348 30.5269 21.1931 12.011 0.00104381 0.00321937 -0.00403019 
C 46.9265 18.5581 21.6219 12.011 -0.00306306 -0.00144535 -0.00741517 
C 33.3122 17.6893 33.9806 12.011 0.00181079 -0.00151881 0.00171359 
C 47.4258 41.8643 27.2898 12.011 -0.0064429 0.00101938 0.00329177 
C 2.66241 14.7592 2.77443 12.011 -0.0047226 -0.000708062 0.00252851 
C 38.8995 32.6125 15.0621 12.011 0.00172642 0.00185202 -0.00287026 
C 5.66904 6.87514 11.22 12.011 0.00477927 0.0104732 -0.00084049 
C 35.3434 23.6138 34.0849 12.011 0.00394127 0.000569148 -0.00442521 
C 41.2877 12.2482 1.39819 12.011 -0.00213962 0.00691987 0.00574729 
C 3.03261 2.47423 40.0833 12.011 -0.00317136 0.00820948 -0.00587566 
C 6.89778 0.262918 28.829 12.011 -0.00326114 0.00102815 -0.00339395 
C 29.7903 49.2972 47.2703 12.011 0.00147912 -0.000864105 -0.00310322 
C 24.8902 48.7274 8.14856 12.011 0.00431536 0.00106716 0.000479654 
C 21.1753 38.6004 1.79865 12.011 0.000545516 -0.00119487 0.00341542 
C 36.8665 43.3556 22.1549 12.011 -0.00063117 -0.00121336 -0.0070176 
C 16.1581 38.4634 6.13327 12.011 0.00915695 -0.00511859 0.00208333 
C 2.91765 37.869 31.0634 12.011 0.00434447 0.0023167 -0.00267655 
C 24.9229 37.3132 44.8223 12.011 0.00415933 -0.00440276 0.00139232 
C 47.1182 47.8046 34.7788 12.011 0.000439526 -0.01053 0.00306964 
C 27.9672 44.4169 27.5026 12.011 0.00753431 0.00487313 0.00142797 
C 16.4652 6.86595 46.1295 12.011 -0.00524394 -0.00298354 -0.00019412 
C 32.3112 18.1649 28.4823 12.011 0.00681468 0.0134069 -0.00323357 
C 16.8514 15.1238 35.3382 12.011 0.00505346 -0.00310517 -0.000323286 
C 26.955 19.3063 22.8073 12.011 0.000404285 0.00413592 -0.000555195 
C 23.4042 36.285 31.9483 12.011 0.00307383 0.000361533 -0.00515282 
C 7.65249 40.6614 20.739 12.011 0.00439434 0.000169836 0.0048323 
C 32.5561 17.9855 29.9089 12.011 0.00349433 0.00218775 0.00543494 
C 44.5884 40.5545 37.5355 12.011 -0.0044404 -0.00778457 -0.00522244 
C 47.8013 31.0212 14.3324 12.011 0.00747307 -0.000762115 -0.0104039 
C 31.7498 22.7575 18.5713 12.011 0.000619651 0.00508323 0.00974233 
C 2.81498 1.52255 22.2157 12.011 0.00214815 -0.00115518 -0.00268649 
C 24.1873 25.5045 3.20373 12.011 -0.00641824 -0.00566814 -0.00625245 
C 41.43 24.3058 39.1251 12.011 -0.00147406 0.00185368 -0.00208636 
C 27.9993 44.3132 7.17378 12.011 0.0027937 -0.00187133 0.00353096 
C 24.3289 31.3471 5.26341 12.011 -0.00274303 -0.00117069 -0.00760462 
C 37.8999 5.19858 19.0823 12.011 0.000393751 -0.00559067 -0.00299317 
C 14.3268 47.2422 34.6223 12.011 -0.00321194 -0.00154953 -0.00498521 
C 36.2284 23.2075 6.54336 12.011 -0.0010479 -0.00612057 -0.00566994 
C 23.0444 39.2413 10.1961 12.011 0.0035257 -0.00688708 0.00510722 
C 37.5021 41.9736 17.5849 12.011 -0.00457581 0.00541598 0.00602347 
C 0.727081 41.4101 41.304 12.011 -0.00118761 -0.00546409 -0.000655492 
C 14.7223 10.5438 23.3154 12.011 0.00653036 -0.000421334 -0.00215678 
C 18.0862 35.6058 11.5844 12.011 -0.000734584 0.00175054 -3.92336e-05 
C 42.1291 41.2974 2.03856 12.011 0.00411286 0.00103899 -0.00454956 
C 7.86425 36.154 24.6123 12.011 -0.00680032 0.000382191 -0.0037699 
C 30.5052 5.78806 40.5523 12.011 0.00397931 0.001706 0.00102072 
C 15.6475 14.0723 37.425 12.011 -0.00238649 -0.0110874 -0.00107316 
C 32.3137 35.3267 35.9734 12.011 0.0110011 0.00228938 -0.00182006 
C 48.8612 35.0864 26.4077 12.011 0.00189905 -0.00698653 0.00423331 
C 44.3409 18.6056 34.5422 12.011 0.00197196 0.00266472 0.00436551 
C 46.4935 6.36204 11.8756 12.011 -0.000936222 0.00444202 0.000616246 
C 7.38055 24.2197 16.6049 12.011 -0.000957193 0.00484023 -0.0017224 
C 44.9131 36.3428 45.6885 12.011 0.00118573 -0.000675788 -0.00774484 
C 34.9044 45.8002 3.08469 12.011 -0.00189139 -0.00169225 0.00198961 
C 9.06432 10.9633 25.5372 12.011 -0.00629461 0.000413782 -0.00324089 
C 2.53152 6.80646 45.7624 12.011 -0.00211869 0.0040536 -0.00130699 
C 25.9156 14.784 15.2811 12.011 -0.00661482 -0.000440413 -0.0031772 
C 32.0712 24.1033 26.9903 12.011 0.00316298 -0.00836858 -0.00391325 
C 7.90318 1.90321 35.0911 12.011 -0.00483175 -0.00521186 0.0117505 
C 35.5074 33.3453 46.3136 12.011 -0.00112356 -0.00476703 0.00411249 
C 39.921 23.9488 46.0656 12.011 -0.00592974 -0.0104721 -0.00353754 
C 30.0055 8.39687 45.948 12.011 0.00101791 -0.000365532 0.00381148 
C 46.5122 43.0973 3.99324 12.011 0.00815895 -0.00913258 -0.00458239 
C 42.1164 14.7645 46.4497 12.011 -0.00162144 0.00070476 -0.00412796 
C 30.8672 44.2808 39.329 12.011 -0.00161152 -0.00293215 0.00547612 
C 44.1236 0.854759 25.8213 12.011 -0.00865067 -0.00593103 -0.00603376 
C 17.2873 18.1193 43.5028 12.011 -0.0064549 -0.00417288 -0.00471557 
C 25.5628 25.941 14.499 12.011 0.00570784 -0.00335688 0.00285728 
C 11.576 45.709 0.889753 12.011 -0.00320032 -0.00505442 0.000285708 
C 27.0225 19.2602 44.4245 12.011 0.000880704 0.00512998 0.00118377 
C 23.5681 18.6058 26.2647 12.011 0.00711612 0.000725698 0.00108946 
C 45.3284 22.8876 16.1993 12.011 0.00391285 -0.00108618 0.00182746 
C 0.653549 43.9095 50.0697 12.011 0.000530219 -0.00110064 0.000148405 
C 15.1655 12.8221 30.5767 12.011 0.00384653 -0.00272227 0.00341132 
C 39.5861 32.5236 32.3872 12.011 0.000777841 0.00556178 0.000946179 
C 19.4388 42.7648 34.1321 12.011 0.0117446 -0.00289452 0.00304087 
C 27.4253 31.0108 44.6088 12.011 0.00206563 0.00153042 0.00801667 
C 3.46137 18.6883 45.786 12.011 -0.00264548 0.00204528 -0.00352203 
C 41.6269 32.7224 14.5539 12.011 0.00184232 0.00375556 0.000619947 
C 13.5237 48.9621 0.479671 12.011 -0.0141946 0.00131088 -0.00448681 
C 9.18374 8.29153 32.18 12.011 -0.00137902 -0.00149298 0.00358629 
C 5.05463 8.74112 17.7897 12.011 -0.00113455 0.00486819 -0.00278935 
C 22.9447 6.21429 29.076 12.011 -0.00559623 0.00242513 -0.00158267 
C 26.5614 39.9138 5.60216 12.011 0.000317332 0.0070866 0.00263726 
C 12.8553 27.123 26.4597 12.011 0.00283785 0.00188687 0.00477764 
C 3.23704 42.6369 25.874 12.011 -0.00365068 -0.0011643 0.000951623 
C 38.8851 42.1631 26.3098 12.011 0.00320999 0.00137094 -0.00652402 
C 1.96136 31.6985 26.0177 12.011 0.00622482 0.00124562 0.000923299 
C 0.133817 36.6545 11.3233 12.011 0.0061854 -0.00503055 -0.00197479 
C 41.3286 44.8212 31.9216 12.011 0.000656274 -0.00566851 -0.000462839 
C 8.01462 8.50339 17.6027 12.011 -0.0108168 -0.00245965 0.000550765 
C 36.0695 50.214 5.05104 12.011 0.00244787 0.00452622 -0.000139858 
C 36.0384 16.7131 47.4839 12.011 0.00485706 -0.0010404 0.00805949 
C 9.86724 36.5968 18.1905 12.011 0.00826489 0.0066168 0.00325205 
C 35.4406 9.05278 43.9024 12.011 0.00119027 -0.00536964 0.00307563 
C 13.5005 49.8064 16.5346 12.011 -0.00152767 0.0124392 0.00171538 
C 30.212 10.189 35.1712 12.011 0.00179632 0.00386187 3.36226e-05 
C 1.44621 44.8293 49.1825 12.011 -0.00382149 -0.0032668 0.00161815 
C 41.4978 3.39494 8.54055 12.011 0.000379589 -0.00567019 -0.00359979 
C 42.5987 33.3994 47.0441 12.011 0.00534208 -0.000584642 0.0036559 
C 44.7444 24.6935 45.388 12.011 -0.00836321 0.00850988 -0.0139118 
C 12.1426 47.3141 26.2276 12.011 -0.00679029 -0.00157951 -0.00569119 
C 3.93713 1.05328 23.0526 12.011 0.00280711 -0.00178573 0.00164313 
C 17.7474 33.2617 10.8428 12.011 0.00180305 0.00171545 0.00702397 
C 4.78169 39.0826 32.1899 12.011 0.000752972 -0.00473163 -0.000330264 
C 35.0007 12.3437 28.5372 12.011 -0.00127515 -0.00390187 0.00232625 
C 7.07932 8.87689 40.9742 12.011 -0.00580363 0.0030372 0.00506827 
C 1.46857 0.330746 31.1651 12.011 -0.0076135 -0.00724933 -0.00495719 
C 41.9573 10.2332 8.08225 12.011 0.00352334 0.00226894 -0.00690761 
C 0.744806 32.5593 10.0915 12.011 0.00461638 -0.00415953 0.00580601 
C 9.73203 17.5406 8.34998 12.011 -0.0038257 0.00278267 0.000928708 
C 26.1942 26.4691 13.316 12.011 -0.00242465 0.00326515 0.0109863 
C 24.6958 2.07357 8.61025 12.011 0.00146967 -0.00194389 0.00121308 
C 9.50577 32.341 10.4537 12.011 -0.00312631 0.0115858 -0.00134651 
C 50.9672 23.4389 44.6011 12.011 0.00218932 0.00688663 -0.00345747 
C 38.6782 44.5992 23.9737 12.011 -0.00631799 0.00940216 -0.00918078 
C 46.4801 2.58424 48.311 12.011 0.009341 -0.0010621 0.00389693 
C 15.5818 28.6616 37.3854 12.011 -0.00650691 0.00310394 0.00141288 
C 41.3046 47.3825 49.7577 12.011 -0.00455505 0.00123512 0.00613222 
C 46.307 0.338586 36.3126 12.011 0.00447336 -0.00732662 -0.00327941 
C 44.6294 30.9615 8.878 12.011 0.00124969 0.0130635 -0.00217362 
C 31.1629 11.0302 7.24825 12.011 -0.006466 -0.00394105 -0.00730745 
C 20.1304 47.6 30.6904 12.011 0.00602791 -0.00424271 -0.00051611 
C 47.5999 33.7759 3.22573 12.011 -0.0032487 -0.00195116 -0.00293183 
C 49.7282 43.2919 8.96459 12.011 -0.00349072 0.00437865 0.00662508 
C 5.99635 22.1806 36.2808 12.011 -0.000545256 -0.00157836 0.00941045 
C 0.397563 29.6841 25.5012 12.011 0.00275079 -0.00859942 -0.00264666 
C 8.79608 39.505 16.239 12.011 -0.00788143 -0.00244383 -0.00556237 
C 7.84475 6.56003 19.0916 12.011 0.00014574 0.00388192 0.00010202 
C 26.9321 47.9114 9.26758 12.011 -0.00563079 -0.00155829 0.00381472 
C 46.3436 35.2632 29.6401 12.011 -0.00748927 -0.00158244 -0.00317448 
C 42.9555 15.823 26.2376 12.011 0.00637667 -0.00501934 0.00613106 
C 1.89924 15.3383 16.7825 12.011 -0.00619965 -0.00584535 -0.0080852 
C 38.0093 10.9355 27.6529 12.011 -0.0010555 0.000571275 0.0051777 
C 27.2031 42.1575 6.39905 12.011 0.00122538 -0.00424077 0.00404239 
C 38.4627 36.1947 39.245 12.011 -0.00275761 0.00513351 0.00610527 
C 7.27909 26.6865 16.6547 12.011 -0.000203257 -0.00520075 0.00551695 
C 11.6019 5.28777 5.01206 12.011 -0.001236 -0.00704342 0.0120298 
C 26.349 29.2122 2.91643 12.011 0.00679345 -0.00302042 0.00306082 
C 6.07643 25.9225 33.9247 12.011 0.00102191 0.00286692 0.00281295 
C 9.12387 41.5124 38.3458 12.011 -0.00543011 -0.00093867 0.00424816 
C 29.8818 23.1097 36.6644 12.011 -0.0049644 7.87526e-05 0.00534486 
C 20.9773 33.9246 44.0284 12.011 -0.0013142 0.0015129 -0.00235098 
C 35.5766 26.8557 20.105 12.011 0.00910959 -0.000847553 0.00293684 
C 6.20931 2.55256 39.718 12.011 -0.00253366 0.00207148 -0.00530833 
C 32.5643 12.4618 46.047 12.011 0.00715742 -0.00485968 -0.0144694 
C 24.5926 27.8412 3.95844 12.011 0.00258972 0.000187744 0.00015289 
C 25.2824 36.254 40.1563 12.011 -0.00605752 -0.00192705 -0.00120062 
C 13.3327 4.48038 30.5076 12.011 -0.00123167 0.000873808 0.000262781 
C 27.3539 28.6554 45.1627 12.011 -0.00361448 -0.00276055 -0.00672884 
C 37.6951 32.7869 29.4186 12.011 0.000580659 0.00793941 0.00803028 
C 36.4411 17.6576 32.059 12.011 0.00870397 0.00507094 -0.00130411 
C 43.3059 26.6087 45.6815 12.011 0.00394359 0.0034953 -0.000998224 
C 34.8389 14.0947 3.90704 12.011 0.0041155 -0.00397287 0.00254803 
C 49.9888 44.7344 15.3411 12.011 -0.000700332 0.00226319 0.00108748 
C 18.7137 7.53401 17.9985 12.011 -0.00725634 -0.00257443 0.000683212 
C 41.0019 29.9582 24.3305 12.011 0.00790322 -0.00103547 0.00260137 
C 17.5833 6.92241 14.0184 12.011 -0.0050632 0.00709161 -0.00550101 
C 6.93731 2.44916 37.3976 12.011 0.000477046 0.00536919 -0.00212057 
C 31.3939 47.1303 19.3541 12.011 0.00189043 0.00102632 0.00157777 
C 17.1527 6.86037 51.0032 12.011 -0.0033665 0.00167972 -0.00301016 
C 48.9743 29.1473 3.71844 12.011 -0.00316364 -0.0024268 0.00736234 
C 30.1939 17.0558 41.4562 12.011 0.00895588 -0.00268081 -0.00666138 
C 19.4171 28.6198 33.9616 12.011 -0.00914884 -0.00267016 -0.00167706 
C 6.05845 23.059 11.6831 12.011 -0.00092391 0.00330962 0.00192454 
C 9.33154 9.26063 42.1892 12.011 -0.00142346 0.000988754 0.0013579 
C 1.5287 15.109 42.2566 12.011 4.36509e-05 -0.00677663 0.00440231 
C 41.9359 20.0467 2.58511 12.011 -0.00239355 -0.00676928 1.72299e-05 
C 41.755 18.3408 15.4781 12.011 -0.00129103 0.00603583 -0.00629697 
C 18.1166 37.1795 35.8758 12.011 -0.00648577 -0.00225125 0.000750035 
C 41.4969 7.4116 11.3202 12.011 0.00147888 0.00483731 -0.00339375 
C 12.0895 17.5825 47.3165 12.011 0.00750901 -0.0101269 8.21786e-05 
C 43.5988 45.825 1.20785 12.011 -0.00495091 0.00746124 -0.000217714 
C 12.1953 38.9269 47.1063 12.011 -0.00106497 0.0124652 -0.00465563 
C 19.6214 42.1262 19.4413 12.011 -0.00360924 0.00288022 -0.00130299 
C 35.2962 25.9324 25.8912 12.011 2.18975e-05 0.00179395 0.00117519 
C 41.6943 43.3232 12.7242 12.011 0.00330206 0.00189767 0.00112201 
C 3.39724 0.939138 12.1832 12.011 0.00134366 -0.00251753 0.00910677 
C 44.533 27.7784 2.84646 12.011 0.00398825 0.00783706 -0.00325411 
C 26.2908 23.013 11.5496 12.011 0.0108753 -0.000232188 -0.00271816 
C 23.3917 14.8162 10.9551 12.011 -0.00188369 0.00690462 -0.00541275 
C 5.47208 49.8857 47.5319 12.011 -0.00313997 0.00180284 -0.00134411 
C 26.6038 39.993 36.9706 12.011 -0.00264252 -0.00161193 0.00376276 
C 47.0399 1.12894 38.4944 12.011 0.00488819 -0.000864008 0.0049845 
C 9.23591 30.0917 38.7854 12.011 -0.0134104 0.00218346 0.00505813 
C 8.60194 12.8352 49.5543 12.011 0.000449135 -0.00164589 0.00768601 
C 0.182163 17.326 46.6557 12.011 -0.00415166 0.00522069 -0.00341162 
C 36.4955 39.8482 34.0258 12.011 0.00565685 -0.00101881 0.00654905 
C 14.3326 39.3858 20.8506 12.011 0.00385822 -0.0103653 0.00454567 
C 0.230051 9.33527 21.3989 12.011 -0.0057111 -0.000277322 -0.00501128 
C 48.1523 38.6028 34.8285 12.011 -0.00261365 -0.00113285 -0.00295491 
C 37.564 0.85962 34.5796 12.011 -0.00747503 -0.00630529 -0.00332221 
C 41.8478 32.6104 28.5162 12.011 -0.00577507 -0.000748341 0.000811413 
C 38.073 42.1095 44.7767 12.011 0.0075058 0.00360915 -0.00136129 
C 22.4024 21.4577 1.76892 12.011 0.00198438 -0.000558963 -0.000525267 
C 36.5242 18.5597 49.0421 12.011 0.00285049 -0.000404303 -0.000186513 
C 10.4966 34.9088 31.3278 12.011 0.00533652 -0.00637874 0.00465016 
C 18.4612 37.9584 27.3032 12.011 0.00294179 -0.00567196 0.00280985 
C 50.658 8.33384 13.6071 12.011 0.000653022 0.00219808 0.00315699 
C 5.15274 15.4582 2.99129 12.011 0.00551254 -0.00422817 -0.00271069 
C 16.1522 16.726 12.413 12.011 -0.00385692 -0.0018656 -0.000964527 
C 14.2709 27.2885 49.7427 12.011 -0.00627561 0.00313989 -0.00466665 
C 3.19488 34.3209 23.8451 12.011 -0.00536154 -0.00422241 0.00348092 
C 38.3146 45.3768 46.4568 12.011 5.07037e-05 -0.00740608 0.00204632 
C 23.2516 41.7916 1.84771 12.011 0.00150531 0.000248054 -0.00557917 
C 29.1806 27.3198 50.4841 12.011 -0.0072025 -0.00263978 0.00281439 
C 0.603933 28.198 38.8792 12.011 0.0119063 0.00652093 -0.001072 
C 46.5454 17.8986 1.87855 12.011 0.000109337 -0.00443332 0.00210272 
C 38.2458 19.9724 1.57058 12.011 -0.00510528 -0.0108004 0.00191022 
C 26.1638 5.51232 38.3202 12.011 0.00316681 -0.00500328 -0.00509477 
C 42.6425 22.929 45.9067 12.011 0.00288049 0.00197178 -0.0137469 
C 9.00384 48.43 15.4152 12.011 -0.000181168 0.00823363 0.00129173 
C 18.3318 31.6513 27.8436 12.011 0.00471159 -0.00245161 0.00148568 
C 15.1358 43.4728 36.0015 12.011 -0.00558647 0.00342038 -0.000235317 
C 40.3908 34.5593 41.0921 12.011 0.0067159 0.000492962 -0.00222828 
C 4.61257 24.9556 12.14 12.011 0.00099439 -0.00234994 -0.0120576 
C 50.9071 21.6547 25.0288 12.011 -0.0015986 0.000969703 -0.00279292 
C 30.8535 24.6168 41.8795 12.011 -0.00829006 -0.0014578 -0.000242394 
C 14.905 2.38526 43.7208 12.011 0.00178619 0.0065213 -0.00182968 
C 39.1578 2.04434 2.73356 12.011 0.00803852 0.0113125 0.0085369 
C 27.2969 43.4083 15.3178 12.011 -0.00440852 -0.000858754 0.00185784 
C 40.9259 0.637638 8.43705 12.011 -0.00525448 0.0021277 -0.00158861 
C 39.4752 45.895 33.2145 12.011 0.000867126 -0.00212687 -0.00135979 
C 5.72807 7.54979 30.9926 12.011 0.00893386 0.00439889 -0.00100003 
C 49.0464 13.5984 1.55696 12.011 -0.00230325 -0.0041024 0.00436782 
C 27.249 26.5969 21.5299 12.011 -0.001431 -0.000818979 0.00419734 
C 3.76621 13.1905 12.3619 12.011 0.00624727 0.00462738 -0.00601491 
C 50.7655 25.3957 24.5325 12.011 -0.00425601 -0.00712353 0.00448996 
C 16.4465 14.3929 34.217 12.011 -0.00681171 0.00358967 0.00279797 
C 46.0146 27.2883 33.0656 12.011 0.00395939 0.0013604 -0.00507055 
C 29.261 34.8715 12.2808 12.011 -0.00397282 0.0029583 -0.00200976 
C 48.3357 16.6863 22.3941 12.011 -0.00226809 0.00674349 0.0032382 
C 30.9145 0.159993 9.40686 12.011 -0.00441592 -0.00317141 0.0087554 
C 47.9513 15.6246 13.5532 12.011 -0.00218962 0.00938859 -0.000884325 
C 8.02522 45.8264 2.35593 12.011 0.000789905 -0.00726241 -0.00196213 
C 0.866421 42.652 25.5713 12.011 0.00251806 0.00453736 0.00363574 
C 23.3315 16.3424 17.9061 12.011 0.00161234 -0.00300561 0.00550196 
C 14.4419 36.369 46.6393 12.011 -0.00149128 0.00286397 0.00509963 
C 35.7665 7.29902 1.30122 12.011 0.000453575 0.00212061 -0.00427291 
C 30.9191 35.1015 35.6035 12.011 -0.00122491 -0.00222166 -0.00183862 
C 30.7877 37.2121 21.1455 12.011 -2.33185e-05 -0.00468167 -0.000484792 
C 13.5841 11.1013 24.0672 12.011 0.00287236 -0.00811024 -0.000563479 
C 34.6025 15.2002 12.99 12.011 0.00345505 0.00493998 7.56235e-05 
C 39.2962 15.6978 33.1222 12.011 -0.00608954 -0.00194484 -0.000610097 
C 46.1391 38.6962 41.8729 12.011 -0.00942084 0.00149563 0.00140536 
C 30.981 16.3227 12.824 12.011 -0.00127155 -0.00459289 -0.00192416 
C 1.81921 32.913 18.7287 12.011 -0.00879804 -0.00175623 0.00890457 
C 39.3495 32.3324 17.4876 12.011 -0.000834949 0.000936158 0.000449123 
C 48.4207 31.8628 16.6881 12.011 0.000349745 -0.0055464 0.000580187 
C 32.8657 14.2727 20.4187 12.011 -0.00486142 0.00360119 -0.00467105 
C 31.8385 29.0262 5.53549 12.011 0.000966581 -0.0045958 -0.00369468 
C 39.618 43.6411 23.4668 12.011 0.00622331 -0.00320079 -0.00556546 
C 15.2086 10.5014 16.3355 12.011 -0.00382249 -0.000286318 -0.00457068 
C 1.18669 14.9259 9.4693 12.011 -0.00266734 -0.0026454 -0.00463622 
C 13.9425 24.605 1.22617 12.011 -0.000827384 -0.00271639 -0.000393146 
C 25.2816 49.9295 43.6543 12.011 0.00142445 -0.00507159 0.00565858 
C 1.76129 9.74515 3.55262 12.011 -0.000756911 0.000434691 0.00972251 
C 13.7497 32.4913 31.5838 12.011 -0.0104167 0.000460177 0.00112408 
C 25.6901 15.5161 11.5853 12.011 0.00204208 -0.00557334 0.00426275 
C 26.3951 11.9053 18.1994 12.011 -0.000777081 0.00854911 0.00515056 
C 1.65759 43.4315 36.8509 12.011 -0.00614381 -0.00149307 0.00560947 
C 27.3542 42.847 17.68 12.011 0.00120549 0.00207535 0.00718714 
C 23.9152 23.1896 18.8597 12.011 0.00353096 0.00382312 0.0010617 
C 8.09038 24.7965 23.5819 12.011 -0.00456889 0.00678636 -0.00724645 
C 30.4248 48.9746 16.93 12.011 -0.00511292 -0.000871896 0.00383878 
C 39.1567 30.2743 22.1615 12.011 -0.00813474 0.00352986 -0.000242634 
C 11.3475 22.7538 26.7495 12.011 0.00697746 -0.0040322 -0.00271713 
C 9.92026 3.38169 26.7916 12.011 0.000732531 -0.00452578 0.00015006 
C 45.7571 29.1033 25.2849 12.011 -0.00155898 -0.00424202 0.00369641 
C 9.82447 48.5477 16.5835 12.011 -0.00249263 0.00247275 0.00204314 
C 41.5317 10.8705 33.7722 12.011 0.00304243 0.00167487 0.000786471 
C 4.93834 29.8683 11.1667 12.011 -0.00341221 -0.0017301 0.00846399 
C 38.6454 17.5289 14.8029 12.011 -0.00194996 -0.00304928 0.00478868 
C 43.3902 42.11 33.5092 12.011 -0.00582832 -0.00176134 -0.00841948 
C 23.5668 27.7548 41.1183 12.011 0.00128771 -0.00489391 0.0043705 
C 7.08265 31.7457 10.8081 12.011 -0.00898637 0.00301325 -0.00256673 
C 41.6763 8.68878 1.98077 12.011 -0.00313113 0.00264302 0.00325488 
C 20.8511 0.360621 3.71421 12.011 0.00298003 -0.00107038 -0.00603739 
C 18.2253 36.8009 3.52819 12.011 -0.0041961 -0.00166773 -0.00129515 
C 9.11623 22.281 40.5959 12.011 0.000453876 0.00369104 0.00250512 
C 9.69619 4.89788 19.2144 12.011 0.00830113 0.000278041 -0.00899501 
C 4.4815 12.8536 48.2603 12.011 -0.00179824 0.00735184 0.0136693 
C 30.9605 34.2007 47.6026 12.011 -0.00119037 0.00469881 0.00531093 
C 46.1369 37.9245 24.6112 12.011 -0.0014281 -0.00292801 -0.00592814 
C 36.2044 0.713448 43.9237 12.011 -0.00235523 0.000403107 -0.00514918 
C 3.30465 14.4162 33.9061 12.011 0.00851069 -0.00130058 0.00306292 
C 29.2198 35.4333 1.60555 12.011 0.00193541 0.000214395 0.0097619 
C 2.60116 15.0648 9.34928 12.011 0.00341011 0.00659293 0.00141941 
C 24.5607 37.2819 32.2886 12.011 0.0010706 0.0051809 0.00392785 
C 6.18595 21.473 27.7307 12.011 -0.00225132 0.00330433 -0.00186605 
C 3.88892 20.1279 36.3078 12.011 -0.00188232 0.00612394 -1.69434e-05 
C 34.1255 26.3943 42.8213 12.011 0.00510789 -0.00288188 0.00745245 
C 23.9484 21.0698 3.65469 12.011 0.000520487 -0.00622664 0.000326351 
C 16.91 23.2553 9.26124 12.011 -1.24309e-05 0.00435482 0.00300435 
C 45.7029 11.7224 25.2534 12.011 0.00204321 0.00509403 0.0046545 
C 17.9436 8.83393 45.3511 12.011 0.00381432 0.00425895 0.00516451 
C 45.9113 21.7187 31.6992 12.011 -0.0104495 8.35031e-05 0.00747356 
C 27.7451 18.0744 26.1185 12.011 -0.00482889 -0.000968272 0.00351865 
C 12.4264 41.5005 0.883549 12.011 -0.00175926 0.00498993 -0.0025496 
C 6.01558 29.4121 30.5804 12.011 0.00035962 -0.00619584 0.00347119 
C 41.8475 49.1621 41.1409 12.011 0.000613895 -0.00403809 0.00977824 
C 33.104 39.3873 46.782 12.011 -0.00457634 -0.00648739 -0.00225547 
C 13.0382 25.2819 7.32475 12.011 0.00339072 0.00247726 -0.000399181 
C 11.4277 18.7937 47.5622 12.011 0.00801549 -0.00550304 -0.00328367 
C 30.7493 9.85488 6.57833 12.011 -0.00169858 0.00187229 0.00272689 
C 48.8011 28.3457 10.6693 12.011 -0.0024896 -0.00780926 0.00331829 
C 12.6658 17.925 12.7847 12.011 -0.008556 -0.00378859 0.0014816 
C 14.049 26.6949 50.9854 12.011 -0.00202761 -0.00323012 -0.0013908 
C 41.9501 4.06906 38.3641 12.011 0.00408066 0.00392301 0.00170665 
C 21.271 40.9401 2.76926 12.011 0.00289239 0.000420471 -0.00141821 
C 34.3587 3.01058 37.3482 12.011 -0.00783469 -0.00309259 -0.00204153 
C 8.02956 1.06044 28.9833 12.011 -0.00679213 -0.00681207 0.000722111 
C 40.0205 33.136 2.05648 12.011 -0.000833924 0.00245621 -0.00870674 
C 2.00134 41.9533 49.4805 12.011 -0.000448121 -0.00182624 0.00462899 
C 50.6218 35.7989 1.94997 12.011 0.00612388 -0.0013233 0.00205965 
C 38.2764 5.53317 30.9051 12.011 0.00287806 -0.00541807 0.00170852 
C 0.349524 32.7246 47.1568 12.011 0.00375842 -0.00636308 0.000874616 
C 11.1959 35.3943 36.1507 12.011 -0.00400862 -0.0004613 0.000574193 
C 29.3643 40.3728 2.48833 12.011 -0.00266336 -0.00383114 -0.00563668 
C 47.1043 27.9774 4.77042 12.011 0.0104325 0.000375195 -0.00941014 
C 45.6831 37.4559 25.8191 12.011 0.00384205 -0.000973505 0.00718604 
C 9.30715 9.04148 29.2744 12.011 0.00284856 -0.0028617 0.00814733 
C 41.5288 42.3153 19.0725 12.011 -0.00691631 -0.000918662 0.00289117 
C 21.4527 5.61362 48.5466 12.011 0.00196722 -0.000833131 -0.0012423 
C 35.2461 35.8824 12.5279 12.011 0.000350454 -0.00564671 0.00045612 
C 18.4881 41.465 17.3877 12.011 -0.000726117 0.00513313 0.0049621 
C 34.8068 20.7046 15.6684 12.011 0.00160395 0.00193851 0.00952817 
C 15.3909 16.7258 43.8382 12.011 -0.00227221 -0.0076069 0.000433367 
C 7.39282 16.9222 19.2488 12.011 -0.00622804 0.00628719 -0.000786198 
C 49.148 16.9043 30.5558 12.011 0.00414711 0.00262589 -0.00318291 
C 6.58911 20.8215 39.5857 12.011 -0.00402171 -0.00398744 -0.000620802 
C 16.5047 14.1519 29.281 12.011 0.000860547 0.00277573 -0.00231603 
C 33.1471 47.4794 3.68136 12.011 0.00151771 -0.000537435 0.00114507 
C 28.9404 48.4158 13.137 12.011 -0.00105567 -0.00161091 0.00323742 
C 6.3635 44.1683 35.1333 12.011 0.00135493 0.00257267 -0.00430893 
C 7.23851 7.64884 18.4235 12.011 -0.00553704 -0.00170381 0.00108448 
C 3.9934 15.2924 27.411 12.011 -0.00480703 -0.000812137 -0.00314776 
C 29.6194 22.6287 31.2403 12.011 -0.00177233 -0.00236664 0.00200308 
C 44.3792 25.2674 35.5065 12.011 -0.00616927 0.000541416 0.00308839 
C 32.761 43.4835 37.8399 12.011 0.00453278 0.0029756 0.000840687 
C 13.9406 47.6943 7.25371 12.011 0.00051495 -0.00517135 -0.000311456 
C 48.8332 8.42854 37.706 12.011 -0.00350025 0.00672042 -0.00018023 
C 11.0138 4.45734 18.8103 12.011 -0.00128206 -0.00172456 0.00283485 
C 16.0302 34.3449 12.2072 12.011 0.00617286 0.000463442 0.00518408 
C 22.283 41.9194 13.9089 12.011 0.005295 0.000719008 -0.0036392 
C 43.7248 36.5931 15.1429 12.011 -0.00102744 0.00156138 0.00642396 
C 16.935 2.9111 3.41322 12.011 -0.00568481 -0.00511216 -0.0137162 
C 4.49056 6.58911 4.15954 12.011 -0.000626039 0.000299525 0.00719435 
C 30.0452 26.2236 8.06859 12.011 -0.00274482 0.000755421 -0.00241237 
C 41.6258 16.2972 1.70677 12.011 -0.0114048 -0.0052645 0.00558096 
C 50.5191 44.2896 50.7427 12.011 0.00548551 -0.00594835 0.00766487 
C 30.9046 29.7926 16.3918 12.011 -0.00158744 0.00255835 -0.00517484 
C 14.1648 3.95046 36.7346 12.011 -0.00582396 -0.00470054 0.00664793 
C 2.00012 5.76528 23.4854 12.011 -0.00194912 -0.000969145 0.0014015 
C 27.2034 14.2914 2.65835 12.011 -0.00672308 -0.00294047 -0.0044746 
C 23.2118 40.1689 26.3483 12.011 -0.000838295 -0.00742346 -0.00313187 
C 11.4086 3.31241 31.7208 12.011 0.000373467 -0.000265466 0.0042927 
C 42.2848 43.7812 31.8915 12.011 0.00679099 0.00514547 -0.000162593 
C 41.2397 9.93263 1.68217 12.011 -0.00941598 0.000897589 0.000667839 
C 18.1504 34.266 30.5017 12.011 0.0014124 -0.00636682 -0.00535222 
C 48.6882 32.5307 42.4703 12.011 0.0056074 -0.00346146 -0.00262119 
C 1.4482 13.3009 46.7106 12.011 -0.00392231 0.00471741 -0.00723404 
C 0.588343 25.9803 5.14713 12.011 -0.00312693 0.00229686 -0.0009494 
C 23.303 0.202833 37.6869 12.011 0.0123754 0.000378915 0.000221365 
C 21.7809 22.0127 22.0208 12.011 -0.000336065 -0.0055919 0.000636747 
C 36.2963 7.15671 40.2993 12.011 -0.00681211 0.00323552 -0.00173228 
C 47.8854 48.6589 13.226 12.011 -0.00784961 -0.00461348 -0.0179855 
C 41.2861 9.39665 12.6867 12.011 -0.00599435 -0.000426463 0.00337038 
C 27.4379 34.4822 32.5061 12.011 0.00551747 0.00703754 0.00079668 
C 1.75787 27.2327 11.8034 12.011 0.00560718 -0.00846832 0.00145794 
C 41.8018 12.1041 33.275 12.011 0.00190045 0.00492296 -0.00420414 
C 22.6745 35.201 42.6087 12.011 0.00575083 -0.000194448 -0.00194014 
C 4.90771 3.6902 47.3421 12.011 0.00612782 -0.00174077 -0.00431282 
C 0.473439 49.6777 12.9076 12.011 0.00169149 -0.00442247 0.00278164 
C 43.3182 5.36133 5.25161 12.011 0.00689752 -0.00413582 -0.00158974 
C 8.09095 40.911 3.57602 12.011 -0.00153287 -0.00189054 0.00357062 
C 28.1858 48.2505 36.2074 12.011 -0.00461524 -0.00601843 -0.00397643 
C 40.6763 35.7581 41.8327 12.011 -0.00543099 -0.00771724 0.000320854 
