Li Ni
 1.0000000000000000
     5.4373707498607846    0.0000000000000000    0.0000000000000000
    -2.7186853749303923    4.7089011991738818    0.0000000000000000
     0.0000000000000000    0.0000000000000000    4.3973955201074588
 Li  Ni 
   6   2
Direct
  0.3517190183078243  0.1758595091539121  0.7500000000000000
  0.8241404908460880  0.1758595091539121  0.7500000000000000
  0.8241404908460880  0.6482809816921757  0.7500000000000000
  0.6482809816921757  0.8241404908460879  0.2500000000000000
  0.1758595091539121  0.8241404908460879  0.2500000000000000
  0.1758595091539121  0.3517190183078243  0.2500000000000000
  0.6666666666666667  0.3333333333333333  0.2500000000000000
  0.3333333333333334  0.6666666666666667  0.7500000000000000
