Li                                      
    1.000000000000000     
     4.8880117485070862    0.0000000000000000    0.0000000000000000
     0.0000000000000000    4.4436470440973510    0.0000000000000000
     0.0000000000000000    0.0000000000000000    4.4436470440973510
   Li
     4
Direct
     0.7949723201825591    0.1255304477991785    0.6255304477991785
     0.3404268656371059    0.3744695522008215    0.3744695522008215
     0.1141185889083474    0.6255304477991785    0.8744695522008215
     0.5686640434538006    0.8744695522008215    0.1255304477991785
 
  0.00000000E+00  0.00000000E+00  0.00000000E+00
  0.00000000E+00  0.00000000E+00  0.00000000E+00
  0.00000000E+00  0.00000000E+00  0.00000000E+00
  0.00000000E+00  0.00000000E+00  0.00000000E+00
