       N       E                     dE             d eps       ncg     rms          rms(c)
DAV:   1     0.325388069499E+02    0.32539E+02   -0.66945E+03 15680   0.125E+03
DAV:   2     0.571189685654E+01   -0.26827E+02   -0.26359E+02 16342   0.193E+02
DAV:   3    -0.587285629544E+01   -0.11585E+02   -0.11471E+02 30778   0.664E+01
DAV:   4    -0.647087088535E+01   -0.59801E+00   -0.59710E+00 18196   0.275E+01
DAV:   5    -0.653884691046E+01   -0.67976E-01   -0.67954E-01 27426   0.608E+00    0.672E-01
DAV:   6    -0.652326921223E+01    0.15578E-01   -0.24279E-02 20688   0.132E+00    0.374E-01
DAV:   7    -0.651683771243E+01    0.64315E-02   -0.23399E-02 21642   0.114E+00    0.728E-02
DAV:   8    -0.651689778835E+01   -0.60076E-04   -0.23090E-03 20796   0.532E-01    0.315E-02
DAV:   9    -0.651690508174E+01   -0.72934E-05   -0.19634E-04 25930   0.930E-02    0.217E-02
DAV:  10    -0.651689961216E+01    0.54696E-05   -0.70398E-06 21436   0.264E-02    0.383E-03
DAV:  11    -0.651689882049E+01    0.79168E-06   -0.70618E-07 11002   0.961E-03
   1 F= -.65168988E+01 E0= -.65167686E+01  d E =-.260408E-03
