27810
Lattice="55.19223366635046 0.0 0.0 0.0 55.19223366635046 0.0 0.0 0.0 55.19223366635046" Properties=species:S:1:pos:R:3 pbc="T T T"
C        0.00000000       0.00000000       0.00000000
C        0.00000000       1.83974112       1.83974112
C        1.83974112       0.00000000       1.83974112
C        1.83974112       1.83974112       0.00000000
C        0.91987056       0.91987056       0.91987056
C        0.91987056       2.75961168       2.75961168
C        2.75961168       0.91987056       2.75961168
C        2.75961168       2.75961168       0.91987056
C        0.00000000       0.00000000       3.67948224
C        0.00000000       1.83974112       5.51922337
C        1.83974112       0.00000000       5.51922337
C        1.83974112       1.83974112       3.67948224
C        0.91987056       0.91987056       4.59935281
C        0.91987056       2.75961168       6.43909393
C        2.75961168       0.91987056       6.43909393
C        2.75961168       2.75961168       4.59935281
C        0.00000000       0.00000000       7.35896449
C        0.00000000       1.83974112       9.19870561
C        1.83974112       0.00000000       9.19870561
C        1.83974112       1.83974112       7.35896449
C        0.91987056       0.91987056       8.27883505
C        0.91987056       2.75961168      10.11857617
C        2.75961168       0.91987056      10.11857617
C        2.75961168       2.75961168       8.27883505
C        0.00000000       0.00000000      11.03844673
C        0.00000000       1.83974112      12.87818786
C        1.83974112       0.00000000      12.87818786
C        1.83974112       1.83974112      11.03844673
C        0.91987056       0.91987056      11.95831729
C        0.91987056       2.75961168      13.79805842
C        2.75961168       0.91987056      13.79805842
C        2.75961168       2.75961168      11.95831729
C        0.00000000       0.00000000      14.71792898
C        0.00000000       1.83974112      16.55767010
C        1.83974112       0.00000000      16.55767010
C        1.83974112       1.83974112      14.71792898
C        0.91987056       0.91987056      15.63779954
C        0.91987056       2.75961168      17.47754066
C        2.75961168       0.91987056      17.47754066
C        2.75961168       2.75961168      15.63779954
C        0.00000000       0.00000000      18.39741122
C        0.00000000       1.83974112      20.23715234
C        1.83974112       0.00000000      20.23715234
C        1.83974112       1.83974112      18.39741122
C        0.91987056       0.91987056      19.31728178
C        0.91987056       2.75961168      21.15702291
C        2.75961168       0.91987056      21.15702291
C        2.75961168       2.75961168      19.31728178
C        0.00000000       0.00000000      22.07689347
C        0.00000000       1.83974112      23.91663459
C        1.83974112       0.00000000      23.91663459
C        1.83974112       1.83974112      22.07689347
C        0.91987056       0.91987056      22.99676403
C        0.91987056       2.75961168      24.83650515
C        2.75961168       0.91987056      24.83650515
C        2.75961168       2.75961168      22.99676403
C        0.00000000       0.00000000      25.75637571
C        0.00000000       1.83974112      27.59611683
C        1.83974112       0.00000000      27.59611683
C        1.83974112       1.83974112      25.75637571
C        0.91987056       0.91987056      26.67624627
C        0.91987056       2.75961168      28.51598739
C        2.75961168       0.91987056      28.51598739
C        2.75961168       2.75961168      26.67624627
C        0.00000000       0.00000000      29.43585796
C        0.00000000       1.83974112      31.27559908
C        1.83974112       0.00000000      31.27559908
C        1.83974112       1.83974112      29.43585796
C        0.91987056       0.91987056      30.35572852
C        0.91987056       2.75961168      32.19546964
C        2.75961168       0.91987056      32.19546964
C        2.75961168       2.75961168      30.35572852
C        0.00000000       0.00000000      33.11534020
C        0.00000000       1.83974112      34.95508132
C        1.83974112       0.00000000      34.95508132
C        1.83974112       1.83974112      33.11534020
C        0.91987056       0.91987056      34.03521076
C        0.91987056       2.75961168      35.87495188
C        2.75961168       0.91987056      35.87495188
C        2.75961168       2.75961168      34.03521076
C        0.00000000       0.00000000      36.79482244
C        0.00000000       1.83974112      38.63456357
C        1.83974112       0.00000000      38.63456357
C        1.83974112       1.83974112      36.79482244
C        0.91987056       0.91987056      37.71469301
C        0.91987056       2.75961168      39.55443413
C        2.75961168       0.91987056      39.55443413
C        2.75961168       2.75961168      37.71469301
C        0.00000000       0.00000000      40.47430469
C        0.00000000       1.83974112      42.31404581
C        1.83974112       0.00000000      42.31404581
C        1.83974112       1.83974112      40.47430469
C        0.91987056       0.91987056      41.39417525
C        0.91987056       2.75961168      43.23391637
C        2.75961168       0.91987056      43.23391637
C        2.75961168       2.75961168      41.39417525
C        0.00000000       0.00000000      44.15378693
C        0.00000000       1.83974112      45.99352806
C        1.83974112       0.00000000      45.99352806
C        1.83974112       1.83974112      44.15378693
C        0.91987056       0.91987056      45.07365749
C        0.91987056       2.75961168      46.91339862
C        2.75961168       0.91987056      46.91339862
C        2.75961168       2.75961168      45.07365749
C        0.00000000       0.00000000      47.83326918
C        0.00000000       1.83974112      49.67301030
C        1.83974112       0.00000000      49.67301030
C        1.83974112       1.83974112      47.83326918
C        0.91987056       0.91987056      48.75313974
C        0.91987056       2.75961168      50.59288086
C        2.75961168       0.91987056      50.59288086
C        2.75961168       2.75961168      48.75313974
C        0.00000000       0.00000000      51.51275142
C        0.00000000       1.83974112      53.35249254
C        1.83974112       0.00000000      53.35249254
C        1.83974112       1.83974112      51.51275142
C        0.91987056       0.91987056      52.43262198
C        0.91987056       2.75961168      54.27236311
C        2.75961168       0.91987056      54.27236311
C        2.75961168       2.75961168      52.43262198
C        0.00000000       3.67948224       0.00000000
C        0.00000000       5.51922337       1.83974112
C        1.83974112       3.67948224       1.83974112
C        1.83974112       5.51922337       0.00000000
C        0.91987056       4.59935281       0.91987056
C        0.91987056       6.43909393       2.75961168
C        2.75961168       4.59935281       2.75961168
C        2.75961168       6.43909393       0.91987056
C        0.00000000       3.67948224       3.67948224
C        0.00000000       5.51922337       5.51922337
C        1.83974112       3.67948224       5.51922337
C        1.83974112       5.51922337       3.67948224
C        0.91987056       4.59935281       4.59935281
C        0.91987056       6.43909393       6.43909393
C        2.75961168       4.59935281       6.43909393
C        2.75961168       6.43909393       4.59935281
C        0.00000000       3.67948224       7.35896449
C        0.00000000       5.51922337       9.19870561
C        1.83974112       3.67948224       9.19870561
C        1.83974112       5.51922337       7.35896449
C        0.91987056       4.59935281       8.27883505
C        0.91987056       6.43909393      10.11857617
C        2.75961168       4.59935281      10.11857617
C        2.75961168       6.43909393       8.27883505
C        0.00000000       3.67948224      11.03844673
C        0.00000000       5.51922337      12.87818786
C        1.83974112       3.67948224      12.87818786
C        1.83974112       5.51922337      11.03844673
C        0.91987056       4.59935281      11.95831729
C        0.91987056       6.43909393      13.79805842
C        2.75961168       4.59935281      13.79805842
C        2.75961168       6.43909393      11.95831729
C        0.00000000       3.67948224      14.71792898
C        0.00000000       5.51922337      16.55767010
C        1.83974112       3.67948224      16.55767010
C        1.83974112       5.51922337      14.71792898
C        0.91987056       4.59935281      15.63779954
C        0.91987056       6.43909393      17.47754066
C        2.75961168       4.59935281      17.47754066
C        2.75961168       6.43909393      15.63779954
C        0.00000000       3.67948224      18.39741122
C        0.00000000       5.51922337      20.23715234
C        1.83974112       3.67948224      20.23715234
C        1.83974112       5.51922337      18.39741122
C        0.91987056       4.59935281      19.31728178
C        0.91987056       6.43909393      21.15702291
C        2.75961168       4.59935281      21.15702291
C        2.75961168       6.43909393      19.31728178
C        0.00000000       3.67948224      22.07689347
C        0.00000000       5.51922337      23.91663459
C        1.83974112       3.67948224      23.91663459
C        1.83974112       5.51922337      22.07689347
C        0.91987056       4.59935281      22.99676403
C        0.91987056       6.43909393      24.83650515
C        2.75961168       4.59935281      24.83650515
C        2.75961168       6.43909393      22.99676403
C        0.00000000       3.67948224      25.75637571
C        0.00000000       5.51922337      27.59611683
C        1.83974112       3.67948224      27.59611683
C        1.83974112       5.51922337      25.75637571
C        0.91987056       4.59935281      26.67624627
C        0.91987056       6.43909393      28.51598739
C        2.75961168       4.59935281      28.51598739
C        2.75961168       6.43909393      26.67624627
C        0.00000000       3.67948224      29.43585796
C        0.00000000       5.51922337      31.27559908
C        1.83974112       3.67948224      31.27559908
C        1.83974112       5.51922337      29.43585796
C        0.91987056       4.59935281      30.35572852
C        0.91987056       6.43909393      32.19546964
C        2.75961168       4.59935281      32.19546964
C        2.75961168       6.43909393      30.35572852
C        0.00000000       3.67948224      33.11534020
C        0.00000000       5.51922337      34.95508132
C        1.83974112       3.67948224      34.95508132
C        1.83974112       5.51922337      33.11534020
C        0.91987056       4.59935281      34.03521076
C        0.91987056       6.43909393      35.87495188
C        2.75961168       4.59935281      35.87495188
C        2.75961168       6.43909393      34.03521076
C        0.00000000       3.67948224      36.79482244
C        0.00000000       5.51922337      38.63456357
C        1.83974112       3.67948224      38.63456357
C        1.83974112       5.51922337      36.79482244
C        0.91987056       4.59935281      37.71469301
C        0.91987056       6.43909393      39.55443413
C        2.75961168       4.59935281      39.55443413
C        2.75961168       6.43909393      37.71469301
C        0.00000000       3.67948224      40.47430469
C        0.00000000       5.51922337      42.31404581
C        1.83974112       3.67948224      42.31404581
C        1.83974112       5.51922337      40.47430469
C        0.91987056       4.59935281      41.39417525
C        0.91987056       6.43909393      43.23391637
C        2.75961168       4.59935281      43.23391637
C        2.75961168       6.43909393      41.39417525
C        0.00000000       3.67948224      44.15378693
C        0.00000000       5.51922337      45.99352806
C        1.83974112       3.67948224      45.99352806
C        1.83974112       5.51922337      44.15378693
C        0.91987056       4.59935281      45.07365749
C        0.91987056       6.43909393      46.91339862
C        2.75961168       4.59935281      46.91339862
C        2.75961168       6.43909393      45.07365749
C        0.00000000       3.67948224      47.83326918
C        0.00000000       5.51922337      49.67301030
C        1.83974112       3.67948224      49.67301030
C        1.83974112       5.51922337      47.83326918
C        0.91987056       4.59935281      48.75313974
C        0.91987056       6.43909393      50.59288086
C        2.75961168       4.59935281      50.59288086
C        2.75961168       6.43909393      48.75313974
C        0.00000000       3.67948224      51.51275142
C        0.00000000       5.51922337      53.35249254
C        1.83974112       3.67948224      53.35249254
C        1.83974112       5.51922337      51.51275142
C        0.91987056       4.59935281      52.43262198
C        0.91987056       6.43909393      54.27236311
C        2.75961168       4.59935281      54.27236311
C        2.75961168       6.43909393      52.43262198
C        0.00000000       7.35896449       0.00000000
C        0.00000000       9.19870561       1.83974112
C        1.83974112       7.35896449       1.83974112
C        1.83974112       9.19870561       0.00000000
C        0.91987056       8.27883505       0.91987056
C        0.91987056      10.11857617       2.75961168
C        2.75961168       8.27883505       2.75961168
C        2.75961168      10.11857617       0.91987056
C        0.00000000       7.35896449       3.67948224
C        0.00000000       9.19870561       5.51922337
C        1.83974112       7.35896449       5.51922337
C        1.83974112       9.19870561       3.67948224
C        0.91987056       8.27883505       4.59935281
C        0.91987056      10.11857617       6.43909393
C        2.75961168       8.27883505       6.43909393
C        2.75961168      10.11857617       4.59935281
C        0.00000000       7.35896449       7.35896449
C        0.00000000       9.19870561       9.19870561
C        1.83974112       7.35896449       9.19870561
C        1.83974112       9.19870561       7.35896449
C        0.91987056       8.27883505       8.27883505
C        0.91987056      10.11857617      10.11857617
C        2.75961168       8.27883505      10.11857617
C        2.75961168      10.11857617       8.27883505
C        0.00000000       7.35896449      11.03844673
C        0.00000000       9.19870561      12.87818786
C        1.83974112       7.35896449      12.87818786
C        1.83974112       9.19870561      11.03844673
C        0.91987056       8.27883505      11.95831729
C        0.91987056      10.11857617      13.79805842
C        2.75961168       8.27883505      13.79805842
C        2.75961168      10.11857617      11.95831729
C        0.00000000       7.35896449      14.71792898
C        0.00000000       9.19870561      16.55767010
C        1.83974112       7.35896449      16.55767010
C        1.83974112       9.19870561      14.71792898
C        0.91987056       8.27883505      15.63779954
C        0.91987056      10.11857617      17.47754066
C        2.75961168       8.27883505      17.47754066
C        2.75961168      10.11857617      15.63779954
C        0.00000000       7.35896449      18.39741122
C        0.00000000       9.19870561      20.23715234
C        1.83974112       7.35896449      20.23715234
C        1.83974112       9.19870561      18.39741122
C        0.91987056       8.27883505      19.31728178
C        0.91987056      10.11857617      21.15702291
C        2.75961168       8.27883505      21.15702291
C        2.75961168      10.11857617      19.31728178
C        0.00000000       7.35896449      22.07689347
C        0.00000000       9.19870561      23.91663459
C        1.83974112       7.35896449      23.91663459
C        1.83974112       9.19870561      22.07689347
C        0.91987056       8.27883505      22.99676403
C        0.91987056      10.11857617      24.83650515
C        2.75961168       8.27883505      24.83650515
C        2.75961168      10.11857617      22.99676403
C        0.00000000       7.35896449      25.75637571
C        0.00000000       9.19870561      27.59611683
