Cu O  N  C  H 
 1.0000000000000000
    12.7798995972000000    0.0000000000000000    0.0000000000000000
     0.0000000000000000   17.7082996367999996    0.0000000000000000
     0.0000000000000000    0.0000000000000000   36.1478004455999979
 Cu  O   N   C   H  
 160   8   4  32  32
Selective dynamics
Cartesian
  0.0000000000000000  0.0000000000000000  0.0000000000000000   F   F   F
  1.2779899840000000  2.2135374550000000  0.0000000000000000   F   F   F
  0.0000000000000000  0.0000000000000000  6.2607989310000001   T   T   T
  1.2779899840000000  2.2135374550000000  6.2607989310000001   T   T   T
  0.0000000000000000  1.4756325480000001  4.1739864349999998   T   T   T
  1.2779899840000000  3.6891701220000002  4.1739864349999998   T   T   T
  0.0000000000000000  2.9514422420000002  2.0868124959999999   F   F   F
  1.2779899840000000  0.7379047870000000  2.0868124959999999   F   F   F
  2.5559799669999999  0.0000000000000000  0.0000000000000000   F   F   F
  3.8339700699999999  2.2135374550000000  0.0000000000000000   F   F   F
  2.5559799669999999  0.0000000000000000  6.2607989310000001   T   T   T
  3.8339700699999999  2.2135374550000000  6.2607989310000001   T   T   T
  2.5559799669999999  1.4756325480000001  4.1739864349999998   T   T   T
  3.8339700699999999  3.6891701220000002  4.1739864349999998   T   T   T
  2.5559799669999999  2.9514422420000002  2.0868124959999999   F   F   F
  3.8339700699999999  0.7379047870000000  2.0868124959999999   F   F   F
  5.1119599339999997  0.0000000000000000  0.0000000000000000   F   F   F
  6.3899497990000000  2.2135374550000000  0.0000000000000000   F   F   F
  5.1119599339999997  0.0000000000000000  6.2607989310000001   T   T   T
  6.3899497990000000  2.2135374550000000  6.2607989310000001   T   T   T
  5.1119599339999997  1.4756325480000001  4.1739864349999998   T   T   T
  6.3899497990000000  3.6891701220000002  4.1739864349999998   T   T   T
  5.1119599339999997  2.9514422420000002  2.0868124959999999   F   F   F
  6.3899497990000000  0.7379047870000000  2.0868124959999999   F   F   F
  7.6679401399999998  0.0000000000000000  0.0000000000000000   F   F   F
  8.9459295270000005  2.2135374550000000  0.0000000000000000   F   F   F
  7.6679401399999998  0.0000000000000000  6.2607989310000001   T   T   T
  8.9459295270000005  2.2135374550000000  6.2607989310000001   T   T   T
  7.6679401399999998  1.4756325480000001  4.1739864349999998   T   T   T
  8.9459295270000005  3.6891701220000002  4.1739864349999998   T   T   T
  7.6679401399999998  2.9514422420000002  2.0868124959999999   F   F   F
  8.9459295270000005  0.7379047870000000  2.0868124959999999   F   F   F
 10.2239198679999994  0.0000000000000000  0.0000000000000000   F   F   F
 11.5019092559999994  2.2135374550000000  0.0000000000000000   F   F   F
 10.2239198679999994  0.0000000000000000  6.2607989310000001   T   T   T
 11.5019092559999994  2.2135374550000000  6.2607989310000001   T   T   T
 10.2239198679999994  1.4756325480000001  4.1739864349999998   T   T   T
 11.5019092559999994  3.6891701220000002  4.1739864349999998   T   T   T
 10.2239198679999994  2.9514422420000002  2.0868124959999999   F   F   F
 11.5019092559999994  0.7379047870000000  2.0868124959999999   F   F   F
  0.0000000000000000  4.4270749089999999  0.0000000000000000   F   F   F
  1.2779899840000000  6.6406126020000000  0.0000000000000000   F   F   F
  0.0000000000000000  4.4270749089999999  6.2607989310000001   T   T   T
  1.2779899840000000  6.6406126020000000  6.2607989310000001   T   T   T
  0.0000000000000000  5.9027075770000001  4.1739864349999998   T   T   T
  1.2779899840000000  8.1162452700000003  4.1739864349999998   T   T   T
  0.0000000000000000  7.3785171509999996  2.0868124959999999   F   F   F
  1.2779899840000000  5.1649794580000004  2.0868124959999999   F   F   F
  2.5559799669999999  4.4270749089999999  0.0000000000000000   F   F   F
  3.8339700699999999  6.6406126020000000  0.0000000000000000   F   F   F
  2.5559799669999999  4.4270749089999999  6.2607989310000001   T   T   T
  3.8339700699999999  6.6406126020000000  6.2607989310000001   T   T   T
  2.5559799669999999  5.9027075770000001  4.1739864349999998   T   T   T
  3.8339700699999999  8.1162452700000003  4.1739864349999998   T   T   T
  2.5559799669999999  7.3785171509999996  2.0868124959999999   F   F   F
  3.8339700699999999  5.1649794580000004  2.0868124959999999   F   F   F
  5.1119599339999997  4.4270749089999999  0.0000000000000000   F   F   F
  6.3899497990000000  6.6406126020000000  0.0000000000000000   F   F   F
  5.1119599339999997  4.4270749089999999  6.2607989310000001   T   T   T
  6.3899497990000000  6.6406126020000000  6.2607989310000001   T   T   T
  5.1119599339999997  5.9027075770000001  4.1739864349999998   T   T   T
  6.3899497990000000  8.1162452700000003  4.1739864349999998   T   T   T
  5.1119599339999997  7.3785171509999996  2.0868124959999999   F   F   F
  6.3899497990000000  5.1649794580000004  2.0868124959999999   F   F   F
  7.6679401399999998  4.4270749089999999  0.0000000000000000   F   F   F
  8.9459295270000005  6.6406126020000000  0.0000000000000000   F   F   F
  7.6679401399999998  4.4270749089999999  6.2607989310000001   T   T   T
  8.9459295270000005  6.6406126020000000  6.2607989310000001   T   T   T
  7.6679401399999998  5.9027075770000001  4.1739864349999998   T   T   T
  8.9459295270000005  8.1162452700000003  4.1739864349999998   T   T   T
  7.6679401399999998  7.3785171509999996  2.0868124959999999   F   F   F
  8.9459295270000005  5.1649794580000004  2.0868124959999999   F   F   F
 10.2239198679999994  4.4270749089999999  0.0000000000000000   F   F   F
 11.5019092559999994  6.6406126020000000  0.0000000000000000   F   F   F
 10.2239198679999994  4.4270749089999999  6.2607989310000001   T   T   T
 11.5019092559999994  6.6406126020000000  6.2607989310000001   T   T   T
 10.2239198679999994  5.9027075770000001  4.1739864349999998   T   T   T
 11.5019092559999994  8.1162452700000003  4.1739864349999998   T   T   T
 10.2239198679999994  7.3785171509999996  2.0868124959999999   F   F   F
 11.5019092559999994  5.1649794580000004  2.0868124959999999   F   F   F
  0.0000000000000000  8.8541498179999998  0.0000000000000000   F   F   F
  1.2779899840000000 11.0676870350000005  0.0000000000000000   F   F   F
  0.0000000000000000  8.8541498179999998  6.2607989310000001   T   T   T
  1.2779899840000000 11.0676870350000005  6.2607989310000001   T   T   T
  0.0000000000000000 10.3297815320000002  4.1739864349999998   T   T   T
  1.2779899840000000 12.5433197019999998  4.1739864349999998   T   T   T
  0.0000000000000000 11.8055925370000008  2.0868124959999999   F   F   F
  1.2779899840000000  9.5920553210000001  2.0868124959999999   F   F   F
  2.5559799669999999  8.8541498179999998  0.0000000000000000   F   F   F
  3.8339700699999999 11.0676870350000005  0.0000000000000000   F   F   F
  2.5559799669999999  8.8541498179999998  6.2607989310000001   T   T   T
  3.8339700699999999 11.0676870350000005  6.2607989310000001   T   T   T
  2.5559799669999999 10.3297815320000002  4.1739864349999998   T   T   T
  3.8339700699999999 12.5433197019999998  4.1739864349999998   T   T   T
  2.5559799669999999 11.8055925370000008  2.0868124959999999   F   F   F
  3.8339700699999999  9.5920553210000001  2.0868124959999999   F   F   F
  5.1119599339999997  8.8541498179999998  0.0000000000000000   F   F   F
  6.3899497990000000 11.0676870350000005  0.0000000000000000   F   F   F
  5.1119599339999997  8.8541498179999998  6.2607989310000001   T   T   T
  6.3899497990000000 11.0676870350000005  6.2607989310000001   T   T   T
  5.1119599339999997 10.3297815320000002  4.1739864349999998   T   T   T
  6.3899497990000000 12.5433197019999998  4.1739864349999998   T   T   T
  5.1119599339999997 11.8055925370000008  2.0868124959999999   F   F   F
  6.3899497990000000  9.5920553210000001  2.0868124959999999   F   F   F
  7.6679401399999998  8.8541498179999998  0.0000000000000000   F   F   F
  8.9459295270000005 11.0676870350000005  0.0000000000000000   F   F   F
  7.6679401399999998  8.8541498179999998  6.2607989310000001   T   T   T
  8.9459295270000005 11.0676870350000005  6.2607989310000001   T   T   T
  7.6679401399999998 10.3297815320000002  4.1739864349999998   T   T   T
  8.9459295270000005 12.5433197019999998  4.1739864349999998   T   T   T
  7.6679401399999998 11.8055925370000008  2.0868124959999999   F   F   F
  8.9459295270000005  9.5920553210000001  2.0868124959999999   F   F   F
 10.2239198679999994  8.8541498179999998  0.0000000000000000   F   F   F
 11.5019092559999994 11.0676870350000005  0.0000000000000000   F   F   F
 10.2239198679999994  8.8541498179999998  6.2607989310000001   T   T   T
 11.5019092559999994 11.0676870350000005  6.2607989310000001   T   T   T
 10.2239198679999994 10.3297815320000002  4.1739864349999998   T   T   T
 11.5019092559999994 12.5433197019999998  4.1739864349999998   T   T   T
 10.2239198679999994 11.8055925370000008  2.0868124959999999   F   F   F
 11.5019092559999994  9.5920553210000001  2.0868124959999999   F   F   F
  0.0000000000000000 13.2812252040000001  0.0000000000000000   F   F   F
  1.2779899840000000 15.4947624210000008  0.0000000000000000   F   F   F
  0.0000000000000000 13.2812252040000001  6.2607989310000001   T   T   T
  1.2779899840000000 15.4947624210000008  6.2607989310000001   T   T   T
  0.0000000000000000 14.7568569180000004  4.1739864349999998   T   T   T
  1.2779899840000000 16.9703941349999994  4.1739864349999998   T   T   T
  0.0000000000000000 16.2326679230000011  2.0868124959999999   F   F   F
  1.2779899840000000 14.0191297529999996  2.0868124959999999   F   F   F
  2.5559799669999999 13.2812252040000001  0.0000000000000000   F   F   F
  3.8339700699999999 15.4947624210000008  0.0000000000000000   F   F   F
  2.5559799669999999 13.2812252040000001  6.2607989310000001   T   T   T
  3.8339700699999999 15.4947624210000008  6.2607989310000001   T   T   T
  2.5559799669999999 14.7568569180000004  4.1739864349999998   T   T   T
  3.8339700699999999 16.9703941349999994  4.1739864349999998   T   T   T
  2.5559799669999999 16.2326679230000011  2.0868124959999999   F   F   F
  3.8339700699999999 14.0191297529999996  2.0868124959999999   F   F   F
  5.1119599339999997 13.2812252040000001  0.0000000000000000   F   F   F
  6.3899497990000000 15.4947624210000008  0.0000000000000000   F   F   F
  5.1119599339999997 13.2812252040000001  6.2607989310000001   T   T   T
  6.3899497990000000 15.4947624210000008  6.2607989310000001   T   T   T
  5.1119599339999997 14.7568569180000004  4.1739864349999998   T   T   T
  6.3899497990000000 16.9703941349999994  4.1739864349999998   T   T   T
  5.1119599339999997 16.2326679230000011  2.0868124959999999   F   F   F
  6.3899497990000000 14.0191297529999996  2.0868124959999999   F   F   F
  7.6679401399999998 13.2812252040000001  0.0000000000000000   F   F   F
  8.9459295270000005 15.4947624210000008  0.0000000000000000   F   F   F
  7.6679401399999998 13.2812252040000001  6.2607989310000001   T   T   T
  8.9459295270000005 15.4947624210000008  6.2607989310000001   T   T   T
  7.6679401399999998 14.7568569180000004  4.1739864349999998   T   T   T
  8.9459295270000005 16.9703941349999994  4.1739864349999998   T   T   T
  7.6679401399999998 16.2326679230000011  2.0868124959999999   F   F   F
  8.9459295270000005 14.0191297529999996  2.0868124959999999   F   F   F
 10.2239198679999994 13.2812252040000001  0.0000000000000000   F   F   F
 11.5019092559999994 15.4947624210000008  0.0000000000000000   F   F   F
 10.2239198679999994 13.2812252040000001  6.2607989310000001   T   T   T
 11.5019092559999994 15.4947624210000008  6.2607989310000001   T   T   T
 10.2239198679999994 14.7568569180000004  4.1739864349999998   T   T   T
 11.5019092559999994 16.9703941349999994  4.1739864349999998   T   T   T
 10.2239198679999994 16.2326679230000011  2.0868124959999999   F   F   F
 11.5019092559999994 14.0191297529999996  2.0868124959999999   F   F   F
  7.3555984499999996  2.6700577740000000  8.3544788360000002   T   T   T
 10.1664094919999997  2.7610785959999999  8.4672603609999992   T   T   T
  9.7775182720000000 15.4542102809999999  8.6653499600000004   T   T   T
  7.0334177020000004 15.3649606700000003  8.9704380040000000   T   T   T
  6.0805487630000004 15.7722511290000007  8.2836303709999992   T   T   T
  3.9199781420000002 16.0247707370000008  9.2043151860000005   T   T   T
  1.6079667810000000  2.4855368140000000  9.3687868119999997   T   T   T
  4.3265075680000002  1.5030804870000001  8.9418811799999993   T   T   T
  7.5665950779999998  7.4387254709999997  8.2304916380000002   T   T   T
  9.7315101619999993 10.3940629960000006  8.1813306810000004   T   T   T
  6.4273948670000003  8.2247962950000009 10.1622314449999998   T   T   T
  3.0108163360000000  9.5507946009999998  9.9738998409999997   T   T   T
  8.0542764659999992  6.1541652679999999  8.2496509549999999   T   T   T
  9.4916315079999993  6.1895818709999997  8.2532663349999993   T   T   T
  7.3672289849999997  4.9733757970000001  8.2453136439999994   T   T   T
 10.2162513730000004  5.0096774100000001  8.2442293170000003   T   T   T
  9.9028882980000006  7.5656943319999996  8.2579650880000006   T   T   T
  8.0238599780000008  3.8042736050000001  8.2586889269999997   T   T   T
  9.5220470430000006  3.8416383270000001  8.2547111510000004   T   T   T
  8.6951875689999998  8.2031936650000006  8.2821846010000009   T   T   T
  9.2419128419999996 11.6915512079999999  8.3277301789999996   T   T   T
  7.8339509960000004 11.6233739850000006  8.4170160289999991   T   T   T
  9.9138793950000004 12.9757566450000006  8.4246063230000008   T   T   T
  7.2100358010000001 12.8896942140000004  8.6906538009999998   T   T   T
  7.4887657169999997 10.2428350449999996  8.2351913450000005   T   T   T
  9.1444025040000003 14.2215356830000008  8.5655822750000006   T   T   T
  7.7657065390000000 14.2211818700000006  8.6646280289999993   T   T   T
  8.6441965100000004  9.5982522960000001  8.0703573229999996   T   T   T
  5.5023856159999998 10.3094186780000001  8.7893371580000004   T   T   T
  5.1095318790000004 11.7903623579999994  8.8811531069999994   T   T   T
  6.0195879940000001  9.6954717640000005 10.2771806720000001   T   T   T
  5.8203492160000003 13.0379123690000007  8.4885883329999992   T   T   T
  3.7199730870000001 12.1618833540000004  9.2343177799999996   T   T   T
  5.6415586470000001 14.5146074299999999  8.8233175280000005   T   T   T
  3.3216235639999998 13.6038703919999993  9.3236017229999995   T   T   T
  4.2705307010000002 14.6872634889999993  9.1341886520000006   T   T   T
  3.1869232649999999  7.3726735120000004  8.6407709120000007   T   T   T
  3.4434161190000001  5.8446240429999996  8.7242717740000000   T   T   T
  3.3378539090000001  8.0831308360000005 10.0776453020000005   T   T   T
  2.3398714070000000  4.8655323980000000  9.0199613569999997   T   T   T
  4.8079257010000003  5.3234686849999999  8.4972629550000001   T   T   T
  2.6362376209999998  3.3858268260000002  9.0955095289999992   T   T   T
  5.0811600690000001  3.8333156110000002  8.5800418850000000   T   T   T
  4.0141668319999999  2.8735256200000001  8.8804311750000000   T   T   T
  6.3142929079999996  4.9103341100000000  8.2402524950000000   T   T   T
 11.3169841770000001  4.9177722929999996  8.2586889269999997   T   T   T
  6.5729579930000002  7.7500376700000002  8.2116956709999993   T   T   T
 10.9252805710000001  8.0404539110000002  8.2583265299999997   T   T   T
  6.9215936659999997 16.3162498470000017  8.6953525539999994   T   T   T
  7.8462195399999999  1.8413090710000000  8.2702550890000008   T   T   T
 11.1619644170000001  2.6392447950000002  8.2467594149999996   T   T   T
 11.0157623289999993 12.9986009599999992  8.3794202799999997   T   T   T
  6.2871994969999996 16.6847591400000006  8.6957149509999994   T   T   T
 10.6896190640000004 10.0568971630000004  8.1133737559999997   T   T   T
  6.5957059859999996  9.6455335620000007  8.2369985579999998   T   T   T
  9.0775623319999994 16.1660842900000006  8.7763242720000001   T   T   T
  4.6759099959999997  9.6811275479999992  8.3848438260000009   T   T   T
  6.1973562240000000 10.2382307049999994  7.9062476159999999   T   T   T
  5.2253174780000000  9.8049087519999993 11.0511045459999995   T   T   T
  6.8920722010000004 10.2851581569999997 10.6925182339999996   T   T   T
  2.9827003479999998 16.1409378050000001  9.3991518020000004   T   T   T
  2.9686431880000002 11.3851966860000005  9.3977060320000003   T   T   T
  2.3026824000000001 13.8946409230000008  9.5477180480000001   T   T   T
  7.2189817429999996  8.1656513210000004  9.5354290010000007   T   T   T
  5.6850109099999999  7.6705269810000001  9.7400255199999997   T   T   T
  3.8896899220000001  7.8382244109999997  7.8849196429999999   T   T   T
  2.1536684039999998  7.5348815919999996  8.2391681670000008   T   T   T
  4.3762211799999999  7.9285368920000003 10.4947910310000001   T   T   T
  2.6672930720000001  7.6158084869999998 10.8403635030000007   T   T   T
  1.3197801110000000  5.2423648829999996  9.1819038390000003   T   T   T
  5.5772762299999998  6.0934257509999998  8.2745943069999992   T   T   T
  6.0698137279999997  3.4159309859999998  8.4159297940000002   T   T   T
  2.0622920990000000  9.7230958940000001  9.6279659270000000   T   T   T
  3.6319196219999998 10.0069599149999995  9.3084201810000007   T   T   T
  1.9451005459999999  1.5657678840000000  9.3875837329999996   T   T   T
  5.2805266380000004  1.3291850089999999  8.7788553240000002   T   T   T
