
------------------------ aborting loop because EDIFF is reached ----------------------------------------


    CHARGE:  cpu time      1.8498: real time      1.8540
    FORLOC:  cpu time      0.0008: real time      0.0008
    FORNL :  cpu time      3.7140: real time      3.7213
    STRESS:  cpu time     35.4412: real time     35.5254
    FORHAR:  cpu time      0.0016: real time      0.0016
    MIXING:  cpu time      0.0052: real time      0.0052
    OFIELD:  cpu time      0.0000: real time      0.0000

  FORCE on cell =-STRESS in cart. coord.  units (eV):
  Direction    XX          YY          ZZ          XY          YZ          ZX
  --------------------------------------------------------------------------------------
  Alpha Z     4.19763     4.19763     4.19763
  Ewald     -86.13561   -86.51929   -85.69852    -0.41541    -0.00585     0.40564
  Hartree    57.66846    57.51916    57.85226    -0.17618    -0.00185     0.17154
  E(xc)     -52.93402   -52.93409   -52.93391    -0.00011     0.00000     0.00010
  Local     -85.03471   -84.55305   -85.60304     0.54391     0.00660    -0.53026
  n-local   -76.18812   -76.18440   -76.19243     0.00513     0.00003    -0.00507
  augment    68.75938    68.76293    68.75736     0.00263     0.00006    -0.00258
  Kinetic   169.68177   169.67506   169.68891    -0.00880     0.00014     0.00791
  Fock        0.00000     0.00000     0.00000     0.00000     0.00000     0.00000
  -------------------------------------------------------------------------------------
  Total       0.01478    -0.03605     0.06826    -0.04883    -0.00088     0.04728
  in kB       0.26989    -0.65821     1.24637    -0.89153    -0.01603     0.86326
  external pressure =        0.29 kB  Pullay stress =        0.00 kB


 VOLUME and BASIS-vectors are now :
 -----------------------------------------------------------------------------
  energy-cutoff  :      600.00
  volume of cell :       87.74
      direct lattice vectors                 reciprocal lattice vectors
     4.443647044  0.000000000  0.000000000     0.225040376  0.000000000  0.000000000
     0.000000000  4.443647044  0.000000000     0.000000000  0.225040376  0.000000000
     0.000000000  0.000000000  4.443647044     0.000000000  0.000000000  0.225040376

  length of vectors
     4.443647044  4.443647044  4.443647044     0.225040376  0.225040376  0.225040376


 FORCES acting on ions
    electron-ion (+dipol)            ewald-force                    non-local-force                 convergence-correction
 -----------------------------------------------------------------------------------------------
   -.515E+00 -.128E+00 -.137E+00   0.528E+00 0.139E+00 0.149E+00   0.259E-01 0.428E-02 0.417E-02   -.169E-02 -.130E-03 -.135E-03
   0.534E+00 0.117E-01 0.213E-01   -.539E+00 -.231E-01 -.346E-01   -.335E-01 0.854E-02 0.891E-02   -.196E-03 -.223E-03 0.932E-04
   0.244E-03 -.187E-01 0.129E+00   -.279E-02 0.289E-01 -.144E+00   0.303E-02 -.649E-02 -.171E-02   -.380E-03 0.446E-03 0.560E-04
   -.184E-01 0.130E+00 -.185E-01   0.139E-01 -.144E+00 0.289E-01   0.517E-02 -.219E-02 -.685E-02   0.822E-04 0.332E-03 0.501E-03
 -----------------------------------------------------------------------------------------------
   0.891E-03 -.453E-02 -.507E-02   0.102E-15 0.278E-15 0.600E-15   0.691E-03 0.414E-02 0.452E-02   -.219E-02 0.425E-03 0.515E-03
 
 
 POSITION                                       TOTAL-FORCE (eV/Angst)
 -----------------------------------------------------------------------------------
      3.85583      0.55781      2.77964         0.037360      0.015318      0.016468
      1.66401      1.66401      1.66401        -0.038519     -0.003122     -0.004350
      0.55781      2.77964      3.88583         0.000251      0.004087     -0.016087
      2.77964      3.88583      0.55781         0.000908     -0.016282      0.003968
 -----------------------------------------------------------------------------------
    total drift:                               -0.000606      0.000033     -0.000042


--------------------------------------------------------------------------------------------------------



  FREE ENERGIE OF THE ION-ELECTRON SYSTEM (eV)
  ---------------------------------------------------
  free  energy   TOTEN  =        -6.57335929 eV

  energy  without entropy=       -6.57394305  energy(sigma->0) =       -6.57355388
 d Force =-0.4132943E-03[-0.560E-03,-0.266E-03]  d Energy =-0.4103843E-03-0.291E-05
 d Force =-0.5830467E-02[-0.792E-02,-0.374E-02]  d Ewald  =-0.5830611E-02 0.144E-06
 


--------------------------------------------------------------------------------------------------------


    POTLOK:  cpu time      0.0102: real time      0.0103


--------------------------------------------------------------------------------------------------------


 Finite differences progress:
  Degree of freedom:   7/  7
  Displacement:        4/  4
  Total:              28/ 28


--------------------------------------------------------------------------------------------------------



  ELASTIC MODULI  (kBar)
 Direction    XX          YY          ZZ          XY          YZ          ZX
 --------------------------------------------------------------------------------
 XX          87.1273     96.0217     96.0289     -0.0000     -0.0000     -0.0000
 YY          95.9777     87.0581     95.9851     -0.0000     -0.0000     -0.0000
 ZZ          95.7220     95.7200     86.8381     -0.0000     -0.0000     -0.0000
 XY          -0.5468     -0.5659     -0.6331     44.8337     -0.0000     -0.0000
 YZ          -0.5967     -0.4982     -0.5165     -0.0000     45.0738     -0.0000
 ZX          -0.5153     -0.5906     -0.4842     -0.0000     -0.0000     45.0596
 --------------------------------------------------------------------------------


  SYMMETRIZED ELASTIC MODULI (kBar)
 Direction    XX          YY          ZZ          XY          YZ          ZX
 --------------------------------------------------------------------------------
 XX          87.0078     95.9092     95.9092      0.0000     -0.0000      0.0000
 YY          95.9092     87.0078     95.9092      0.0000      0.0000     -0.0000
 ZZ          95.9092     95.9092     87.0078      0.0000      0.0000     -0.0000
 XY           0.0000      0.0000      0.0000     44.9890      0.0000      0.0000
 YZ          -0.0000      0.0000      0.0000      0.0000     44.9890      0.0000
 ZX           0.0000     -0.0000     -0.0000      0.0000      0.0000     44.9890
 --------------------------------------------------------------------------------

 INTERNAL STRAIN TENSORS FROM STRAINED CELLS
 ============================================

 INTERNAL STRAIN TENSOR FOR ION    1 for displacements in x,y,z  (eV/Angst):
          X           Y           Z          XY          YZ          ZX
  --------------------------------------------------------------------------------
  x     0.00963     1.73593    -1.73010     1.59671     0.00056    -1.59065
  y     1.73076    -0.00930    -1.73545     1.59147     1.58692     0.00059
  z    -1.73613     1.73052    -0.00937     0.00008    -1.58035    -1.59535

 INTERNAL STRAIN TENSOR FOR ION    2 for displacements in x,y,z  (eV/Angst):
          X           Y           Z          XY          YZ          ZX
  --------------------------------------------------------------------------------
  x     0.00963     1.73593    -1.73010    -1.58758     0.00056     1.58160
  y    -1.73076     0.00930     1.73545     1.58140    -1.58692    -0.00059
  z     1.73613    -1.73052     0.00937    -0.00008     1.58035    -1.58642

 INTERNAL STRAIN TENSOR FOR ION    3 for displacements in x,y,z  (eV/Angst):
          X           Y           Z          XY          YZ          ZX
  --------------------------------------------------------------------------------
  x    -0.00963    -1.73593     1.73010     1.58758    -0.00056     1.59065
  y     1.73076    -0.00930    -1.73545    -1.58140    -1.59509     0.00059
  z     1.73613    -1.73052     0.00937    -0.00008    -1.59006     1.59535

 INTERNAL STRAIN TENSOR FOR ION    4 for displacements in x,y,z  (eV/Angst):
          X           Y           Z          XY          YZ          ZX
  --------------------------------------------------------------------------------
  x    -0.00963    -1.73593     1.73010    -1.59671    -0.00056    -1.58160
  y    -1.73076     0.00930     1.73545    -1.59147     1.59509    -0.00059
  z    -1.73613     1.73052    -0.00937     0.00008     1.59006     1.58642
 
 INTERNAL STRAIN TENSORS FROM DISPLACED ATOMS
 ============================================

 INTERNAL STRAIN TENSOR FOR ION    1 for displacements in x,y,z  (eV/Angst):
          X           Y           Z          XY          YZ          ZX
  --------------------------------------------------------------------------------
  x     0.04803     1.78039    -1.68501     1.60463     0.00108    -1.59737
  y     1.68501    -0.04803    -1.78039     1.59737     1.60463     0.00108
  z    -1.78039     1.68501    -0.04803     0.00108    -1.59737    -1.60463

 INTERNAL STRAIN TENSOR FOR ION    2 for displacements in x,y,z  (eV/Angst):
          X           Y           Z          XY          YZ          ZX
  --------------------------------------------------------------------------------
  x     0.04803     1.78039    -1.68501    -1.60463     0.00108     1.59737
  y    -1.68501     0.04803     1.78039     1.59737    -1.60463     0.00108
  z     1.78039    -1.68501     0.04803     0.00108     1.59737    -1.60463

 INTERNAL STRAIN TENSOR FOR ION    3 for displacements in x,y,z  (eV/Angst):
          X           Y           Z          XY          YZ          ZX
  --------------------------------------------------------------------------------
  x    -0.04803    -1.78039     1.68501     1.60463     0.00108     1.59737
  y     1.68501    -0.04803    -1.78039    -1.59737    -1.60463     0.00108
  z     1.78039    -1.68501     0.04803     0.00108    -1.59737     1.60463

 INTERNAL STRAIN TENSOR FOR ION    4 for displacements in x,y,z  (eV/Angst):
          X           Y           Z          XY          YZ          ZX
  --------------------------------------------------------------------------------
  x    -0.04803    -1.78039     1.68501    -1.60463     0.00108    -1.59737
  y    -1.68501     0.04803     1.78039    -1.59737     1.60463     0.00108
  z    -1.78039     1.68501    -0.04803     0.00108     1.59737     1.60463


--------------------------------------------------------------------------------------------------------


 
 Eigenvectors and eigenvalues of the dynamical matrix
 ----------------------------------------------------
 
 
   1 f  =   10.910024 THz    68.549702 2PiTHz  363.919224 cm-1    45.120213 meV
             X         Y         Z           dx          dy          dz
      3.885834  0.557813  2.779637     0.273126   -0.220697    0.494450  
      1.664011  1.664011  1.664011    -0.272662    0.311378   -0.042040  
      0.557813  2.779637  3.885834    -0.183118    0.221091    0.041962  
      2.779637  3.885834  0.557813     0.183582   -0.310983   -0.494529  
 
   2 f  =   10.910024 THz    68.549702 2PiTHz  363.919224 cm-1    45.120213 meV
             X         Y         Z           dx          dy          dz
      3.885834  0.557813  2.779637     0.376295    0.430299   -0.052426  
      1.664011  1.664011  1.664011    -0.376450    0.252673    0.126673  
      0.557813  2.779637  3.885834     0.300836   -0.430233   -0.127264  
      2.779637  3.885834  0.557813    -0.300991   -0.252608    0.051835  
 
   3 f  =   10.910024 THz    68.549702 2PiTHz  363.919224 cm-1    45.120213 meV
             X         Y         Z           dx          dy          dz
      3.885834  0.557813  2.779637     0.183860    0.127028    0.052633  
      1.664011  1.664011  1.664011    -0.184231   -0.298664    0.481857  
      0.557813  2.779637  3.885834    -0.354916   -0.126562   -0.481709  
      2.779637  3.885834  0.557813     0.354545    0.299130   -0.052484  
 
   4 f  =    7.865087 THz    49.417797 2PiTHz  262.351052 cm-1    32.527370 meV
             X         Y         Z           dx          dy          dz
      3.885834  0.557813  2.779637     0.124923   -0.079331   -0.460804  
      1.664011  1.664011  1.664011    -0.120980    0.335177   -0.049704  
      0.557813  2.779637  3.885834    -0.383868    0.074451    0.052205  
      2.779637  3.885834  0.557813     0.387811   -0.340057    0.463305  
 
   5 f  =    7.865087 THz    49.417797 2PiTHz  262.351052 cm-1    32.527370 meV
             X         Y         Z           dx          dy          dz
      3.885834  0.557813  2.779637    -0.324492    0.481688    0.193031  
      1.664011  1.664011  1.664011     0.321137    0.129001   -0.156756  
      0.557813  2.779637  3.885834    -0.294323   -0.481399    0.162611  
      2.779637  3.885834  0.557813     0.290968   -0.128712   -0.187176  
 
   6 f  =    7.865087 THz    49.417797 2PiTHz  262.351052 cm-1    32.527370 meV
             X         Y         Z           dx          dy          dz
      3.885834  0.557813  2.779637    -0.359303   -0.108088    0.019972  
      1.664011  1.664011  1.664011     0.363641    0.347872    0.472183  
      0.557813  2.779637  3.885834     0.126568    0.112749   -0.469928  
      2.779637  3.885834  0.557813    -0.122230   -0.343212   -0.017716  
 
   7 f  =    6.572369 THz    41.295411 2PiTHz  219.230623 cm-1    27.181121 meV
             X         Y         Z           dx          dy          dz
      3.885834  0.557813  2.779637     0.354792    0.352302    0.002489  
      1.664011  1.664011  1.664011     0.354792   -0.352302   -0.002489  
      0.557813  2.779637  3.885834    -0.354792    0.352302   -0.002489  
      2.779637  3.885834  0.557813    -0.354792   -0.352302    0.002489  
 
   8 f  =    6.572369 THz    41.295411 2PiTHz  219.230623 cm-1    27.181121 meV
             X         Y         Z           dx          dy          dz
      3.885834  0.557813  2.779637    -0.201964    0.206276   -0.408241  
      1.664011  1.664011  1.664011    -0.201964   -0.206276    0.408241  
      0.557813  2.779637  3.885834     0.201964    0.206276    0.408241  
      2.779637  3.885834  0.557813     0.201964   -0.206276   -0.408241  
 
   9 f/i=    0.053547 THz     0.336449 2PiTHz    1.786151 cm-1     0.221454 meV
             X         Y         Z           dx          dy          dz
      3.885834  0.557813  2.779637    -0.061313   -0.215407    0.448753  
      1.664011  1.664011  1.664011    -0.064155   -0.214751    0.449295  
      0.557813  2.779637  3.885834    -0.059471   -0.210880    0.446524  
      2.779637  3.885834  0.557813    -0.065996   -0.211536    0.447066  
 
  10 f/i=    0.053547 THz     0.336449 2PiTHz    1.786151 cm-1     0.221454 meV
             X         Y         Z           dx          dy          dz
      3.885834  0.557813  2.779637    -0.113974   -0.433633   -0.220278  
      1.664011  1.664011  1.664011    -0.107901   -0.432473   -0.219320  
      0.557813  2.779637  3.885834    -0.110224   -0.434392   -0.224817  
      2.779637  3.885834  0.557813    -0.111652   -0.435552   -0.223858  
 
  11 f/i=    0.053547 THz     0.336449 2PiTHz    1.786151 cm-1     0.221454 meV
             X         Y         Z           dx          dy          dz
      3.885834  0.557813  2.779637     0.482960   -0.124748    0.009917  
      1.664011  1.664011  1.664011     0.483985   -0.129804    0.005740  
      0.557813  2.779637  3.885834     0.484060   -0.129742    0.008587  
      2.779637  3.885834  0.557813     0.482885   -0.124686    0.004409  
 
  12 f/i=    7.039318 THz    44.229337 2PiTHz  234.806361 cm-1    29.112265 meV
             X         Y         Z           dx          dy          dz
      3.885834  0.557813  2.779637    -0.288675    0.288675    0.288675  
      1.664011  1.664011  1.664011    -0.288675   -0.288675   -0.288675  
      0.557813  2.779637  3.885834     0.288675    0.288675   -0.288675  
      2.779637  3.885834  0.557813     0.288675   -0.288675    0.288675  
 


--------------------------------------------------------------------------------------------------------



 ELASTIC MODULI CONTR FROM IONIC RELAXATION (kBar)
 Direction    XX          YY          ZZ          XY          YZ          ZX
 --------------------------------------------------------------------------------
 XX        -353.9704    176.9852    176.9852     -0.0000     -0.0000      0.0000
 YY         176.9852   -353.9704    176.9852     -0.0000     -0.0000     -0.0000
 ZZ         176.9852    176.9852   -353.9704      0.0000      0.0000      0.0000
 XY          -0.0000     -0.0000      0.0000   -109.6766     -0.0000      0.0000
 YZ           0.0000      0.0000      0.0000     -0.0000   -109.6766     -0.0000
 ZX           0.0000     -0.0000     -0.0000      0.0000     -0.0000   -109.6766
 --------------------------------------------------------------------------------


 TOTAL ELASTIC MODULI (kBar)
 Direction    XX          YY          ZZ          XY          YZ          ZX
 --------------------------------------------------------------------------------
 XX        -266.9626    272.8944    272.8944     -0.0000     -0.0000      0.0000
 YY         272.8944   -266.9626    272.8944     -0.0000     -0.0000     -0.0000
 ZZ         272.8944    272.8944   -266.9626      0.0000      0.0000      0.0000
 XY          -0.0000     -0.0000      0.0000    -64.6876     -0.0000      0.0000
 YZ           0.0000      0.0000      0.0000     -0.0000    -64.6876     -0.0000
 ZX           0.0000     -0.0000     -0.0000      0.0000     -0.0000    -64.6876
 --------------------------------------------------------------------------------



--------------------------------------------------------------------------------------------------------


  LATTYP: Found a simple cubic cell.
 ALAT       =     4.4436470441
  
  Lattice vectors:
  
 A1 = (   4.4436470441,   0.0000000000,   0.0000000000)
 A2 = (   0.0000000000,   4.4436470441,   0.0000000000)
 A3 = (   0.0000000000,   0.0000000000,   4.4436470441)


Analysis of symmetry for initial positions (statically):
=====================================================================
 Subroutine PRICEL returns:
 Original cell was already a primitive cell.
 

 Routine SETGRP: Setting up the symmetry group for a 
 simple cubic supercell.


 Subroutine GETGRP returns: Found 12 space group operations
 (whereof  3 operations were pure point group operations)
 out of a pool of 48 trial point group operations.


The static configuration has the point symmetry C_3 .
 The point group associated with its full space group is T   .


Analysis of symmetry for dynamics (positions and initial velocities):
=====================================================================
 Subroutine PRICEL returns:
 Original cell was already a primitive cell.
 

 Routine SETGRP: Setting up the symmetry group for a 
 simple cubic supercell.


 Subroutine GETGRP returns: Found 12 space group operations
 (whereof  3 operations were pure point group operations)
 out of a pool of 48 trial point group operations.


The dynamic configuration has the point symmetry C_3 .
 The point group associated with its full space group is T   .


 Subroutine INISYM returns: Found 12 space group operations
 (whereof  3 operations are pure point group operations),
 and found     1 'primitive' translations

 
 KPOINTS: KPOINTS generated from KSPACING         

Automatic generation of k-mesh.
 Grid dimensions read from file:
 generate k-points for:   15   15   15

 Generating k-lattice:

  Cartesian coordinates                     Fractional coordinates (reciprocal lattice)
     0.015002692  0.000000000  0.000000000     0.066666667  0.000000000  0.000000000
     0.000000000  0.015002692  0.000000000     0.000000000  0.066666667  0.000000000
     0.000000000  0.000000000  0.015002692     0.000000000  0.000000000  0.066666667

  Length of vectors
     0.015002692  0.015002692  0.015002692

  Shift w.r.t. Gamma in fractional coordinates (k-lattice)
     0.000000000  0.000000000  0.000000000

 
 Subroutine IBZKPT returns following result:
 ===========================================
 
 Found    176 irreducible k-points:
 
 Following reciprocal coordinates:
            Coordinates               Weight
  0.000000  0.000000  0.000000      1.000000
  0.066667  0.000000  0.000000      6.000000
  0.133333  0.000000  0.000000      6.000000
  0.200000  0.000000  0.000000      6.000000
  0.266667  0.000000  0.000000      6.000000
  0.333333  0.000000  0.000000      6.000000
  0.400000  0.000000  0.000000      6.000000
  0.466667  0.000000  0.000000      6.000000
  0.066667  0.066667  0.000000     12.000000
  0.133333  0.066667  0.000000     12.000000
  0.200000  0.066667  0.000000     12.000000
  0.266667  0.066667  0.000000     12.000000
  0.333333  0.066667  0.000000     12.000000
  0.400000  0.066667  0.000000     12.000000
  0.466667  0.066667  0.000000     12.000000
  0.066667  0.133333  0.000000     12.000000
  0.133333  0.133333  0.000000     12.000000
  0.200000  0.133333  0.000000     12.000000
  0.266667  0.133333  0.000000     12.000000
  0.333333  0.133333  0.000000     12.000000
  0.400000  0.133333  0.000000     12.000000
  0.466667  0.133333  0.000000     12.000000
  0.066667  0.200000  0.000000     12.000000
  0.133333  0.200000  0.000000     12.000000
  0.200000  0.200000  0.000000     12.000000
  0.266667  0.200000  0.000000     12.000000
  0.333333  0.200000  0.000000     12.000000
  0.400000  0.200000  0.000000     12.000000
  0.466667  0.200000  0.000000     12.000000
  0.066667  0.266667  0.000000     12.000000
  0.133333  0.266667  0.000000     12.000000
  0.200000  0.266667  0.000000     12.000000
  0.266667  0.266667  0.000000     12.000000
  0.333333  0.266667  0.000000     12.000000
  0.400000  0.266667  0.000000     12.000000
  0.466667  0.266667  0.000000     12.000000
  0.066667  0.333333  0.000000     12.000000
  0.133333  0.333333  0.000000     12.000000
  0.200000  0.333333  0.000000     12.000000
  0.266667  0.333333  0.000000     12.000000
  0.333333  0.333333  0.000000     12.000000
  0.400000  0.333333  0.000000     12.000000
  0.466667  0.333333  0.000000     12.000000
  0.066667  0.400000  0.000000     12.000000
  0.133333  0.400000  0.000000     12.000000
  0.200000  0.400000  0.000000     12.000000
  0.266667  0.400000  0.000000     12.000000
  0.333333  0.400000  0.000000     12.000000
  0.400000  0.400000  0.000000     12.000000
  0.466667  0.400000  0.000000     12.000000
  0.066667  0.466667  0.000000     12.000000
  0.133333  0.466667  0.000000     12.000000
  0.200000  0.466667  0.000000     12.000000
  0.266667  0.466667  0.000000     12.000000
  0.333333  0.466667  0.000000     12.000000
  0.400000  0.466667  0.000000     12.000000
  0.466667  0.466667  0.000000     12.000000
  0.066667  0.066667  0.066667      8.000000
  0.133333  0.066667  0.066667     24.000000
  0.200000  0.066667  0.066667     24.000000
  0.266667  0.066667  0.066667     24.000000
  0.333333  0.066667  0.066667     24.000000
  0.400000  0.066667  0.066667     24.000000
  0.466667  0.066667  0.066667     24.000000
  0.133333  0.133333  0.066667     24.000000
  0.200000  0.133333  0.066667     24.000000
  0.266667  0.133333  0.066667     24.000000
  0.333333  0.133333  0.066667     24.000000
  0.400000  0.133333  0.066667     24.000000
  0.466667  0.133333  0.066667     24.000000
  0.133333  0.200000  0.066667     24.000000
  0.200000  0.200000  0.066667     24.000000
  0.266667  0.200000  0.066667     24.000000
  0.333333  0.200000  0.066667     24.000000
  0.400000  0.200000  0.066667     24.000000
  0.466667  0.200000  0.066667     24.000000
  0.133333  0.266667  0.066667     24.000000
  0.200000  0.266667  0.066667     24.000000
  0.266667  0.266667  0.066667     24.000000
  0.333333  0.266667  0.066667     24.000000
  0.400000  0.266667  0.066667     24.000000
  0.466667  0.266667  0.066667     24.000000
  0.133333  0.333333  0.066667     24.000000
  0.200000  0.333333  0.066667     24.000000
  0.266667  0.333333  0.066667     24.000000
  0.333333  0.333333  0.066667     24.000000
  0.400000  0.333333  0.066667     24.000000
  0.466667  0.333333  0.066667     24.000000
  0.133333  0.400000  0.066667     24.000000
  0.200000  0.400000  0.066667     24.000000
  0.266667  0.400000  0.066667     24.000000
  0.333333  0.400000  0.066667     24.000000
  0.400000  0.400000  0.066667     24.000000
  0.466667  0.400000  0.066667     24.000000
  0.133333  0.466667  0.066667     24.000000
  0.200000  0.466667  0.066667     24.000000
  0.266667  0.466667  0.066667     24.000000
  0.333333  0.466667  0.066667     24.000000
  0.400000  0.466667  0.066667     24.000000
  0.466667  0.466667  0.066667     24.000000
  0.133333  0.133333  0.133333      8.000000
  0.200000  0.133333  0.133333     24.000000
  0.266667  0.133333  0.133333     24.000000
  0.333333  0.133333  0.133333     24.000000
  0.400000  0.133333  0.133333     24.000000
  0.466667  0.133333  0.133333     24.000000
  0.200000  0.200000  0.133333     24.000000
  0.266667  0.200000  0.133333     24.000000
  0.333333  0.200000  0.133333     24.000000
  0.400000  0.200000  0.133333     24.000000
  0.466667  0.200000  0.133333     24.000000
  0.200000  0.266667  0.133333     24.000000
  0.266667  0.266667  0.133333     24.000000
  0.333333  0.266667  0.133333     24.000000
  0.400000  0.266667  0.133333     24.000000
  0.466667  0.266667  0.133333     24.000000
  0.200000  0.333333  0.133333     24.000000
  0.266667  0.333333  0.133333     24.000000
  0.333333  0.333333  0.133333     24.000000
  0.400000  0.333333  0.133333     24.000000
  0.466667  0.333333  0.133333     24.000000
  0.200000  0.400000  0.133333     24.000000
  0.266667  0.400000  0.133333     24.000000
  0.333333  0.400000  0.133333     24.000000
  0.400000  0.400000  0.133333     24.000000
  0.466667  0.400000  0.133333     24.000000
  0.200000  0.466667  0.133333     24.000000
  0.266667  0.466667  0.133333     24.000000
  0.333333  0.466667  0.133333     24.000000
  0.400000  0.466667  0.133333     24.000000
  0.466667  0.466667  0.133333     24.000000
  0.200000  0.200000  0.200000      8.000000
  0.266667  0.200000  0.200000     24.000000
  0.333333  0.200000  0.200000     24.000000
  0.400000  0.200000  0.200000     24.000000
  0.466667  0.200000  0.200000     24.000000
  0.266667  0.266667  0.200000     24.000000
  0.333333  0.266667  0.200000     24.000000
  0.400000  0.266667  0.200000     24.000000
  0.466667  0.266667  0.200000     24.000000
  0.266667  0.333333  0.200000     24.000000
  0.333333  0.333333  0.200000     24.000000
  0.400000  0.333333  0.200000     24.000000
  0.466667  0.333333  0.200000     24.000000
  0.266667  0.400000  0.200000     24.000000
  0.333333  0.400000  0.200000     24.000000
  0.400000  0.400000  0.200000     24.000000
  0.466667  0.400000  0.200000     24.000000
  0.266667  0.466667  0.200000     24.000000
  0.333333  0.466667  0.200000     24.000000
  0.400000  0.466667  0.200000     24.000000
  0.466667  0.466667  0.200000     24.000000
  0.266667  0.266667  0.266667      8.000000
  0.333333  0.266667  0.266667     24.000000
  0.400000  0.266667  0.266667     24.000000
  0.466667  0.266667  0.266667     24.000000
  0.333333  0.333333  0.266667     24.000000
  0.400000  0.333333  0.266667     24.000000
  0.466667  0.333333  0.266667     24.000000
  0.333333  0.400000  0.266667     24.000000
  0.400000  0.400000  0.266667     24.000000
  0.466667  0.400000  0.266667     24.000000
  0.333333  0.466667  0.266667     24.000000
  0.400000  0.466667  0.266667     24.000000
  0.466667  0.466667  0.266667     24.000000
  0.333333  0.333333  0.333333      8.000000
  0.400000  0.333333  0.333333     24.000000
  0.466667  0.333333  0.333333     24.000000
  0.400000  0.400000  0.333333     24.000000
  0.466667  0.400000  0.333333     24.000000
  0.400000  0.466667  0.333333     24.000000
  0.466667  0.466667  0.333333     24.000000
  0.400000  0.400000  0.400000      8.000000
  0.466667  0.400000  0.400000     24.000000
  0.466667  0.466667  0.400000     24.000000
  0.466667  0.466667  0.466667      8.000000
 
 Following cartesian coordinates:
            Coordinates               Weight
  0.000000  0.000000  0.000000      1.000000
  0.015003  0.000000  0.000000      6.000000
  0.030005  0.000000  0.000000      6.000000
  0.045008  0.000000  0.000000      6.000000
  0.060011  0.000000  0.000000      6.000000
  0.075013  0.000000  0.000000      6.000000
  0.090016  0.000000  0.000000      6.000000
  0.105019  0.000000  0.000000      6.000000
  0.015003  0.015003  0.000000     12.000000
  0.030005  0.015003  0.000000     12.000000
  0.045008  0.015003  0.000000     12.000000
  0.060011  0.015003  0.000000     12.000000
  0.075013  0.015003  0.000000     12.000000
  0.090016  0.015003  0.000000     12.000000
  0.105019  0.015003  0.000000     12.000000
  0.015003  0.030005  0.000000     12.000000
  0.030005  0.030005  0.000000     12.000000
  0.045008  0.030005  0.000000     12.000000
  0.060011  0.030005  0.000000     12.000000
  0.075013  0.030005  0.000000     12.000000
  0.090016  0.030005  0.000000     12.000000
  0.105019  0.030005  0.000000     12.000000
  0.015003  0.045008  0.000000     12.000000
  0.030005  0.045008  0.000000     12.000000
  0.045008  0.045008  0.000000     12.000000
  0.060011  0.045008  0.000000     12.000000
  0.075013  0.045008  0.000000     12.000000
  0.090016  0.045008  0.000000     12.000000
  0.105019  0.045008  0.000000     12.000000
  0.015003  0.060011  0.000000     12.000000
  0.030005  0.060011  0.000000     12.000000
  0.045008  0.060011  0.000000     12.000000
  0.060011  0.060011  0.000000     12.000000
  0.075013  0.060011  0.000000     12.000000
  0.090016  0.060011  0.000000     12.000000
  0.105019  0.060011  0.000000     12.000000
  0.015003  0.075013  0.000000     12.000000
  0.030005  0.075013  0.000000     12.000000
  0.045008  0.075013  0.000000     12.000000
  0.060011  0.075013  0.000000     12.000000
  0.075013  0.075013  0.000000     12.000000
  0.090016  0.075013  0.000000     12.000000
  0.105019  0.075013  0.000000     12.000000
  0.015003  0.090016  0.000000     12.000000
  0.030005  0.090016  0.000000     12.000000
  0.045008  0.090016  0.000000     12.000000
  0.060011  0.090016  0.000000     12.000000
  0.075013  0.090016  0.000000     12.000000
  0.090016  0.090016  0.000000     12.000000
  0.105019  0.090016  0.000000     12.000000
  0.015003  0.105019  0.000000     12.000000
  0.030005  0.105019  0.000000     12.000000
  0.045008  0.105019  0.000000     12.000000
  0.060011  0.105019  0.000000     12.000000
  0.075013  0.105019  0.000000     12.000000
  0.090016  0.105019  0.000000     12.000000
  0.105019  0.105019  0.000000     12.000000
  0.015003  0.015003  0.015003      8.000000
  0.030005  0.015003  0.015003     24.000000
  0.045008  0.015003  0.015003     24.000000
  0.060011  0.015003  0.015003     24.000000
  0.075013  0.015003  0.015003     24.000000
  0.090016  0.015003  0.015003     24.000000
  0.105019  0.015003  0.015003     24.000000
  0.030005  0.030005  0.015003     24.000000
  0.045008  0.030005  0.015003     24.000000
  0.060011  0.030005  0.015003     24.000000
  0.075013  0.030005  0.015003     24.000000
  0.090016  0.030005  0.015003     24.000000
  0.105019  0.030005  0.015003     24.000000
  0.030005  0.045008  0.015003     24.000000
  0.045008  0.045008  0.015003     24.000000
  0.060011  0.045008  0.015003     24.000000
  0.075013  0.045008  0.015003     24.000000
  0.090016  0.045008  0.015003     24.000000
  0.105019  0.045008  0.015003     24.000000
  0.030005  0.060011  0.015003     24.000000
  0.045008  0.060011  0.015003     24.000000
  0.060011  0.060011  0.015003     24.000000
  0.075013  0.060011  0.015003     24.000000
  0.090016  0.060011  0.015003     24.000000
  0.105019  0.060011  0.015003     24.000000
  0.030005  0.075013  0.015003     24.000000
  0.045008  0.075013  0.015003     24.000000
  0.060011  0.075013  0.015003     24.000000
  0.075013  0.075013  0.015003     24.000000
  0.090016  0.075013  0.015003     24.000000
  0.105019  0.075013  0.015003     24.000000
  0.030005  0.090016  0.015003     24.000000
  0.045008  0.090016  0.015003     24.000000
  0.060011  0.090016  0.015003     24.000000
  0.075013  0.090016  0.015003     24.000000
  0.090016  0.090016  0.015003     24.000000
  0.105019  0.090016  0.015003     24.000000
  0.030005  0.105019  0.015003     24.000000
  0.045008  0.105019  0.015003     24.000000
  0.060011  0.105019  0.015003     24.000000
  0.075013  0.105019  0.015003     24.000000
  0.090016  0.105019  0.015003     24.000000
  0.105019  0.105019  0.015003     24.000000
  0.030005  0.030005  0.030005      8.000000
  0.045008  0.030005  0.030005     24.000000
  0.060011  0.030005  0.030005     24.000000
  0.075013  0.030005  0.030005     24.000000
  0.090016  0.030005  0.030005     24.000000
  0.105019  0.030005  0.030005     24.000000
  0.045008  0.045008  0.030005     24.000000
  0.060011  0.045008  0.030005     24.000000
  0.075013  0.045008  0.030005     24.000000
  0.090016  0.045008  0.030005     24.000000
  0.105019  0.045008  0.030005     24.000000
  0.045008  0.060011  0.030005     24.000000
  0.060011  0.060011  0.030005     24.000000
  0.075013  0.060011  0.030005     24.000000
  0.090016  0.060011  0.030005     24.000000
  0.105019  0.060011  0.030005     24.000000
  0.045008  0.075013  0.030005     24.000000
  0.060011  0.075013  0.030005     24.000000
  0.075013  0.075013  0.030005     24.000000
  0.090016  0.075013  0.030005     24.000000
  0.105019  0.075013  0.030005     24.000000
  0.045008  0.090016  0.030005     24.000000
  0.060011  0.090016  0.030005     24.000000
  0.075013  0.090016  0.030005     24.000000
  0.090016  0.090016  0.030005     24.000000
  0.105019  0.090016  0.030005     24.000000
  0.045008  0.105019  0.030005     24.000000
  0.060011  0.105019  0.030005     24.000000
  0.075013  0.105019  0.030005     24.000000
  0.090016  0.105019  0.030005     24.000000
  0.105019  0.105019  0.030005     24.000000
  0.045008  0.045008  0.045008      8.000000
  0.060011  0.045008  0.045008     24.000000
  0.075013  0.045008  0.045008     24.000000
  0.090016  0.045008  0.045008     24.000000
  0.105019  0.045008  0.045008     24.000000
  0.060011  0.060011  0.045008     24.000000
  0.075013  0.060011  0.045008     24.000000
  0.090016  0.060011  0.045008     24.000000
  0.105019  0.060011  0.045008     24.000000
  0.060011  0.075013  0.045008     24.000000
  0.075013  0.075013  0.045008     24.000000
  0.090016  0.075013  0.045008     24.000000
  0.105019  0.075013  0.045008     24.000000
  0.060011  0.090016  0.045008     24.000000
  0.075013  0.090016  0.045008     24.000000
  0.090016  0.090016  0.045008     24.000000
  0.105019  0.090016  0.045008     24.000000
  0.060011  0.105019  0.045008     24.000000
  0.075013  0.105019  0.045008     24.000000
  0.090016  0.105019  0.045008     24.000000
  0.105019  0.105019  0.045008     24.000000
  0.060011  0.060011  0.060011      8.000000
  0.075013  0.060011  0.060011     24.000000
  0.090016  0.060011  0.060011     24.000000
  0.105019  0.060011  0.060011     24.000000
  0.075013  0.075013  0.060011     24.000000
  0.090016  0.075013  0.060011     24.000000
  0.105019  0.075013  0.060011     24.000000
  0.075013  0.090016  0.060011     24.000000
  0.090016  0.090016  0.060011     24.000000
  0.105019  0.090016  0.060011     24.000000
  0.075013  0.105019  0.060011     24.000000
  0.090016  0.105019  0.060011     24.000000
  0.105019  0.105019  0.060011     24.000000
  0.075013  0.075013  0.075013      8.000000
  0.090016  0.075013  0.075013     24.000000
  0.105019  0.075013  0.075013     24.000000
  0.090016  0.090016  0.075013     24.000000
  0.105019  0.090016  0.075013     24.000000
  0.090016  0.105019  0.075013     24.000000
  0.105019  0.105019  0.075013     24.000000
  0.090016  0.090016  0.090016      8.000000
  0.105019  0.090016  0.090016     24.000000
  0.105019  0.105019  0.090016     24.000000
  0.105019  0.105019  0.105019      8.000000
 
 WARNING: full set of k-points will be restricted to regular points only.

     LOOP+:  cpu time    138.3356: real time    147.9653
    4ORBIT:  cpu time      0.0000: real time      0.0000

 total amount of memory used by VASP MPI-rank0   167895. kBytes
=======================================================================

   base                                    :      30000. kBytes
   nonl-proj                               :      20978. kBytes
   fftplans                                :      13060. kBytes
   grid                                    :      20134. kBytes
   one-center                              :          4. kBytes
   wavefun                                 :      83719. kBytes
 
  
  
 General timing and accounting informations for this job:
 ========================================================
  
                  Total CPU time used (sec):     2329.862
                            User time (sec):     2327.662
                          System time (sec):        2.200
                         Elapsed time (sec):     2345.946
  
                   Maximum memory used (kb):     3497060.
                   Average memory used (kb):          N/A
  
                          Minor page faults:      1371691
                          Major page faults:          523
                 Voluntary context switches:        64067
