Loading vasp/6.5.0-intel
  Loading requirement: oneapi/2023.2
 running   40 mpi-ranks, on    1 nodes
 distrk:  each k-point on   40 cores,    1 groups
 distr:  one band on    1 cores,   40 groups
 vasp.6.5.0 16Dec24 (build May 09 2025 01:16:18) complex                        
  
 POSCAR found type information on POSCAR Li
 POSCAR found :  1 types and       1 ions
 scaLAPACK will be used
 -----------------------------------------------------------------------------
|                                                                             |
|           W    W    AA    RRRRR   N    N  II  N    N   GGGG   !!!           |
|           W    W   A  A   R    R  NN   N  II  NN   N  G    G  !!!           |
|           W    W  A    A  R    R  N N  N  II  N N  N  G       !!!           |
|           W WW W  AAAAAA  RRRRR   N  N N  II  N  N N  G  GGG   !            |
|           WW  WW  A    A  R   R   N   NN  II  N   NN  G    G                |
|           W    W  A    A  R    R  N    N  II  N    N   GGGG   !!!           |
|                                                                             |
|     For optimal performance we recommend to set                             |
|       NCORE = 2 up to number-of-cores-per-socket                            |
|     NCORE specifies how many cores store one orbital (NPAR=cpu/NCORE).      |
|     This setting can greatly improve the performance of VASP for DFT.       |
|     The default, NCORE=1 might be grossly inefficient on modern             |
|     multi-core architectures or massively parallel machines. Do your        |
|     own testing! More info at https://www.vasp.at/wiki/index.php/NCORE      |
|     Unfortunately you need to use the default for GW and RPA                |
|     calculations (for HF NCORE is supported but not extensively tested      |
|     yet).                                                                   |
|                                                                             |
 -----------------------------------------------------------------------------

 -----------------------------------------------------------------------------
|                                                                             |
|               ----> ADVICE to this user running VASP <----                  |
|                                                                             |
|     You have a (more or less) 'small supercell' and for smaller cells       |
|     it is recommended to use the reciprocal-space projection scheme!        |
|     The real-space optimization is not efficient for small cells and it     |
|     is also less accurate ...                                               |
|     Therefore, set LREAL=.FALSE. in the INCAR file.                         |
|                                                                             |
 -----------------------------------------------------------------------------

 LDA part: xc-table for (Slater+PW92), standard interpolation
 -----------------------------------------------------------------------------
|                                                                             |
|           W    W    AA    RRRRR   N    N  II  N    N   GGGG   !!!           |
|           W    W   A  A   R    R  NN   N  II  NN   N  G    G  !!!           |
|           W    W  A    A  R    R  N N  N  II  N N  N  G       !!!           |
|           W WW W  AAAAAA  RRRRR   N  N N  II  N  N N  G  GGG   !            |
|           WW  WW  A    A  R   R   N   NN  II  N   NN  G    G                |
|           W    W  A    A  R    R  N    N  II  N    N   GGGG   !!!           |
|                                                                             |
|     The requested file  could not be found or opened for reading            |
|     k-point information. Automatic k-point generation is used as a          |
|     fallback, which may lead to unwanted results.                           |
|                                                                             |
 -----------------------------------------------------------------------------

 POSCAR, INCAR and KPOINTS ok, starting setup
 FFT: planning ... GRIDC
 FFT: planning ... GRID_SOFT
 FFT: planning ... GRID
 WAVECAR not read
 entering main loop
       N       E                     dE             d eps       ncg     rms          rms(c)
DAV:   1    -0.150532742337E+01   -0.15053E+01   -0.79732E+02  6960   0.574E+01
DAV:   2    -0.190407415455E+01   -0.39875E+00   -0.39603E+00 10080   0.401E+00
DAV:   3    -0.190419804507E+01   -0.12389E-03   -0.12389E-03  6760   0.796E-02
DAV:   4    -0.190419805253E+01   -0.74614E-08   -0.74060E-08 11680   0.517E-04
DAV:   5    -0.190419805250E+01    0.29445E-10    0.53298E-13  6800   0.520E-07    0.221E-01
DAV:   6    -0.190308605278E+01    0.11120E-02   -0.29130E-04  8720   0.134E-02    0.126E-01
DAV:   7    -0.190250644711E+01    0.57961E-03   -0.70047E-04  9120   0.204E-02    0.284E-02
DAV:   8    -0.190250471920E+01    0.17279E-05   -0.29535E-06  8400   0.189E-03    0.793E-04
DAV:   9    -0.190250365189E+01    0.10673E-05   -0.26196E-08  9640   0.241E-04    0.323E-04
DAV:  10    -0.190250318283E+01    0.46906E-06   -0.21340E-08  5640   0.163E-04
   1 F= -.19025032E+01 E0= -.19023569E+01  d E =-.190250E+01
 curvature:   0.00 expect dE= 0.000E+00 dE for cont linesearch  0.000E+00
 trial: gam= 0.00000 g(F)=  0.121E-63 g(S)=  0.534E-04 ort = 0.000E+00 (trialstep = 0.100E+01)
 search vector abs. value=  0.534E-04
 bond charge predicted
       N       E                     dE             d eps       ncg     rms          rms(c)
DAV:   1    -0.190257304236E+01   -0.69390E-04   -0.67076E-04  6720   0.319E-02    0.550E-02
DAV:   2    -0.190255870469E+01    0.14338E-04   -0.58448E-06  7240   0.186E-03    0.309E-02
DAV:   3    -0.190254802668E+01    0.10678E-04   -0.10262E-05  7720   0.233E-03    0.765E-04
DAV:   4    -0.190254764677E+01    0.37991E-06   -0.25629E-08  9240   0.179E-04
   2 F= -.19025476E+01 E0= -.19024022E+01  d E =-.444639E-04
 trial-energy change:   -0.000044  1 .order   -0.000047   -0.000053   -0.000040
 step:   3.8790(harm=  3.8790)  dis= 0.00000  next Energy=    -1.902607 (dE=-0.104E-03)
 bond charge predicted
       N       E                     dE             d eps       ncg     rms          rms(c)
DAV:   1    -0.190282628650E+01   -0.27826E-03   -0.56122E-03  6720   0.928E-02    0.159E-01
DAV:   2    -0.190269189144E+01    0.13440E-03   -0.48983E-05  7200   0.538E-03    0.891E-02
DAV:   3    -0.190261807723E+01    0.73814E-04   -0.85571E-05  7720   0.675E-03    0.219E-03
DAV:   4    -0.190261700300E+01    0.10742E-05   -0.21145E-07 10080   0.513E-04    0.885E-04
DAV:   5    -0.190261692758E+01    0.75418E-07   -0.10350E-07  7840   0.267E-04
   3 F= -.19026169E+01 E0= -.19024738E+01  d E =-.113745E-03
 curvature:  -1.94 expect dE=-0.305E-05 dE for cont linesearch -0.305E-05
 ZBRENT: extrapolating
 opt :   4.7457  next Energy=    -1.902621 (dE=-0.118E-03)
 bond charge predicted
       N       E                     dE             d eps       ncg     rms          rms(c)
DAV:   1    -0.190264048204E+01   -0.23479E-04   -0.50702E-04  6720   0.278E-02    0.478E-02
DAV:   2    -0.190262983090E+01    0.10651E-04   -0.44420E-06  7240   0.162E-03    0.268E-02
DAV:   3    -0.190262154626E+01    0.82846E-05   -0.77741E-06  7720   0.203E-03    0.665E-04
DAV:   4    -0.190262121756E+01    0.32870E-06   -0.19550E-08  8800   0.156E-04
   4 F= -.19026212E+01 E0= -.19024788E+01  d E =-.118035E-03
 curvature:  -2.52 expect dE=-0.130E-06 dE for cont linesearch -0.130E-06
 ZBRENT: extrapolating
 opt :   4.9455  next Energy=    -1.902621 (dE=-0.118E-03)
 bond charge predicted
       N       E                     dE             d eps       ncg     rms          rms(c)
DAV:   1    -0.190262220678E+01   -0.66051E-06   -0.27037E-05  6720   0.642E-03    0.110E-02
DAV:   2    -0.190262200148E+01    0.20529E-06   -0.23985E-07  7160   0.377E-04
   5 F= -.19026220E+01 E0= -.19024798E+01  d E =-.118819E-03
 curvature:  -3.07 expect dE=-0.367E-05 dE for cont linesearch -0.367E-05
 ZBRENT: increasing intervall
 opt :   5.3451  next Energy=    -1.902628 (dE=-0.125E-03)
 bond charge predicted
       N       E                     dE             d eps       ncg     rms          rms(c)
DAV:   1    -0.190262398396E+01   -0.17772E-05   -0.97283E-05  6720   0.125E-02    0.220E-02
DAV:   2    -0.190262216899E+01    0.18150E-05   -0.94796E-07  7360   0.740E-04    0.123E-02
DAV:   3    -0.190261984458E+01    0.23244E-05   -0.16636E-06  7840   0.930E-04    0.320E-04
DAV:   4    -0.190261968899E+01    0.15559E-06   -0.44383E-09  5200   0.747E-05
   6 F= -.19026197E+01 E0= -.19024777E+01  d E =-.116506E-03
 curvature:  -4.79 expect dE=-0.206E-05 dE for cont linesearch -0.206E-05
 ZBRENT: bracketing found
 ZBRENT: interpolating
 opt :   5.1953  next Energy=    -1.902620 (dE=-0.117E-03)
 bond charge predicted
       N       E                     dE             d eps       ncg     rms          rms(c)
DAV:   1    -0.190262087796E+01   -0.10334E-05   -0.15172E-05  6720   0.480E-03    0.827E-03
DAV:   2    -0.190262009618E+01    0.78177E-06   -0.13175E-07  7040   0.279E-04
   7 F= -.19026201E+01 E0= -.19024780E+01  d E =-.116913E-03
 curvature:  -0.84 expect dE=-0.167E-05 dE for cont linesearch -0.167E-05
 ZBRENT: interpolating
 opt :   5.0543  next Energy=    -1.902622 (dE=-0.119E-03)
 bond charge predicted
       N       E                     dE             d eps       ncg     rms          rms(c)
DAV:   1    -0.190262119493E+01   -0.31697E-06   -0.10732E-05  6720   0.425E-03    0.773E-03
DAV:   2    -0.190262055610E+01    0.63883E-06   -0.11846E-07  6920   0.260E-04
   8 F= -.19026206E+01 E0= -.19024784E+01  d E =-.117373E-03
 curvature:  -0.22 expect dE=-0.298E-06 dE for cont linesearch -0.298E-06
 ZBRENT: interpolating
 opt :   4.9980  next Energy=    -1.902622 (dE=-0.119E-03)
 bond charge predicted
       N       E                     dE             d eps       ncg     rms          rms(c)
DAV:   1    -0.190262094464E+01    0.25029E-06   -0.12528E-06  6720   0.157E-03    0.306E-03
DAV:   2    -0.190262081020E+01    0.13444E-06   -0.19374E-08  3400   0.104E-04
   9 F= -.19026208E+01 E0= -.19024786E+01  d E =-.117627E-03
 curvature:  -0.15 expect dE=-0.488E-07 dE for cont linesearch -0.488E-07
 ZBRENT: interpolating
 opt :   4.9801  next Energy=    -1.902621 (dE=-0.118E-03)
 bond charge predicted
       N       E                     dE             d eps       ncg     rms          rms(c)
DAV:   1    -0.190262096602E+01   -0.21385E-07   -0.11259E-07  6840   0.487E-04    0.968E-04
DAV:   2    -0.190262094329E+01    0.22735E-07   -0.20294E-09  3360   0.340E-05
  10 F= -.19026209E+01 E0= -.19024787E+01  d E =-.117760E-03
 curvature:  -0.12 expect dE=-0.985E-08 dE for cont linesearch -0.985E-08
 ZBRENT: interpolating
 opt :   4.9650  next Energy=    -1.902621 (dE=-0.118E-03)
 bond charge predicted
       N       E                     dE             d eps       ncg     rms          rms(c)
DAV:   1    -0.190262101248E+01   -0.46461E-07   -0.12002E-07  6720   0.455E-04    0.824E-04
DAV:   2    -0.190262097983E+01    0.32657E-07   -0.13746E-09  3400   0.284E-05
  11 F= -.19026210E+01 E0= -.19024787E+01  d E =-.117797E-03
 curvature:  -0.23 expect dE=-0.142E-07 dE for cont linesearch -0.142E-07
 ZBRENT: bisectioning
 opt :   4.9553  next Energy=    -1.902621 (dE=-0.118E-03)
 bond charge predicted
       N       E                     dE             d eps       ncg     rms          rms(c)
DAV:   1    -0.190262103069E+01   -0.18209E-07   -0.46543E-08  5520   0.289E-04    0.534E-04
DAV:   2    -0.190262101115E+01    0.19538E-07   -0.57889E-10  3360   0.198E-05
  12 F= -.19026210E+01 E0= -.19024788E+01  d E =-.117828E-03
 curvature:  -0.27 expect dE=-0.111E-07 dE for cont linesearch -0.111E-07
 ZBRENT: bisectioning
 opt :   4.9504  next Energy=    -1.902621 (dE=-0.118E-03)
 bond charge predicted
       N       E                     dE             d eps       ncg     rms          rms(c)
DAV:   1    -0.190262104165E+01   -0.10955E-07   -0.10566E-08  3360   0.142E-04    0.266E-04
DAV:   2    -0.190262103350E+01    0.81498E-08   -0.14975E-10  3360   0.120E-05
  13 F= -.19026210E+01 E0= -.19024788E+01  d E =-.117851E-03
 curvature:  -0.17 expect dE=-0.451E-08 dE for cont linesearch -0.451E-08
 ZBRENT: bisectioning
 opt :   4.9479  next Energy=    -1.902621 (dE=-0.118E-03)
 bond charge predicted
       N       E                     dE             d eps       ncg     rms          rms(c)
DAV:   1    -0.190262104865E+01   -0.69989E-08   -0.26470E-09  3360   0.716E-05    0.132E-04
DAV:   2    -0.190262104478E+01    0.38635E-08   -0.38896E-11  3360   0.693E-06
  14 F= -.19026210E+01 E0= -.19024788E+01  d E =-.117862E-03
 curvature:  -0.10 expect dE=-0.217E-08 dE for cont linesearch -0.217E-08
 ZBRENT: bisectioning
 opt :   4.9467  next Energy=    -1.902621 (dE=-0.118E-03)
 bond charge predicted
       N       E                     dE             d eps       ncg     rms          rms(c)
DAV:   1    -0.190262105237E+01   -0.37256E-08   -0.66201E-10  3360   0.360E-05    0.661E-05
DAV:   2    -0.190262105043E+01    0.19370E-08   -0.90094E-12  3360   0.361E-06
  15 F= -.19026211E+01 E0= -.19024788E+01  d E =-.117868E-03
 curvature:  -0.06 expect dE=-0.110E-08 dE for cont linesearch -0.110E-08
 ZBRENT: bisectioning
 opt :   4.9461  next Energy=    -1.902621 (dE=-0.118E-03)
 bond charge predicted
       N       E                     dE             d eps       ncg     rms          rms(c)
DAV:   1    -0.190262105424E+01   -0.18710E-08   -0.16630E-10  3360   0.180E-05    0.331E-05
DAV:   2    -0.190262105319E+01    0.10481E-08   -0.15098E-12  3360   0.173E-06
  16 F= -.19026211E+01 E0= -.19024788E+01  d E =-.117870E-03
 curvature:  -0.03 expect dE=-0.556E-09 dE for cont linesearch -0.556E-09
 ZBRENT: bisectioning
 opt :   4.9458  next Energy=    -1.902621 (dE=-0.118E-03)
 bond charge predicted
       N       E                     dE             d eps       ncg     rms          rms(c)
DAV:   1    -0.190262105516E+01   -0.92234E-09   -0.41593E-11  3360   0.900E-06    0.165E-05
DAV:   2    -0.190262105462E+01    0.54035E-09    0.18630E-13  3360   0.857E-07
  17 F= -.19026211E+01 E0= -.19024788E+01  d E =-.117872E-03
 curvature:  -0.02 expect dE=-0.280E-09 dE for cont linesearch -0.280E-09
 ZBRENT: bisectioning
 opt :   4.9457  next Energy=    -1.902621 (dE=-0.118E-03)
 bond charge predicted
       N       E                     dE             d eps       ncg     rms          rms(c)
DAV:   1    -0.190262105567E+01   -0.50616E-09   -0.10780E-11  3360   0.450E-06    0.827E-06
DAV:   2    -0.190262105543E+01    0.23695E-09    0.61521E-13  3360   0.420E-07
  18 F= -.19026211E+01 E0= -.19024788E+01  d E =-.117873E-03
 curvature:  -0.01 expect dE=-0.141E-09 dE for cont linesearch -0.141E-09
 ZBRENT: bisectioning
 opt :   4.9456  next Energy=    -1.902621 (dE=-0.118E-03)
 bond charge predicted
       N       E                     dE             d eps       ncg     rms          rms(c)
DAV:   1    -0.190262105586E+01   -0.18971E-09   -0.30954E-12  3360   0.225E-06    0.413E-06
DAV:   2    -0.190262105571E+01    0.15461E-09   -0.69835E-13  3360   0.212E-07
  19 F= -.19026211E+01 E0= -.19024788E+01  d E =-.117873E-03
 curvature:  -0.00 expect dE=-0.705E-10 dE for cont linesearch -0.705E-10
 ZBRENT:  can not reach accuracy
 opt :   0.0000  next Energy=     0.000000 (dE= 0.190E+01)
 bond charge predicted
       N       E                     dE             d eps       ncg     rms          rms(c)
DAV:   1    -0.190310983267E+01   -0.48878E-03   -0.16216E-02  6720   0.155E-01    0.271E-01
DAV:   2    -0.190268233479E+01    0.42750E-03   -0.14306E-04  7240   0.916E-03    0.152E-01
DAV:   3    -0.190250063666E+01    0.18170E-03   -0.25263E-04  7720   0.115E-02    0.387E-03
DAV:   4    -0.190250262799E+01   -0.19913E-05   -0.64660E-07 10080   0.885E-04    0.152E-03
DAV:   5    -0.190250290233E+01   -0.27434E-06   -0.28955E-07  7920   0.444E-04
  20 F= -.19025029E+01 E0= -.19023566E+01  d E =0.280505E-06
 curvature:   0.00 expect dE= 0.619-312 dE for cont linesearch  0.619-312
 -----------------------------------------------------------------------------
|                                                                             |
|     EEEEEEE  RRRRRR   RRRRRR   OOOOOOO  RRRRRR      ###     ###     ###     |
|     E        R     R  R     R  O     O  R     R     ###     ###     ###     |
|     E        R     R  R     R  O     O  R     R     ###     ###     ###     |
|     EEEEE    RRRRRR   RRRRRR   O     O  RRRRRR       #       #       #      |
|     E        R   R    R   R    O     O  R   R                               |
|     E        R    R   R    R   O     O  R    R      ###     ###     ###     |
|     EEEEEEE  R     R  R     R  OOOOOOO  R     R     ###     ###     ###     |
|                                                                             |
|     ZBRENT: fatal error in bracketing                                       |
|      please rerun with smaller EDIFF, or copy CONTCAR                       |
|      to POSCAR and continue                                                 |
|                                                                             |
|       ---->  I REFUSE TO CONTINUE WITH THIS SICK JOB ... BYE!!! <----       |
|                                                                             |
 -----------------------------------------------------------------------------

