 vasp.6.5.1 10Mar25 (build May 29 2025 22:39:37) complex                         
 executed on              LinuxNV date 2026.03.09  14:20:01
 running    1 mpi-ranks, with    1 threads/rank, on    1 nodes
 distrk:  each k-point on    1 cores,    1 groups
 distr:  one band on NCORE=   1 cores,    1 groups
 Offloading initialized ...    1 GPUs detected


--------------------------------------------------------------------------------------------------------


 INCAR:
   LCHARG = .FALSE.
   LWAVE = .FALSE.
   ISTART = 0
   ICHARG = 2
   KSPACING = 0.1
   KGAMMA = .TRUE.
   GGA = PE
   ENCUT = 600
   ALGO = Normal
   NELM = 120
   EDIFF = 1E-06
   SIGMA = 0.02
   ISMEAR = 0
   PREC = Accurate
   NSW = 1
   IBRION = -1
   LREAL = A

 POTCAR:    PAW_PBE Li_sv 10Sep2004               
 POTCAR:    PAW_PBE Li_sv 10Sep2004               
   VRHFIN =Li: 1s2s2p                                                                               
   LEXCH  = PE                                                                                      
   EATOM  =   202.7858 eV,   14.9043 Ry                                                             
                                                                                                    
   TITEL  = PAW_PBE Li_sv 10Sep2004                                                                 
   LULTRA =        F    use ultrasoft PP ?                                                          
   IUNSCR =        0    unscreen: 0-lin 1-nonlin 2-no                                               
   RPACOR =    0.000    partial core radius                                                         
   POMASS =    7.010; ZVAL   =    3.000    mass and valenz                                          
   RCORE  =    1.700    outmost cutoff radius                                                       
   RWIGS  =    2.050; RWIGS  =    1.085    wigner-seitz radius (au A)                               
   ENMAX  =  499.034; ENMIN  =  374.276 eV                                                          
   ICORE  =        2    local potential                                                             
   LCOR   =        T    correct aug charges                                                         
   LPAW   =        T    paw PP                                                                      
   EAUG   =  628.945                                                                                
   RMAX   =    1.732    core radius for proj-oper                                                   
   RAUG   =    1.300    factor for augmentation sphere                                              
   RDEP   =    1.728    radius for radial grids                                                     
   RDEPT  =    1.329    core radius for aug-charge                                                  
                                                                                                    
   Atomic configuration                                                                             
    4 entries                                                                                       
     n  l   j            E        occ.                                                              
     1  0  0.50       -51.8549   2.0000                                                             
     2  0  0.50        -2.8742   1.0000                                                             
     2  1  0.50        -1.3606   0.0000                                                             
     3  2  1.50        -1.3606   0.0000                                                             
   Description                                                                                      
     l       E           TYP  RCUT    TYP  RCUT                                                     
     0    -51.8548813     23  1.400                                                                 
     0     -2.8742052     23  1.700                                                                 
     1     -1.3605826     23  1.400                                                                 
     2     -1.3605826     23  1.400                                                                 
  local pseudopotential read in
  atomic valenz-charges read in
  non local Contribution for L=            0  read in
    real space projection operators read in
  non local Contribution for L=            0  read in
    real space projection operators read in
  non local Contribution for L=            1  read in
    real space projection operators read in
    PAW grid and wavefunctions read in
 
   number of l-projection  operators is LMAX  =            3
   number of lm-projection operators is LMMAX =            5
 
 -----------------------------------------------------------------------------
|                                                                             |
|               ----> ADVICE to this user running VASP <----                  |
|                                                                             |
|     You have a (more or less) 'small supercell' and for smaller cells       |
|     it is recommended to use the reciprocal-space projection scheme!        |
|     The real-space optimization is not efficient for small cells and it     |
|     is also less accurate ...                                               |
|     Therefore, set LREAL=.FALSE. in the INCAR file.                         |
|                                                                             |
 -----------------------------------------------------------------------------

 Optimization of the real space projectors (new method)

 maximal supplied QI-value         = 22.11
 optimisation between [QCUT,QGAM] = [ 12.38, 24.98] = [ 42.93,174.79] Ry 
 Optimized for a Real-space Cutoff    1.03 Angstroem

   l    n(q)    QCUT    max X(q) W(low)/X(q) W(high)/X(q)  e(spline) 
   0      8    12.381    10.506    0.81E-04    0.12E-04    0.14E-07
   0      8    12.381     8.367    0.18E-03    0.27E-04    0.28E-07
   1      7    12.381     8.983    0.49E-04    0.18E-03    0.14E-06
  PAW_PBE Li_sv 10Sep2004               :
 energy of atom  1       EATOM= -202.7858
 kinetic energy error for atom=    0.0100 (will be added to EATOM!!)
 
 
 POSCAR: Li
  positions in direct lattice
  No initial velocities read in


 exchange-correlation table for PE
   RHO(1)=    0.500       N(1)  =     2000
   RHO(2)=  100.500       N(2)  =     4000
 


--------------------------------------------------------------------------------------------------------


 ion  position               nearest neighbor table
   1  0.874  0.126  0.626-
   2  0.374  0.374  0.374-
   3  0.126  0.626  0.874-
   4  0.626  0.874  0.126-
 
  LATTYP: Found a simple cubic cell.
 ALAT       =     4.6658293963
  
  Lattice vectors:
  
 A1 = (   4.6658293963,   0.0000000000,   0.0000000000)
 A2 = (   0.0000000000,   4.6658293963,   0.0000000000)
 A3 = (   0.0000000000,   0.0000000000,   4.6658293963)


Analysis of symmetry for initial positions (statically):
=====================================================================
 Subroutine PRICEL returns:
 Original cell was already a primitive cell.
 

 Routine SETGRP: Setting up the symmetry group for a 
 simple cubic supercell.


 Subroutine GETGRP returns: Found 12 space group operations
 (whereof  3 operations were pure point group operations)
 out of a pool of 48 trial point group operations.


The static configuration has the point symmetry C_3 .
 The point group associated with its full space group is T   .


Analysis of symmetry for dynamics (positions and initial velocities):
=====================================================================
 Subroutine PRICEL returns:
 Original cell was already a primitive cell.
 

 Routine SETGRP: Setting up the symmetry group for a 
 simple cubic supercell.


 Subroutine GETGRP returns: Found 12 space group operations
 (whereof  3 operations were pure point group operations)
 out of a pool of 48 trial point group operations.


The dynamic configuration has the point symmetry C_3 .
 The point group associated with its full space group is T   .


 Subroutine INISYM returns: Found 12 space group operations
 (whereof  3 operations are pure point group operations),
 and found     1 'primitive' translations


----------------------------------------------------------------------------------------

                                     Primitive cell                                     

  volume of cell :     101.5749

  direct lattice vectors                    reciprocal lattice vectors
     4.665829396  0.000000000  0.000000000     0.214324167  0.000000000  0.000000000
     0.000000000  4.665829396  0.000000000     0.000000000  0.214324167  0.000000000
     0.000000000  0.000000000  4.665829396     0.000000000  0.000000000  0.214324167

  length of vectors
     4.665829396  4.665829396  4.665829396     0.214324167  0.214324167  0.214324167

  position of ions in fractional coordinates (direct lattice)
     0.874469552  0.125530448  0.625530448
     0.374469552  0.374469552  0.374469552
     0.125530448  0.625530448  0.874469552
     0.625530448  0.874469552  0.125530448

  ion indices of the primitive-cell ions
   primitive index   ion index
                 1           1
                 2           2
                 3           3
                 4           4

----------------------------------------------------------------------------------------

 
 -----------------------------------------------------------------------------
|                                                                             |
|           W    W    AA    RRRRR   N    N  II  N    N   GGGG   !!!           |
|           W    W   A  A   R    R  NN   N  II  NN   N  G    G  !!!           |
|           W    W  A    A  R    R  N N  N  II  N N  N  G       !!!           |
|           W WW W  AAAAAA  RRRRR   N  N N  II  N  N N  G  GGG   !            |
|           WW  WW  A    A  R   R   N   NN  II  N   NN  G    G                |
|           W    W  A    A  R    R  N    N  II  N    N   GGGG   !!!           |
|                                                                             |
|     The requested file  could not be found or opened for reading            |
|     k-point information. Automatic k-point generation is used as a          |
|     fallback, which may lead to unwanted results.                           |
|                                                                             |
 -----------------------------------------------------------------------------

 

Automatic generation of k-mesh.
 Grid dimensions derived from KSPACING:
 generate k-points for:   14   14   14

 Generating k-lattice:

  Cartesian coordinates                     Fractional coordinates (reciprocal lattice)
     0.015308869  0.000000000  0.000000000     0.071428571  0.000000000  0.000000000
     0.000000000  0.015308869  0.000000000     0.000000000  0.071428571  0.000000000
     0.000000000  0.000000000  0.015308869     0.000000000  0.000000000  0.071428571

  Length of vectors
     0.015308869  0.015308869  0.015308869

  Shift w.r.t. Gamma in fractional coordinates (k-lattice)
     0.000000000  0.000000000  0.000000000

 
 Subroutine IBZKPT returns following result:
 ===========================================
 
 Found    176 irreducible k-points:
 
 Following reciprocal coordinates:
            Coordinates               Weight
  0.000000  0.000000  0.000000      1.000000
  0.071429  0.000000  0.000000      6.000000
  0.142857  0.000000  0.000000      6.000000
  0.214286  0.000000  0.000000      6.000000
  0.285714  0.000000  0.000000      6.000000
  0.357143  0.000000  0.000000      6.000000
  0.428571  0.000000  0.000000      6.000000
  0.500000  0.000000  0.000000      3.000000
  0.071429  0.071429  0.000000     12.000000
  0.142857  0.071429  0.000000     12.000000
 -0.071429  0.142857  0.000000     12.000000
  0.214286  0.071429  0.000000     12.000000
 -0.071429  0.214286  0.000000     12.000000
  0.285714  0.071429  0.000000     12.000000
 -0.071429  0.285714  0.000000     12.000000
  0.357143  0.071429  0.000000     12.000000
 -0.071429  0.357143  0.000000     12.000000
  0.428571  0.071429  0.000000     12.000000
 -0.071429  0.428571  0.000000     12.000000
  0.500000  0.071429  0.000000      6.000000
 -0.071429  0.500000  0.000000      6.000000
  0.142857  0.142857  0.000000     12.000000
  0.214286  0.142857  0.000000     12.000000
 -0.142857  0.214286  0.000000     12.000000
  0.285714  0.142857  0.000000     12.000000
 -0.142857  0.285714  0.000000     12.000000
  0.357143  0.142857  0.000000     12.000000
 -0.142857  0.357143  0.000000     12.000000
  0.428571  0.142857  0.000000     12.000000
 -0.142857  0.428571  0.000000     12.000000
  0.500000  0.142857  0.000000      6.000000
 -0.142857  0.500000  0.000000      6.000000
  0.214286  0.214286  0.000000     12.000000
  0.285714  0.214286  0.000000     12.000000
 -0.214286  0.285714  0.000000     12.000000
  0.357143  0.214286  0.000000     12.000000
 -0.214286  0.357143  0.000000     12.000000
  0.428571  0.214286  0.000000     12.000000
 -0.214286  0.428571  0.000000     12.000000
  0.500000  0.214286  0.000000      6.000000
 -0.214286  0.500000  0.000000      6.000000
  0.285714  0.285714  0.000000     12.000000
  0.357143  0.285714  0.000000     12.000000
 -0.285714  0.357143  0.000000     12.000000
  0.428571  0.285714  0.000000     12.000000
 -0.285714  0.428571  0.000000     12.000000
  0.500000  0.285714  0.000000      6.000000
 -0.285714  0.500000  0.000000      6.000000
  0.357143  0.357143  0.000000     12.000000
  0.428571  0.357143  0.000000     12.000000
 -0.357143  0.428571  0.000000     12.000000
  0.500000  0.357143  0.000000      6.000000
 -0.357143  0.500000  0.000000      6.000000
  0.428571  0.428571  0.000000     12.000000
  0.500000  0.428571  0.000000      6.000000
 -0.428571  0.500000  0.000000      6.000000
  0.500000  0.500000  0.000000      3.000000
  0.071429  0.071429  0.071429      8.000000
  0.142857  0.071429  0.071429     24.000000
  0.214286  0.071429  0.071429     24.000000
  0.285714  0.071429  0.071429     24.000000
  0.357143  0.071429  0.071429     24.000000
  0.428571  0.071429  0.071429     24.000000
  0.500000  0.071429  0.071429     12.000000
  0.142857  0.142857  0.071429     24.000000
  0.214286  0.142857  0.071429     24.000000
 -0.142857  0.214286  0.071429     24.000000
  0.285714  0.142857  0.071429     24.000000
 -0.142857  0.285714  0.071429     24.000000
  0.357143  0.142857  0.071429     24.000000
 -0.142857  0.357143  0.071429     24.000000
  0.428571  0.142857  0.071429     24.000000
 -0.142857  0.428571  0.071429     24.000000
  0.500000  0.142857  0.071429     12.000000
 -0.142857  0.500000  0.071429     12.000000
  0.214286  0.214286  0.071429     24.000000
  0.285714  0.214286  0.071429     24.000000
 -0.214286  0.285714  0.071429     24.000000
  0.357143  0.214286  0.071429     24.000000
 -0.214286  0.357143  0.071429     24.000000
  0.428571  0.214286  0.071429     24.000000
 -0.214286  0.428571  0.071429     24.000000
  0.500000  0.214286  0.071429     12.000000
 -0.214286  0.500000  0.071429     12.000000
  0.285714  0.285714  0.071429     24.000000
  0.357143  0.285714  0.071429     24.000000
 -0.285714  0.357143  0.071429     24.000000
  0.428571  0.285714  0.071429     24.000000
 -0.285714  0.428571  0.071429     24.000000
  0.500000  0.285714  0.071429     12.000000
 -0.285714  0.500000  0.071429     12.000000
  0.357143  0.357143  0.071429     24.000000
  0.428571  0.357143  0.071429     24.000000
 -0.357143  0.428571  0.071429     24.000000
  0.500000  0.357143  0.071429     12.000000
 -0.357143  0.500000  0.071429     12.000000
  0.428571  0.428571  0.071429     24.000000
  0.500000  0.428571  0.071429     12.000000
 -0.428571  0.500000  0.071429     12.000000
  0.500000  0.500000  0.071429      6.000000
  0.142857  0.142857  0.142857      8.000000
  0.214286  0.142857  0.142857     24.000000
  0.285714  0.142857  0.142857     24.000000
  0.357143  0.142857  0.142857     24.000000
  0.428571  0.142857  0.142857     24.000000
  0.500000  0.142857  0.142857     12.000000
  0.214286  0.214286  0.142857     24.000000
  0.285714  0.214286  0.142857     24.000000
 -0.214286  0.285714  0.142857     24.000000
  0.357143  0.214286  0.142857     24.000000
 -0.214286  0.357143  0.142857     24.000000
  0.428571  0.214286  0.142857     24.000000
 -0.214286  0.428571  0.142857     24.000000
  0.500000  0.214286  0.142857     12.000000
 -0.214286  0.500000  0.142857     12.000000
  0.285714  0.285714  0.142857     24.000000
  0.357143  0.285714  0.142857     24.000000
 -0.285714  0.357143  0.142857     24.000000
  0.428571  0.285714  0.142857     24.000000
 -0.285714  0.428571  0.142857     24.000000
  0.500000  0.285714  0.142857     12.000000
 -0.285714  0.500000  0.142857     12.000000
  0.357143  0.357143  0.142857     24.000000
  0.428571  0.357143  0.142857     24.000000
 -0.357143  0.428571  0.142857     24.000000
  0.500000  0.357143  0.142857     12.000000
 -0.357143  0.500000  0.142857     12.000000
  0.428571  0.428571  0.142857     24.000000
  0.500000  0.428571  0.142857     12.000000
 -0.428571  0.500000  0.142857     12.000000
  0.500000  0.500000  0.142857      6.000000
  0.214286  0.214286  0.214286      8.000000
  0.285714  0.214286  0.214286     24.000000
  0.357143  0.214286  0.214286     24.000000
  0.428571  0.214286  0.214286     24.000000
  0.500000  0.214286  0.214286     12.000000
  0.285714  0.285714  0.214286     24.000000
  0.357143  0.285714  0.214286     24.000000
 -0.285714  0.357143  0.214286     24.000000
  0.428571  0.285714  0.214286     24.000000
 -0.285714  0.428571  0.214286     24.000000
  0.500000  0.285714  0.214286     12.000000
 -0.285714  0.500000  0.214286     12.000000
  0.357143  0.357143  0.214286     24.000000
  0.428571  0.357143  0.214286     24.000000
 -0.357143  0.428571  0.214286     24.000000
  0.500000  0.357143  0.214286     12.000000
 -0.357143  0.500000  0.214286     12.000000
  0.428571  0.428571  0.214286     24.000000
  0.500000  0.428571  0.214286     12.000000
 -0.428571  0.500000  0.214286     12.000000
  0.500000  0.500000  0.214286      6.000000
  0.285714  0.285714  0.285714      8.000000
  0.357143  0.285714  0.285714     24.000000
  0.428571  0.285714  0.285714     24.000000
  0.500000  0.285714  0.285714     12.000000
  0.357143  0.357143  0.285714     24.000000
  0.428571  0.357143  0.285714     24.000000
 -0.357143  0.428571  0.285714     24.000000
  0.500000  0.357143  0.285714     12.000000
 -0.357143  0.500000  0.285714     12.000000
  0.428571  0.428571  0.285714     24.000000
  0.500000  0.428571  0.285714     12.000000
 -0.428571  0.500000  0.285714     12.000000
  0.500000  0.500000  0.285714      6.000000
  0.357143  0.357143  0.357143      8.000000
  0.428571  0.357143  0.357143     24.000000
  0.500000  0.357143  0.357143     12.000000
  0.428571  0.428571  0.357143     24.000000
  0.500000  0.428571  0.357143     12.000000
 -0.428571  0.500000  0.357143     12.000000
  0.500000  0.500000  0.357143      6.000000
  0.428571  0.428571  0.428571      8.000000
  0.500000  0.428571  0.428571     12.000000
  0.500000  0.500000  0.428571      6.000000
  0.500000  0.500000  0.500000      1.000000
 
 Following cartesian coordinates:
            Coordinates               Weight
  0.000000  0.000000  0.000000      1.000000
  0.016074  0.000000  0.000000      6.000000
  0.032149  0.000000  0.000000      6.000000
  0.048223  0.000000  0.000000      6.000000
  0.064297  0.000000  0.000000      6.000000
  0.080372  0.000000  0.000000      6.000000
  0.096446  0.000000  0.000000      6.000000
  0.112520  0.000000  0.000000      3.000000
  0.016074  0.016074  0.000000     12.000000
  0.032149  0.016074  0.000000     12.000000
 -0.016074  0.032149  0.000000     12.000000
  0.048223  0.016074  0.000000     12.000000
 -0.016074  0.048223  0.000000     12.000000
  0.064297  0.016074  0.000000     12.000000
 -0.016074  0.064297  0.000000     12.000000
  0.080372  0.016074  0.000000     12.000000
 -0.016074  0.080372  0.000000     12.000000
  0.096446  0.016074  0.000000     12.000000
 -0.016074  0.096446  0.000000     12.000000
  0.112520  0.016074  0.000000      6.000000
 -0.016074  0.112520  0.000000      6.000000
  0.032149  0.032149  0.000000     12.000000
  0.048223  0.032149  0.000000     12.000000
 -0.032149  0.048223  0.000000     12.000000
  0.064297  0.032149  0.000000     12.000000
 -0.032149  0.064297  0.000000     12.000000
  0.080372  0.032149  0.000000     12.000000
 -0.032149  0.080372  0.000000     12.000000
  0.096446  0.032149  0.000000     12.000000
 -0.032149  0.096446  0.000000     12.000000
  0.112520  0.032149  0.000000      6.000000
 -0.032149  0.112520  0.000000      6.000000
  0.048223  0.048223  0.000000     12.000000
  0.064297  0.048223  0.000000     12.000000
 -0.048223  0.064297  0.000000     12.000000
  0.080372  0.048223  0.000000     12.000000
 -0.048223  0.080372  0.000000     12.000000
  0.096446  0.048223  0.000000     12.000000
 -0.048223  0.096446  0.000000     12.000000
  0.112520  0.048223  0.000000      6.000000
 -0.048223  0.112520  0.000000      6.000000
  0.064297  0.064297  0.000000     12.000000
  0.080372  0.064297  0.000000     12.000000
 -0.064297  0.080372  0.000000     12.000000
  0.096446  0.064297  0.000000     12.000000
 -0.064297  0.096446  0.000000     12.000000
  0.112520  0.064297  0.000000      6.000000
 -0.064297  0.112520  0.000000      6.000000
  0.080372  0.080372  0.000000     12.000000
  0.096446  0.080372  0.000000     12.000000
 -0.080372  0.096446  0.000000     12.000000
  0.112520  0.080372  0.000000      6.000000
 -0.080372  0.112520  0.000000      6.000000
  0.096446  0.096446  0.000000     12.000000
  0.112520  0.096446  0.000000      6.000000
 -0.096446  0.112520  0.000000      6.000000
  0.112520  0.112520  0.000000      3.000000
  0.016074  0.016074  0.016074      8.000000
  0.032149  0.016074  0.016074     24.000000
  0.048223  0.016074  0.016074     24.000000
  0.064297  0.016074  0.016074     24.000000
  0.080372  0.016074  0.016074     24.000000
  0.096446  0.016074  0.016074     24.000000
  0.112520  0.016074  0.016074     12.000000
  0.032149  0.032149  0.016074     24.000000
  0.048223  0.032149  0.016074     24.000000
 -0.032149  0.048223  0.016074     24.000000
  0.064297  0.032149  0.016074     24.000000
 -0.032149  0.064297  0.016074     24.000000
  0.080372  0.032149  0.016074     24.000000
 -0.032149  0.080372  0.016074     24.000000
  0.096446  0.032149  0.016074     24.000000
 -0.032149  0.096446  0.016074     24.000000
  0.112520  0.032149  0.016074     12.000000
 -0.032149  0.112520  0.016074     12.000000
  0.048223  0.048223  0.016074     24.000000
  0.064297  0.048223  0.016074     24.000000
 -0.048223  0.064297  0.016074     24.000000
  0.080372  0.048223  0.016074     24.000000
 -0.048223  0.080372  0.016074     24.000000
  0.096446  0.048223  0.016074     24.000000
 -0.048223  0.096446  0.016074     24.000000
  0.112520  0.048223  0.016074     12.000000
 -0.048223  0.112520  0.016074     12.000000
  0.064297  0.064297  0.016074     24.000000
  0.080372  0.064297  0.016074     24.000000
 -0.064297  0.080372  0.016074     24.000000
  0.096446  0.064297  0.016074     24.000000
 -0.064297  0.096446  0.016074     24.000000
  0.112520  0.064297  0.016074     12.000000
 -0.064297  0.112520  0.016074     12.000000
  0.080372  0.080372  0.016074     24.000000
  0.096446  0.080372  0.016074     24.000000
 -0.080372  0.096446  0.016074     24.000000
  0.112520  0.080372  0.016074     12.000000
 -0.080372  0.112520  0.016074     12.000000
  0.096446  0.096446  0.016074     24.000000
  0.112520  0.096446  0.016074     12.000000
 -0.096446  0.112520  0.016074     12.000000
  0.112520  0.112520  0.016074      6.000000
  0.032149  0.032149  0.032149      8.000000
  0.048223  0.032149  0.032149     24.000000
  0.064297  0.032149  0.032149     24.000000
  0.080372  0.032149  0.032149     24.000000
  0.096446  0.032149  0.032149     24.000000
  0.112520  0.032149  0.032149     12.000000
  0.048223  0.048223  0.032149     24.000000
  0.064297  0.048223  0.032149     24.000000
 -0.048223  0.064297  0.032149     24.000000
  0.080372  0.048223  0.032149     24.000000
 -0.048223  0.080372  0.032149     24.000000
  0.096446  0.048223  0.032149     24.000000
 -0.048223  0.096446  0.032149     24.000000
  0.112520  0.048223  0.032149     12.000000
 -0.048223  0.112520  0.032149     12.000000
  0.064297  0.064297  0.032149     24.000000
  0.080372  0.064297  0.032149     24.000000
 -0.064297  0.080372  0.032149     24.000000
  0.096446  0.064297  0.032149     24.000000
 -0.064297  0.096446  0.032149     24.000000
  0.112520  0.064297  0.032149     12.000000
 -0.064297  0.112520  0.032149     12.000000
  0.080372  0.080372  0.032149     24.000000
  0.096446  0.080372  0.032149     24.000000
 -0.080372  0.096446  0.032149     24.000000
  0.112520  0.080372  0.032149     12.000000
 -0.080372  0.112520  0.032149     12.000000
  0.096446  0.096446  0.032149     24.000000
  0.112520  0.096446  0.032149     12.000000
 -0.096446  0.112520  0.032149     12.000000
  0.112520  0.112520  0.032149      6.000000
  0.048223  0.048223  0.048223      8.000000
  0.064297  0.048223  0.048223     24.000000
  0.080372  0.048223  0.048223     24.000000
  0.096446  0.048223  0.048223     24.000000
  0.112520  0.048223  0.048223     12.000000
  0.064297  0.064297  0.048223     24.000000
  0.080372  0.064297  0.048223     24.000000
 -0.064297  0.080372  0.048223     24.000000
  0.096446  0.064297  0.048223     24.000000
 -0.064297  0.096446  0.048223     24.000000
  0.112520  0.064297  0.048223     12.000000
 -0.064297  0.112520  0.048223     12.000000
  0.080372  0.080372  0.048223     24.000000
  0.096446  0.080372  0.048223     24.000000
 -0.080372  0.096446  0.048223     24.000000
  0.112520  0.080372  0.048223     12.000000
 -0.080372  0.112520  0.048223     12.000000
  0.096446  0.096446  0.048223     24.000000
  0.112520  0.096446  0.048223     12.000000
 -0.096446  0.112520  0.048223     12.000000
  0.112520  0.112520  0.048223      6.000000
  0.064297  0.064297  0.064297      8.000000
  0.080372  0.064297  0.064297     24.000000
  0.096446  0.064297  0.064297     24.000000
  0.112520  0.064297  0.064297     12.000000
  0.080372  0.080372  0.064297     24.000000
  0.096446  0.080372  0.064297     24.000000
 -0.080372  0.096446  0.064297     24.000000
  0.112520  0.080372  0.064297     12.000000
 -0.080372  0.112520  0.064297     12.000000
  0.096446  0.096446  0.064297     24.000000
  0.112520  0.096446  0.064297     12.000000
 -0.096446  0.112520  0.064297     12.000000
  0.112520  0.112520  0.064297      6.000000
  0.080372  0.080372  0.080372      8.000000
  0.096446  0.080372  0.080372     24.000000
  0.112520  0.080372  0.080372     12.000000
  0.096446  0.096446  0.080372     24.000000
  0.112520  0.096446  0.080372     12.000000
 -0.096446  0.112520  0.080372     12.000000
  0.112520  0.112520  0.080372      6.000000
  0.096446  0.096446  0.096446      8.000000
  0.112520  0.096446  0.096446     12.000000
  0.112520  0.112520  0.096446      6.000000
  0.112520  0.112520  0.112520      1.000000
 


--------------------------------------------------------------------------------------------------------




 Dimension of arrays:
   k-points           NKPTS =    176   k-points in BZ     NKDIM =    176   number of bands    NBANDS=     10
   number of dos      NEDOS =    301   number of ions     NIONS =      4
   non local maximal  LDIM  =      3   non local SUM 2l+1 LMDIM =      5
   total plane-waves  NPLWV =  64000
   max r-space proj   IRMAX =   2947   max aug-charges    IRDMAX=   7918
   dimension x,y,z NGX =    40 NGY =   40 NGZ =   40
   dimension x,y,z NGXF=    80 NGYF=   80 NGZF=   80
   support grid    NGXF=    80 NGYF=   80 NGZF=   80
   ions per type =               4
   NGX,Y,Z   is equivalent  to a cutoff of  14.25, 14.25, 14.25 a.u.
   NGXF,Y,Z  is equivalent  to a cutoff of  28.50, 28.50, 28.50 a.u.

 SYSTEM =  unknown system                          
 POSCAR =  Li                                      

 Startparameter for this run:
   NWRITE =      2    write-flag & timer
   PREC   = accura    normal or accurate (medium, high low for compatibility)
   ISTART =      0    job   : 0-new  1-cont  2-samecut
   ICHARG =      2    charge: 1-file 2-atom 10-const
   ISPIN  =      1    spin polarized calculation?
   LNONCOLLINEAR =      F non collinear calculations
   LSORBIT =      F    spin-orbit coupling
   INIWAV =      1    electr: 0-lowe 1-rand  2-diag
   LASPH  =      F    aspherical Exc in radial PAW
 Electronic Relaxation 1
   ENCUT  =  600.0 eV  44.10 Ry    6.64 a.u.   9.32  9.32  9.32*2*pi/ulx,y,z
   ENINI  =  600.0     initial cutoff
   ENAUG  =  628.9 eV  augmentation charge cutoff
   NELM   =    120;   NELMIN=  2; NELMDL= -5     # of ELM steps 
   EDIFF  = 0.1E-05   stopping-criterion for ELM
   LREAL  =      T    real-space projection
   NLSPLINE    = F    spline interpolate recip. space projectors
   LCOMPAT=      F    compatible to vasp.4.4
   GGA_COMPAT  = T    GGA compatible to vasp.4.4-vasp.4.6
   LMAXPAW     = -100 max onsite density
   LMAXMIX     =    2 max onsite mixed and CHGCAR
   VOSKOWN=      0    Vosko Wilk Nusair interpolation
   ROPT   =   -0.00025
 Ionic relaxation
   EDIFFG = 0.1E-04   stopping-criterion for IOM
   NSW    =      1    number of steps for IOM
   NBLOCK =      1;   KBLOCK =      1    inner block; outer block 
   IBRION =     -1    ionic relax: 0-MD 1-quasi-New 2-CG
   NFREE  =      0    steps in history (QN), initial steepest desc. (CG)
   ISIF   =      2    stress and relaxation
   IWAVPR =     10    prediction:  0-non 1-charg 2-wave 3-comb
   ISYM   =      2    0-nonsym 1-usesym 2-fastsym
   LCORR  =      T    Harris-Foulkes like correction to forces

   POTIM  = 0.5000    time-step for ionic-motion
   TEIN   =    0.0    initial temperature
   TEBEG  =    0.0;   TEEND  =   0.0 temperature during run
   SMASS  =  -3.00    Nose mass-parameter (am)
   estimated Nose-frequenzy (Omega)   =  0.10E-29 period in steps = 0.13E+47 mass=  -0.497E-27a.u.
   SCALEE = 1.0000    scale energy and forces
   NPACO  =    256;   APACO  = 10.0  distance and # of slots for P.C.
   PSTRESS=    0.0 pullay stress

  Mass of Ions in am
   POMASS =   7.01
  Ionic Valenz
   ZVAL   =   3.00
  Atomic Wigner-Seitz radii
   RWIGS  =  -1.00
  virtual crystal weights 
   VCA    =   1.00
   NELECT =      12.0000    total number of electrons
   NUPDOWN=      -1.0000    fix difference up-down

 DOS related values:
   EMIN   =  10.00;   EMAX   =-10.00  energy-range for DOS
   EFERMI =   0.00;   METHOD = LEGACY      
   ISMEAR =     0;   SIGMA  =   0.02  broadening in eV -4-tet -1-fermi 0-gaus
   EFERMI_NEDOS =   21; number of points for ismear=-14 and -15

 Electronic relaxation 2 (details)
   IALGO  =     38    algorithm
   LDIAG  =      T    sub-space diagonalisation (order eigenvalues)
   LSUBROT=      F    optimize rotation matrix (better conditioning)
   LROBUST=      F    robust break criterion during scf (extrapolated energy error)
   ISEARCH=      0    line search for conjugate gradient (0, 1=use gradient)
   TURBO    =      0    0=normal 1=particle mesh
   IRESTART =      0    0=no restart 2=restart with 2 vectors
   NREBOOT  =      0    no. of reboots
   NMIN     =      0    reboot dimension
   EREF     =   0.00    reference energy to select bands
   IMIX   =      4    mixing-type and parameters
     AMIX     =   0.40;   BMIX     =  1.00
     AMIX_MAG =   1.60;   BMIX_MAG =  1.00
     AMIN     =   0.10
     WC   =   100.;   INIMIX=   1;  MIXPRE=   1;  MAXMIX= -45

 Intra band minimization:
   WEIMIN = 0.0000     energy-eigenvalue tresh-hold
   EBREAK =  0.25E-07  absolut break condition
   DEPER  =   0.30     relativ break condition  

   TIME   =   0.40     timestep for ELM

  volume/ion in A,a.u.               =      25.39       171.37
  Fermi-wavevector in a.u.,A,eV,Ry     =   0.803291  1.518000  8.779525  0.645277
  Thomas-Fermi vector in A             =   1.911131
 
 Write flags
   LWAVE        =      F    write WAVECAR
   LDOWNSAMPLE  =      F    k-point downsampling of WAVECAR
   LCHARG       =      F    write CHGCAR
   LVTOT        =      F    write LOCPOT, total local potential
   LVHAR        =      F    write LOCPOT, Hartree potential only
   WRT_POTENTIAL= false  ! write potential to hdf5 file
   LELF         =      F    write electronic localiz. function (ELF)
   LORBIT       =      0    0 simple, 1 ext, 2 COOP (PROOUT), +10 PAW based schemes


 Python interface
   PLUGINS active      =      F    recompile with -DPLUGINS to activate
 
 Dipole corrections
   LMONO      =      F    monopole corrections only (constant potential shift)
   LDIPOL     =      F    correct potential (dipole corrections)
   IDIPOL     =      0    1-x, 2-y, 3-z, 4-all directions 
   EPSILON    =  1.0000000 bulk dielectric constant
   LVACPOTAV  =      F  vacuum potentials using an averaging scheme for the charge density
   VACPOTFLAT =  0.1000000 required flatness to determine vacuum potential
 
Coulomb truncation method
  LTRUNCATE          =      F  Coulomb kernel truncation to be used

 
 Exchange correlation treatment:
   GGA     = PE    functional components
   XC_C    = 1    coefficients multiplying the functional components
   LIBXC   =     F    Libxc                    
   VOSKOWN =     0    Vosko Wilk Nusair interpolation
   LHFCALC =     F    Hartree Fock is set to
   LHFONE  =     F    Hartree Fock one center treatment
   AEXX    =    0.0000 exact exchange contribution

 Parameters of functionals:
   PE:
     No parameter
 
 Van der Waals corrections
   IVDW    =     0    specifies the selected vdW correction

 Linear response parameters
   LEPSILON=     F    determine dielectric tensor
   LRPA    =     F    only Hartree local field effects (RPA)
   LNABLA  =     F    use nabla operator in PAW spheres
   LVEL    =     F    velocity operator in full k-point grid
   CSHIFT  =0.1000    complex shift for real part using Kramers Kronig
   OMEGAMAX=  -1.0    maximum frequency
   DEG_THRESHOLD= 0.2000000E-02 threshold for treating states as degnerate
   RTIME   =   -0.100 relaxation time in fs
  (WPLASMAI=    0.000 imaginary part of plasma frequency in eV, 0.658/RTIME)
   DFIELD  = 0.0000000 0.0000000 0.0000000 field for delta impulse in time
 
  Optional k-point grid parameters
   LKPOINTS_OPT  =     F    use optional k-point grid
   KPOINTS_OPT_MODE=     1    mode for optional k-point grid
 
 Orbital magnetization related:
   ORBITALMAG=     F  switch on orbital magnetization
   LCHIMAG   =     F  perturbation theory with respect to B field
   DQ        =  0.001000  dq finite difference perturbation B field
   LLRAUG    =     F  two centre corrections for induced B field
   LBONE     =     F  B-component reconstruction in AE one-centre
   LVGVCALC  =     T  calculate vGv susceptibility
   LVGVAPPL  =     F  apply vGv susceptibility instead of pGv for G=0

 Random number generation:
   RANDOM_GENERATOR = DEFAULT
   PCG_SEED         = not used


--------------------------------------------------------------------------------------------------------


 Static calculation
 charge density and potential will be updated during run
 non-spin polarized calculation
 Variant of blocked Davidson
 Davidson routine will perform the subspace rotation
 perform sub-space diagonalisation
    after iterative eigenvector-optimisation
 modified Broyden-mixing scheme, WC =      100.0
 initial mixing is a Kerker type mixing with AMIX =  0.4000 and BMIX =      1.0000
 Hartree-type preconditioning will be used
 using additional bands             4
 real space projection scheme for non local part
 calculate Harris-corrections to forces 
   (improved forces if not selfconsistent)
 use gradient corrections 
 use of overlap-Matrix (Vanderbilt PP)
 Gauss-broadening in eV      SIGMA  =   0.02


--------------------------------------------------------------------------------------------------------


  energy-cutoff  :      600.00
  volume of cell :      101.57
      direct lattice vectors                 reciprocal lattice vectors
     4.665829396  0.000000000  0.000000000     0.214324167  0.000000000  0.000000000
     0.000000000  4.665829396  0.000000000     0.000000000  0.214324167  0.000000000
     0.000000000  0.000000000  4.665829396     0.000000000  0.000000000  0.214324167

  length of vectors
     4.665829396  4.665829396  4.665829396     0.214324167  0.214324167  0.214324167


 
 k-points in units of 2pi/SCALE and weight: read from INCAR                         
   0.00000000  0.00000000  0.00000000       0.000
   0.01607431  0.00000000  0.00000000       0.002
   0.03214863  0.00000000  0.00000000       0.002
   0.04822294  0.00000000  0.00000000       0.002
   0.06429725  0.00000000  0.00000000       0.002
   0.08037156  0.00000000  0.00000000       0.002
   0.09644588  0.00000000  0.00000000       0.002
   0.11252019  0.00000000  0.00000000       0.001
   0.01607431  0.01607431  0.00000000       0.004
   0.03214863  0.01607431  0.00000000       0.004
  -0.01607431  0.03214863  0.00000000       0.004
   0.04822294  0.01607431  0.00000000       0.004
  -0.01607431  0.04822294  0.00000000       0.004
   0.06429725  0.01607431  0.00000000       0.004
  -0.01607431  0.06429725  0.00000000       0.004
   0.08037156  0.01607431  0.00000000       0.004
  -0.01607431  0.08037156  0.00000000       0.004
   0.09644588  0.01607431  0.00000000       0.004
  -0.01607431  0.09644588  0.00000000       0.004
   0.11252019  0.01607431  0.00000000       0.002
  -0.01607431  0.11252019  0.00000000       0.002
   0.03214863  0.03214863  0.00000000       0.004
   0.04822294  0.03214863  0.00000000       0.004
  -0.03214863  0.04822294  0.00000000       0.004
   0.06429725  0.03214863  0.00000000       0.004
  -0.03214863  0.06429725  0.00000000       0.004
   0.08037156  0.03214863  0.00000000       0.004
  -0.03214863  0.08037156  0.00000000       0.004
   0.09644588  0.03214863  0.00000000       0.004
  -0.03214863  0.09644588  0.00000000       0.004
   0.11252019  0.03214863  0.00000000       0.002
  -0.03214863  0.11252019  0.00000000       0.002
   0.04822294  0.04822294  0.00000000       0.004
   0.06429725  0.04822294  0.00000000       0.004
  -0.04822294  0.06429725  0.00000000       0.004
   0.08037156  0.04822294  0.00000000       0.004
  -0.04822294  0.08037156  0.00000000       0.004
   0.09644588  0.04822294  0.00000000       0.004
  -0.04822294  0.09644588  0.00000000       0.004
   0.11252019  0.04822294  0.00000000       0.002
  -0.04822294  0.11252019  0.00000000       0.002
   0.06429725  0.06429725  0.00000000       0.004
   0.08037156  0.06429725  0.00000000       0.004
  -0.06429725  0.08037156  0.00000000       0.004
   0.09644588  0.06429725  0.00000000       0.004
  -0.06429725  0.09644588  0.00000000       0.004
   0.11252019  0.06429725  0.00000000       0.002
  -0.06429725  0.11252019  0.00000000       0.002
   0.08037156  0.08037156  0.00000000       0.004
   0.09644588  0.08037156  0.00000000       0.004
  -0.08037156  0.09644588  0.00000000       0.004
   0.11252019  0.08037156  0.00000000       0.002
  -0.08037156  0.11252019  0.00000000       0.002
   0.09644588  0.09644588  0.00000000       0.004
   0.11252019  0.09644588  0.00000000       0.002
  -0.09644588  0.11252019  0.00000000       0.002
   0.11252019  0.11252019  0.00000000       0.001
   0.01607431  0.01607431  0.01607431       0.003
   0.03214863  0.01607431  0.01607431       0.009
   0.04822294  0.01607431  0.01607431       0.009
   0.06429725  0.01607431  0.01607431       0.009
   0.08037156  0.01607431  0.01607431       0.009
   0.09644588  0.01607431  0.01607431       0.009
   0.11252019  0.01607431  0.01607431       0.004
   0.03214863  0.03214863  0.01607431       0.009
   0.04822294  0.03214863  0.01607431       0.009
  -0.03214863  0.04822294  0.01607431       0.009
   0.06429725  0.03214863  0.01607431       0.009
  -0.03214863  0.06429725  0.01607431       0.009
   0.08037156  0.03214863  0.01607431       0.009
  -0.03214863  0.08037156  0.01607431       0.009
   0.09644588  0.03214863  0.01607431       0.009
  -0.03214863  0.09644588  0.01607431       0.009
   0.11252019  0.03214863  0.01607431       0.004
  -0.03214863  0.11252019  0.01607431       0.004
   0.04822294  0.04822294  0.01607431       0.009
   0.06429725  0.04822294  0.01607431       0.009
  -0.04822294  0.06429725  0.01607431       0.009
   0.08037156  0.04822294  0.01607431       0.009
  -0.04822294  0.08037156  0.01607431       0.009
   0.09644588  0.04822294  0.01607431       0.009
  -0.04822294  0.09644588  0.01607431       0.009
   0.11252019  0.04822294  0.01607431       0.004
  -0.04822294  0.11252019  0.01607431       0.004
   0.06429725  0.06429725  0.01607431       0.009
   0.08037156  0.06429725  0.01607431       0.009
  -0.06429725  0.08037156  0.01607431       0.009
   0.09644588  0.06429725  0.01607431       0.009
  -0.06429725  0.09644588  0.01607431       0.009
   0.11252019  0.06429725  0.01607431       0.004
  -0.06429725  0.11252019  0.01607431       0.004
   0.08037156  0.08037156  0.01607431       0.009
   0.09644588  0.08037156  0.01607431       0.009
  -0.08037156  0.09644588  0.01607431       0.009
   0.11252019  0.08037156  0.01607431       0.004
  -0.08037156  0.11252019  0.01607431       0.004
   0.09644588  0.09644588  0.01607431       0.009
   0.11252019  0.09644588  0.01607431       0.004
  -0.09644588  0.11252019  0.01607431       0.004
   0.11252019  0.11252019  0.01607431       0.002
   0.03214863  0.03214863  0.03214863       0.003
   0.04822294  0.03214863  0.03214863       0.009
   0.06429725  0.03214863  0.03214863       0.009
   0.08037156  0.03214863  0.03214863       0.009
   0.09644588  0.03214863  0.03214863       0.009
   0.11252019  0.03214863  0.03214863       0.004
   0.04822294  0.04822294  0.03214863       0.009
   0.06429725  0.04822294  0.03214863       0.009
  -0.04822294  0.06429725  0.03214863       0.009
   0.08037156  0.04822294  0.03214863       0.009
  -0.04822294  0.08037156  0.03214863       0.009
   0.09644588  0.04822294  0.03214863       0.009
  -0.04822294  0.09644588  0.03214863       0.009
   0.11252019  0.04822294  0.03214863       0.004
  -0.04822294  0.11252019  0.03214863       0.004
   0.06429725  0.06429725  0.03214863       0.009
   0.08037156  0.06429725  0.03214863       0.009
  -0.06429725  0.08037156  0.03214863       0.009
   0.09644588  0.06429725  0.03214863       0.009
  -0.06429725  0.09644588  0.03214863       0.009
   0.11252019  0.06429725  0.03214863       0.004
  -0.06429725  0.11252019  0.03214863       0.004
   0.08037156  0.08037156  0.03214863       0.009
   0.09644588  0.08037156  0.03214863       0.009
  -0.08037156  0.09644588  0.03214863       0.009
   0.11252019  0.08037156  0.03214863       0.004
  -0.08037156  0.11252019  0.03214863       0.004
   0.09644588  0.09644588  0.03214863       0.009
   0.11252019  0.09644588  0.03214863       0.004
  -0.09644588  0.11252019  0.03214863       0.004
   0.11252019  0.11252019  0.03214863       0.002
   0.04822294  0.04822294  0.04822294       0.003
   0.06429725  0.04822294  0.04822294       0.009
   0.08037156  0.04822294  0.04822294       0.009
   0.09644588  0.04822294  0.04822294       0.009
   0.11252019  0.04822294  0.04822294       0.004
   0.06429725  0.06429725  0.04822294       0.009
   0.08037156  0.06429725  0.04822294       0.009
  -0.06429725  0.08037156  0.04822294       0.009
   0.09644588  0.06429725  0.04822294       0.009
  -0.06429725  0.09644588  0.04822294       0.009
   0.11252019  0.06429725  0.04822294       0.004
  -0.06429725  0.11252019  0.04822294       0.004
   0.08037156  0.08037156  0.04822294       0.009
   0.09644588  0.08037156  0.04822294       0.009
  -0.08037156  0.09644588  0.04822294       0.009
   0.11252019  0.08037156  0.04822294       0.004
  -0.08037156  0.11252019  0.04822294       0.004
   0.09644588  0.09644588  0.04822294       0.009
   0.11252019  0.09644588  0.04822294       0.004
  -0.09644588  0.11252019  0.04822294       0.004
   0.11252019  0.11252019  0.04822294       0.002
   0.06429725  0.06429725  0.06429725       0.003
   0.08037156  0.06429725  0.06429725       0.009
   0.09644588  0.06429725  0.06429725       0.009
   0.11252019  0.06429725  0.06429725       0.004
   0.08037156  0.08037156  0.06429725       0.009
   0.09644588  0.08037156  0.06429725       0.009
  -0.08037156  0.09644588  0.06429725       0.009
   0.11252019  0.08037156  0.06429725       0.004
  -0.08037156  0.11252019  0.06429725       0.004
   0.09644588  0.09644588  0.06429725       0.009
   0.11252019  0.09644588  0.06429725       0.004
  -0.09644588  0.11252019  0.06429725       0.004
   0.11252019  0.11252019  0.06429725       0.002
   0.08037156  0.08037156  0.08037156       0.003
   0.09644588  0.08037156  0.08037156       0.009
   0.11252019  0.08037156  0.08037156       0.004
   0.09644588  0.09644588  0.08037156       0.009
   0.11252019  0.09644588  0.08037156       0.004
  -0.09644588  0.11252019  0.08037156       0.004
   0.11252019  0.11252019  0.08037156       0.002
   0.09644588  0.09644588  0.09644588       0.003
   0.11252019  0.09644588  0.09644588       0.004
   0.11252019  0.11252019  0.09644588       0.002
   0.11252019  0.11252019  0.11252019       0.000
 
 k-points in reciprocal lattice and weights: read from INCAR                         
   0.00000000  0.00000000  0.00000000       0.000
   0.07142857  0.00000000  0.00000000       0.002
   0.14285714  0.00000000  0.00000000       0.002
   0.21428571  0.00000000  0.00000000       0.002
   0.28571429  0.00000000  0.00000000       0.002
   0.35714286  0.00000000  0.00000000       0.002
   0.42857143  0.00000000  0.00000000       0.002
   0.50000000  0.00000000  0.00000000       0.001
   0.07142857  0.07142857  0.00000000       0.004
   0.14285714  0.07142857  0.00000000       0.004
  -0.07142857  0.14285714  0.00000000       0.004
   0.21428571  0.07142857  0.00000000       0.004
  -0.07142857  0.21428571  0.00000000       0.004
   0.28571429  0.07142857  0.00000000       0.004
  -0.07142857  0.28571429  0.00000000       0.004
   0.35714286  0.07142857  0.00000000       0.004
  -0.07142857  0.35714286  0.00000000       0.004
   0.42857143  0.07142857  0.00000000       0.004
  -0.07142857  0.42857143  0.00000000       0.004
   0.50000000  0.07142857  0.00000000       0.002
  -0.07142857  0.50000000  0.00000000       0.002
   0.14285714  0.14285714  0.00000000       0.004
   0.21428571  0.14285714  0.00000000       0.004
  -0.14285714  0.21428571  0.00000000       0.004
   0.28571429  0.14285714  0.00000000       0.004
  -0.14285714  0.28571429  0.00000000       0.004
   0.35714286  0.14285714  0.00000000       0.004
  -0.14285714  0.35714286  0.00000000       0.004
   0.42857143  0.14285714  0.00000000       0.004
  -0.14285714  0.42857143  0.00000000       0.004
   0.50000000  0.14285714  0.00000000       0.002
  -0.14285714  0.50000000  0.00000000       0.002
   0.21428571  0.21428571  0.00000000       0.004
   0.28571429  0.21428571  0.00000000       0.004
  -0.21428571  0.28571429  0.00000000       0.004
   0.35714286  0.21428571  0.00000000       0.004
  -0.21428571  0.35714286  0.00000000       0.004
   0.42857143  0.21428571  0.00000000       0.004
  -0.21428571  0.42857143  0.00000000       0.004
   0.50000000  0.21428571  0.00000000       0.002
  -0.21428571  0.50000000  0.00000000       0.002
   0.28571429  0.28571429  0.00000000       0.004
   0.35714286  0.28571429  0.00000000       0.004
  -0.28571429  0.35714286  0.00000000       0.004
   0.42857143  0.28571429  0.00000000       0.004
  -0.28571429  0.42857143  0.00000000       0.004
   0.50000000  0.28571429  0.00000000       0.002
  -0.28571429  0.50000000  0.00000000       0.002
   0.35714286  0.35714286  0.00000000       0.004
   0.42857143  0.35714286  0.00000000       0.004
  -0.35714286  0.42857143  0.00000000       0.004
   0.50000000  0.35714286  0.00000000       0.002
  -0.35714286  0.50000000  0.00000000       0.002
   0.42857143  0.42857143  0.00000000       0.004
   0.50000000  0.42857143  0.00000000       0.002
  -0.42857143  0.50000000  0.00000000       0.002
   0.50000000  0.50000000  0.00000000       0.001
   0.07142857  0.07142857  0.07142857       0.003
   0.14285714  0.07142857  0.07142857       0.009
   0.21428571  0.07142857  0.07142857       0.009
   0.28571429  0.07142857  0.07142857       0.009
   0.35714286  0.07142857  0.07142857       0.009
   0.42857143  0.07142857  0.07142857       0.009
   0.50000000  0.07142857  0.07142857       0.004
   0.14285714  0.14285714  0.07142857       0.009
   0.21428571  0.14285714  0.07142857       0.009
  -0.14285714  0.21428571  0.07142857       0.009
   0.28571429  0.14285714  0.07142857       0.009
  -0.14285714  0.28571429  0.07142857       0.009
   0.35714286  0.14285714  0.07142857       0.009
  -0.14285714  0.35714286  0.07142857       0.009
   0.42857143  0.14285714  0.07142857       0.009
  -0.14285714  0.42857143  0.07142857       0.009
   0.50000000  0.14285714  0.07142857       0.004
  -0.14285714  0.50000000  0.07142857       0.004
   0.21428571  0.21428571  0.07142857       0.009
   0.28571429  0.21428571  0.07142857       0.009
  -0.21428571  0.28571429  0.07142857       0.009
   0.35714286  0.21428571  0.07142857       0.009
  -0.21428571  0.35714286  0.07142857       0.009
   0.42857143  0.21428571  0.07142857       0.009
  -0.21428571  0.42857143  0.07142857       0.009
   0.50000000  0.21428571  0.07142857       0.004
  -0.21428571  0.50000000  0.07142857       0.004
   0.28571429  0.28571429  0.07142857       0.009
   0.35714286  0.28571429  0.07142857       0.009
  -0.28571429  0.35714286  0.07142857       0.009
   0.42857143  0.28571429  0.07142857       0.009
  -0.28571429  0.42857143  0.07142857       0.009
   0.50000000  0.28571429  0.07142857       0.004
  -0.28571429  0.50000000  0.07142857       0.004
   0.35714286  0.35714286  0.07142857       0.009
   0.42857143  0.35714286  0.07142857       0.009
  -0.35714286  0.42857143  0.07142857       0.009
   0.50000000  0.35714286  0.07142857       0.004
  -0.35714286  0.50000000  0.07142857       0.004
   0.42857143  0.42857143  0.07142857       0.009
   0.50000000  0.42857143  0.07142857       0.004
  -0.42857143  0.50000000  0.07142857       0.004
   0.50000000  0.50000000  0.07142857       0.002
   0.14285714  0.14285714  0.14285714       0.003
   0.21428571  0.14285714  0.14285714       0.009
   0.28571429  0.14285714  0.14285714       0.009
   0.35714286  0.14285714  0.14285714       0.009
   0.42857143  0.14285714  0.14285714       0.009
   0.50000000  0.14285714  0.14285714       0.004
   0.21428571  0.21428571  0.14285714       0.009
   0.28571429  0.21428571  0.14285714       0.009
  -0.21428571  0.28571429  0.14285714       0.009
   0.35714286  0.21428571  0.14285714       0.009
  -0.21428571  0.35714286  0.14285714       0.009
   0.42857143  0.21428571  0.14285714       0.009
  -0.21428571  0.42857143  0.14285714       0.009
   0.50000000  0.21428571  0.14285714       0.004
  -0.21428571  0.50000000  0.14285714       0.004
   0.28571429  0.28571429  0.14285714       0.009
   0.35714286  0.28571429  0.14285714       0.009
  -0.28571429  0.35714286  0.14285714       0.009
   0.42857143  0.28571429  0.14285714       0.009
  -0.28571429  0.42857143  0.14285714       0.009
   0.50000000  0.28571429  0.14285714       0.004
  -0.28571429  0.50000000  0.14285714       0.004
   0.35714286  0.35714286  0.14285714       0.009
   0.42857143  0.35714286  0.14285714       0.009
  -0.35714286  0.42857143  0.14285714       0.009
   0.50000000  0.35714286  0.14285714       0.004
  -0.35714286  0.50000000  0.14285714       0.004
   0.42857143  0.42857143  0.14285714       0.009
   0.50000000  0.42857143  0.14285714       0.004
  -0.42857143  0.50000000  0.14285714       0.004
   0.50000000  0.50000000  0.14285714       0.002
   0.21428571  0.21428571  0.21428571       0.003
   0.28571429  0.21428571  0.21428571       0.009
   0.35714286  0.21428571  0.21428571       0.009
   0.42857143  0.21428571  0.21428571       0.009
   0.50000000  0.21428571  0.21428571       0.004
   0.28571429  0.28571429  0.21428571       0.009
   0.35714286  0.28571429  0.21428571       0.009
  -0.28571429  0.35714286  0.21428571       0.009
   0.42857143  0.28571429  0.21428571       0.009
  -0.28571429  0.42857143  0.21428571       0.009
   0.50000000  0.28571429  0.21428571       0.004
  -0.28571429  0.50000000  0.21428571       0.004
   0.35714286  0.35714286  0.21428571       0.009
   0.42857143  0.35714286  0.21428571       0.009
  -0.35714286  0.42857143  0.21428571       0.009
   0.50000000  0.35714286  0.21428571       0.004
  -0.35714286  0.50000000  0.21428571       0.004
   0.42857143  0.42857143  0.21428571       0.009
   0.50000000  0.42857143  0.21428571       0.004
  -0.42857143  0.50000000  0.21428571       0.004
   0.50000000  0.50000000  0.21428571       0.002
   0.28571429  0.28571429  0.28571429       0.003
   0.35714286  0.28571429  0.28571429       0.009
   0.42857143  0.28571429  0.28571429       0.009
   0.50000000  0.28571429  0.28571429       0.004
   0.35714286  0.35714286  0.28571429       0.009
   0.42857143  0.35714286  0.28571429       0.009
  -0.35714286  0.42857143  0.28571429       0.009
   0.50000000  0.35714286  0.28571429       0.004
  -0.35714286  0.50000000  0.28571429       0.004
   0.42857143  0.42857143  0.28571429       0.009
   0.50000000  0.42857143  0.28571429       0.004
  -0.42857143  0.50000000  0.28571429       0.004
   0.50000000  0.50000000  0.28571429       0.002
   0.35714286  0.35714286  0.35714286       0.003
   0.42857143  0.35714286  0.35714286       0.009
   0.50000000  0.35714286  0.35714286       0.004
   0.42857143  0.42857143  0.35714286       0.009
   0.50000000  0.42857143  0.35714286       0.004
  -0.42857143  0.50000000  0.35714286       0.004
   0.50000000  0.50000000  0.35714286       0.002
   0.42857143  0.42857143  0.42857143       0.003
   0.50000000  0.42857143  0.42857143       0.004
   0.50000000  0.50000000  0.42857143       0.002
   0.50000000  0.50000000  0.50000000       0.000
 
 position of ions in fractional coordinates (direct lattice) 
   0.87446955  0.12553045  0.62553045
   0.37446955  0.37446955  0.37446955
   0.12553045  0.62553045  0.87446955
   0.62553045  0.87446955  0.12553045
 
 position of ions in cartesian coordinates  (Angst):
   4.08012574  0.58570365  2.91861835
   1.74721104  1.74721104  1.74721104
   0.58570365  2.91861835  4.08012574
   2.91861835  4.08012574  0.58570365
 


--------------------------------------------------------------------------------------------------------


 k-point     1 :   0.0000 0.0000 0.0000  plane waves:    3407
 k-point     2 :   0.0714 0.0000 0.0000  plane waves:    3379
 k-point     3 :   0.1429 0.0000 0.0000  plane waves:    3387
 k-point     4 :   0.2143 0.0000 0.0000  plane waves:    3395
 k-point     5 :   0.2857 0.0000 0.0000  plane waves:    3411
 k-point     6 :   0.3571 0.0000 0.0000  plane waves:    3390
 k-point     7 :   0.4286 0.0000 0.0000  plane waves:    3402
 k-point     8 :   0.5000 0.0000 0.0000  plane waves:    3394
 k-point     9 :   0.0714 0.0714 0.0000  plane waves:    3373
 k-point    10 :   0.1429 0.0714 0.0000  plane waves:    3382
 k-point    11 :  -0.0714 0.1429 0.0000  plane waves:    3382
 k-point    12 :   0.2143 0.0714 0.0000  plane waves:    3396
 k-point    13 :  -0.0714 0.2143 0.0000  plane waves:    3396
 k-point    14 :   0.2857 0.0714 0.0000  plane waves:    3411
 k-point    15 :  -0.0714 0.2857 0.0000  plane waves:    3411
 k-point    16 :   0.3571 0.0714 0.0000  plane waves:    3410
 k-point    17 :  -0.0714 0.3571 0.0000  plane waves:    3410
 k-point    18 :   0.4286 0.0714 0.0000  plane waves:    3405
 k-point    19 :  -0.0714 0.4286 0.0000  plane waves:    3405
 k-point    20 :   0.5000 0.0714 0.0000  plane waves:    3404
 k-point    21 :  -0.0714 0.5000 0.0000  plane waves:    3404
 k-point    22 :   0.1429 0.1429 0.0000  plane waves:    3385
 k-point    23 :   0.2143 0.1429 0.0000  plane waves:    3396
 k-point    24 :  -0.1429 0.2143 0.0000  plane waves:    3396
 k-point    25 :   0.2857 0.1429 0.0000  plane waves:    3397
 k-point    26 :  -0.1429 0.2857 0.0000  plane waves:    3397
 k-point    27 :   0.3571 0.1429 0.0000  plane waves:    3384
 k-point    28 :  -0.1429 0.3571 0.0000  plane waves:    3384
 k-point    29 :   0.4286 0.1429 0.0000  plane waves:    3380
 k-point    30 :  -0.1429 0.4286 0.0000  plane waves:    3380
 k-point    31 :   0.5000 0.1429 0.0000  plane waves:    3388
 k-point    32 :  -0.1429 0.5000 0.0000  plane waves:    3388
 k-point    33 :   0.2143 0.2143 0.0000  plane waves:    3401
 k-point    34 :   0.2857 0.2143 0.0000  plane waves:    3383
 k-point    35 :  -0.2143 0.2857 0.0000  plane waves:    3383
 k-point    36 :   0.3571 0.2143 0.0000  plane waves:    3388
 k-point    37 :  -0.2143 0.3571 0.0000  plane waves:    3388
 k-point    38 :   0.4286 0.2143 0.0000  plane waves:    3383
 k-point    39 :  -0.2143 0.4286 0.0000  plane waves:    3383
 k-point    40 :   0.5000 0.2143 0.0000  plane waves:    3386
 k-point    41 :  -0.2143 0.5000 0.0000  plane waves:    3386
 k-point    42 :   0.2857 0.2857 0.0000  plane waves:    3397
 k-point    43 :   0.3571 0.2857 0.0000  plane waves:    3397
 k-point    44 :  -0.2857 0.3571 0.0000  plane waves:    3397
 k-point    45 :   0.4286 0.2857 0.0000  plane waves:    3384
 k-point    46 :  -0.2857 0.4286 0.0000  plane waves:    3384
 k-point    47 :   0.5000 0.2857 0.0000  plane waves:    3382
 k-point    48 :  -0.2857 0.5000 0.0000  plane waves:    3382
 k-point    49 :   0.3571 0.3571 0.0000  plane waves:    3393
 k-point    50 :   0.4286 0.3571 0.0000  plane waves:    3388
 k-point    51 :  -0.3571 0.4286 0.0000  plane waves:    3388
 k-point    52 :   0.5000 0.3571 0.0000  plane waves:    3398
 k-point    53 :  -0.3571 0.5000 0.0000  plane waves:    3398
 k-point    54 :   0.4286 0.4286 0.0000  plane waves:    3396
 k-point    55 :   0.5000 0.4286 0.0000  plane waves:    3392
 k-point    56 :  -0.4286 0.5000 0.0000  plane waves:    3392
 k-point    57 :   0.5000 0.5000 0.0000  plane waves:    3388
 k-point    58 :   0.0714 0.0714 0.0714  plane waves:    3359
 k-point    59 :   0.1429 0.0714 0.0714  plane waves:    3380
 k-point    60 :   0.2143 0.0714 0.0714  plane waves:    3397
 k-point    61 :   0.2857 0.0714 0.0714  plane waves:    3403
 k-point    62 :   0.3571 0.0714 0.0714  plane waves:    3396
 k-point    63 :   0.4286 0.0714 0.0714  plane waves:    3399
 k-point    64 :   0.5000 0.0714 0.0714  plane waves:    3418
 k-point    65 :   0.1429 0.1429 0.0714  plane waves:    3386
 k-point    66 :   0.2143 0.1429 0.0714  plane waves:    3392
 k-point    67 :  -0.1429 0.2143 0.0714  plane waves:    3392
 k-point    68 :   0.2857 0.1429 0.0714  plane waves:    3392
 k-point    69 :  -0.1429 0.2857 0.0714  plane waves:    3392
 k-point    70 :   0.3571 0.1429 0.0714  plane waves:    3394
 k-point    71 :  -0.1429 0.3571 0.0714  plane waves:    3394
 k-point    72 :   0.4286 0.1429 0.0714  plane waves:    3398
 k-point    73 :  -0.1429 0.4286 0.0714  plane waves:    3398
 k-point    74 :   0.5000 0.1429 0.0714  plane waves:    3402
 k-point    75 :  -0.1429 0.5000 0.0714  plane waves:    3402
 k-point    76 :   0.2143 0.2143 0.0714  plane waves:    3396
 k-point    77 :   0.2857 0.2143 0.0714  plane waves:    3392
 k-point    78 :  -0.2143 0.2857 0.0714  plane waves:    3392
 k-point    79 :   0.3571 0.2143 0.0714  plane waves:    3397
 k-point    80 :  -0.2143 0.3571 0.0714  plane waves:    3397
 k-point    81 :   0.4286 0.2143 0.0714  plane waves:    3390
 k-point    82 :  -0.2143 0.4286 0.0714  plane waves:    3390
 k-point    83 :   0.5000 0.2143 0.0714  plane waves:    3382
 k-point    84 :  -0.2143 0.5000 0.0714  plane waves:    3382
 k-point    85 :   0.2857 0.2857 0.0714  plane waves:    3384
 k-point    86 :   0.3571 0.2857 0.0714  plane waves:    3388
 k-point    87 :  -0.2857 0.3571 0.0714  plane waves:    3388
 k-point    88 :   0.4286 0.2857 0.0714  plane waves:    3383
 k-point    89 :  -0.2857 0.4286 0.0714  plane waves:    3383
 k-point    90 :   0.5000 0.2857 0.0714  plane waves:    3384
 k-point    91 :  -0.2857 0.5000 0.0714  plane waves:    3384
 k-point    92 :   0.3571 0.3571 0.0714  plane waves:    3400
 k-point    93 :   0.4286 0.3571 0.0714  plane waves:    3391
 k-point    94 :  -0.3571 0.4286 0.0714  plane waves:    3391
 k-point    95 :   0.5000 0.3571 0.0714  plane waves:    3388
 k-point    96 :  -0.3571 0.5000 0.0714  plane waves:    3388
 k-point    97 :   0.4286 0.4286 0.0714  plane waves:    3398
 k-point    98 :   0.5000 0.4286 0.0714  plane waves:    3390
 k-point    99 :  -0.4286 0.5000 0.0714  plane waves:    3390
 k-point   100 :   0.5000 0.5000 0.0714  plane waves:    3396
 k-point   101 :   0.1429 0.1429 0.1429  plane waves:    3392
 k-point   102 :   0.2143 0.1429 0.1429  plane waves:    3398
 k-point   103 :   0.2857 0.1429 0.1429  plane waves:    3391
 k-point   104 :   0.3571 0.1429 0.1429  plane waves:    3397
 k-point   105 :   0.4286 0.1429 0.1429  plane waves:    3393
 k-point   106 :   0.5000 0.1429 0.1429  plane waves:    3390
 k-point   107 :   0.2143 0.2143 0.1429  plane waves:    3396
 k-point   108 :   0.2857 0.2143 0.1429  plane waves:    3384
 k-point   109 :  -0.2143 0.2857 0.1429  plane waves:    3384
 k-point   110 :   0.3571 0.2143 0.1429  plane waves:    3391
 k-point   111 :  -0.2143 0.3571 0.1429  plane waves:    3391
 k-point   112 :   0.4286 0.2143 0.1429  plane waves:    3398
 k-point   113 :  -0.2143 0.4286 0.1429  plane waves:    3398
 k-point   114 :   0.5000 0.2143 0.1429  plane waves:    3386
 k-point   115 :  -0.2143 0.5000 0.1429  plane waves:    3386
 k-point   116 :   0.2857 0.2857 0.1429  plane waves:    3385
 k-point   117 :   0.3571 0.2857 0.1429  plane waves:    3395
 k-point   118 :  -0.2857 0.3571 0.1429  plane waves:    3395
 k-point   119 :   0.4286 0.2857 0.1429  plane waves:    3399
 k-point   120 :  -0.2857 0.4286 0.1429  plane waves:    3399
 k-point   121 :   0.5000 0.2857 0.1429  plane waves:    3396
 k-point   122 :  -0.2857 0.5000 0.1429  plane waves:    3396
 k-point   123 :   0.3571 0.3571 0.1429  plane waves:    3391
 k-point   124 :   0.4286 0.3571 0.1429  plane waves:    3388
 k-point   125 :  -0.3571 0.4286 0.1429  plane waves:    3388
 k-point   126 :   0.5000 0.3571 0.1429  plane waves:    3388
 k-point   127 :  -0.3571 0.5000 0.1429  plane waves:    3388
 k-point   128 :   0.4286 0.4286 0.1429  plane waves:    3390
 k-point   129 :   0.5000 0.4286 0.1429  plane waves:    3390
 k-point   130 :  -0.4286 0.5000 0.1429  plane waves:    3390
 k-point   131 :   0.5000 0.5000 0.1429  plane waves:    3392
 k-point   132 :   0.2143 0.2143 0.2143  plane waves:    3398
 k-point   133 :   0.2857 0.2143 0.2143  plane waves:    3388
 k-point   134 :   0.3571 0.2143 0.2143  plane waves:    3392
 k-point   135 :   0.4286 0.2143 0.2143  plane waves:    3386
 k-point   136 :   0.5000 0.2143 0.2143  plane waves:    3386
 k-point   137 :   0.2857 0.2857 0.2143  plane waves:    3396
 k-point   138 :   0.3571 0.2857 0.2143  plane waves:    3388
 k-point   139 :  -0.2857 0.3571 0.2143  plane waves:    3388
 k-point   140 :   0.4286 0.2857 0.2143  plane waves:    3390
 k-point   141 :  -0.2857 0.4286 0.2143  plane waves:    3390
 k-point   142 :   0.5000 0.2857 0.2143  plane waves:    3392
 k-point   143 :  -0.2857 0.5000 0.2143  plane waves:    3392
 k-point   144 :   0.3571 0.3571 0.2143  plane waves:    3378
 k-point   145 :   0.4286 0.3571 0.2143  plane waves:    3384
 k-point   146 :  -0.3571 0.4286 0.2143  plane waves:    3384
 k-point   147 :   0.5000 0.3571 0.2143  plane waves:    3382
 k-point   148 :  -0.3571 0.5000 0.2143  plane waves:    3382
 k-point   149 :   0.4286 0.4286 0.2143  plane waves:    3373
 k-point   150 :   0.5000 0.4286 0.2143  plane waves:    3386
 k-point   151 :  -0.4286 0.5000 0.2143  plane waves:    3386
 k-point   152 :   0.5000 0.5000 0.2143  plane waves:    3396
 k-point   153 :   0.2857 0.2857 0.2857  plane waves:    3392
 k-point   154 :   0.3571 0.2857 0.2857  plane waves:    3378
 k-point   155 :   0.4286 0.2857 0.2857  plane waves:    3369
 k-point   156 :   0.5000 0.2857 0.2857  plane waves:    3370
 k-point   157 :   0.3571 0.3571 0.2857  plane waves:    3376
 k-point   158 :   0.4286 0.3571 0.2857  plane waves:    3378
 k-point   159 :  -0.3571 0.4286 0.2857  plane waves:    3378
 k-point   160 :   0.5000 0.3571 0.2857  plane waves:    3378
 k-point   161 :  -0.3571 0.5000 0.2857  plane waves:    3378
 k-point   162 :   0.4286 0.4286 0.2857  plane waves:    3385
 k-point   163 :   0.5000 0.4286 0.2857  plane waves:    3390
 k-point   164 :  -0.4286 0.5000 0.2857  plane waves:    3390
 k-point   165 :   0.5000 0.5000 0.2857  plane waves:    3380
 k-point   166 :   0.3571 0.3571 0.3571  plane waves:    3374
 k-point   167 :   0.4286 0.3571 0.3571  plane waves:    3374
 k-point   168 :   0.5000 0.3571 0.3571  plane waves:    3384
 k-point   169 :   0.4286 0.4286 0.3571  plane waves:    3385
 k-point   170 :   0.5000 0.4286 0.3571  plane waves:    3380
 k-point   171 :  -0.4286 0.5000 0.3571  plane waves:    3380
 k-point   172 :   0.5000 0.5000 0.3571  plane waves:    3392
 k-point   173 :   0.4286 0.4286 0.4286  plane waves:    3394
 k-point   174 :   0.5000 0.4286 0.4286  plane waves:    3390
 k-point   175 :   0.5000 0.5000 0.4286  plane waves:    3396
 k-point   176 :   0.5000 0.5000 0.5000  plane waves:    3448

 maximum and minimum number of plane-waves per node :      3448     3359

 maximum number of plane-waves:      3448
 maximum index in each direction: 
   IXMAX=    9   IYMAX=    9   IZMAX=    9
   IXMIN=   -9   IYMIN=   -9   IZMIN=   -9


 serial   3D FFT for wavefunctions
 parallel 3D FFT for charge:
    minimum data exchange during FFTs selected (reduces bandwidth)


 total amount of memory used by VASP MPI-rank0   173791. kBytes
=======================================================================

   base                                    :      30000. kBytes
   nonlr-proj                              :        694. kBytes
   fftplans                                :      17864. kBytes
   grid                                    :      27571. kBytes
   one-center                              :          4. kBytes
   wavefun                                 :      97658. kBytes
 
     INWAV:  cpu time      0.0000: real time      0.0000
 Broyden mixing: mesh for mixing (old mesh)
   NGX = 19   NGY = 19   NGZ = 19
  (NGX  = 80   NGY  = 80   NGZ  = 80)
  gives a total of   6859 points

 initial charge density was supplied:
 charge density of overlapping atoms calculated
 number of electron      12.0000000 magnetization 
 keeping initial charge density in first step


--------------------------------------------------------------------------------------------------------


 Maximum index for non-local projection operator          2819
 Maximum index for augmentation-charges          7457 (set IRDMAX)


--------------------------------------------------------------------------------------------------------


 First call to EWALD:  gamma=   0.380
 Maximum number of real-space cells   3x   3x   3
 Maximum number of reciprocal cells   3x   3x   3

    FEWALD:  cpu time      0.0015: real time      0.0015


--------------------------------------- Ionic step        1  -------------------------------------------




--------------------------------------- Iteration      1(   1)  ---------------------------------------


    POTLOK:  cpu time      0.0209: real time      0.0209
    SETDIJ:  cpu time      0.0028: real time      0.0028
     EDDAV:  cpu time      1.8867: real time      1.8927
       DOS:  cpu time      0.0006: real time      0.0006
    --------------------------------------------
      LOOP:  cpu time      1.9110: real time      1.9171

 eigenvalue-minimisations  :  3520
 total energy-change (2. order) : 0.3155879E+02  (-0.6665351E+03)
 number of electron      12.0000000 magnetization 
 augmentation part       12.0000000 magnetization 

 Free energy of the ion-electron system (eV)
  ---------------------------------------------------
  alpha Z        PSCENC =         3.62607141
  Ewald energy   TEWEN  =      -246.05781527
  -Hartree energ DENC   =      -181.64149928
  -exchange      EXHF   =         0.00000000
  -V(xc)+E(xc)   XCENC  =        47.98123970
  PAW double counting   =       319.04650337     -380.66826624
  entropy T*S    EENTRO =        -0.00023156
  eigenvalues    EBANDS =      -341.83022170
  atomic energy  EATOM  =       811.10301397
  Solvation  Ediel_sol  =         0.00000000
  ---------------------------------------------------
  free energy    TOTEN  =        31.55879440 eV

  energy without entropy =       31.55902596  energy(sigma->0) =       31.55891018


--------------------------------------------------------------------------------------------------------




--------------------------------------- Iteration      1(   2)  ---------------------------------------


     EDDAV:  cpu time      1.8463: real time      1.8518
       DOS:  cpu time      0.0007: real time      0.0007
    --------------------------------------------
      LOOP:  cpu time      1.8469: real time      1.8525

 eigenvalue-minimisations  :  3662
 total energy-change (2. order) :-0.2596330E+02  (-0.2552452E+02)
 number of electron      12.0000000 magnetization 
 augmentation part       12.0000000 magnetization 

 Free energy of the ion-electron system (eV)
  ---------------------------------------------------
  alpha Z        PSCENC =         3.62607141
  Ewald energy   TEWEN  =      -246.05781527
  -Hartree energ DENC   =      -181.64149928
  -exchange      EXHF   =         0.00000000
  -V(xc)+E(xc)   XCENC  =        47.98123970
  PAW double counting   =       319.04650337     -380.66826624
  entropy T*S    EENTRO =        -0.00029927
  eigenvalues    EBANDS =      -367.79344902
  atomic energy  EATOM  =       811.10301397
  Solvation  Ediel_sol  =         0.00000000
  ---------------------------------------------------
  free energy    TOTEN  =         5.59549936 eV

  energy without entropy =        5.59579864  energy(sigma->0) =        5.59564900


--------------------------------------------------------------------------------------------------------




--------------------------------------- Iteration      1(   3)  ---------------------------------------


     EDDAV:  cpu time      2.9830: real time      2.9920
       DOS:  cpu time      0.0007: real time      0.0007
    --------------------------------------------
      LOOP:  cpu time      2.9837: real time      2.9927

 eigenvalue-minimisations  :  6922
 total energy-change (2. order) :-0.1145610E+02  (-0.1133853E+02)
 number of electron      12.0000000 magnetization 
 augmentation part       12.0000000 magnetization 

 Free energy of the ion-electron system (eV)
  ---------------------------------------------------
  alpha Z        PSCENC =         3.62607141
  Ewald energy   TEWEN  =      -246.05781527
  -Hartree energ DENC   =      -181.64149928
  -exchange      EXHF   =         0.00000000
  -V(xc)+E(xc)   XCENC  =        47.98123970
  PAW double counting   =       319.04650337     -380.66826624
  entropy T*S    EENTRO =        -0.00046757
  eigenvalues    EBANDS =      -379.24938240
  atomic energy  EATOM  =       811.10301397
  Solvation  Ediel_sol  =         0.00000000
  ---------------------------------------------------
  free energy    TOTEN  =        -5.86060232 eV

  energy without entropy =       -5.86013474  energy(sigma->0) =       -5.86036853


--------------------------------------------------------------------------------------------------------




--------------------------------------- Iteration      1(   4)  ---------------------------------------


     EDDAV:  cpu time      2.0524: real time      2.0589
       DOS:  cpu time      0.0007: real time      0.0007
    --------------------------------------------
      LOOP:  cpu time      2.0531: real time      2.0596

 eigenvalue-minimisations  :  4110
 total energy-change (2. order) :-0.6096208E+00  (-0.6087939E+00)
 number of electron      12.0000000 magnetization 
 augmentation part       12.0000000 magnetization 

 Free energy of the ion-electron system (eV)
  ---------------------------------------------------
  alpha Z        PSCENC =         3.62607141
  Ewald energy   TEWEN  =      -246.05781527
  -Hartree energ DENC   =      -181.64149928
  -exchange      EXHF   =         0.00000000
  -V(xc)+E(xc)   XCENC  =        47.98123970
  PAW double counting   =       319.04650337     -380.66826624
  entropy T*S    EENTRO =        -0.00034068
  eigenvalues    EBANDS =      -379.85913009
  atomic energy  EATOM  =       811.10301397
  Solvation  Ediel_sol  =         0.00000000
  ---------------------------------------------------
  free energy    TOTEN  =        -6.47022312 eV

  energy without entropy =       -6.46988244  energy(sigma->0) =       -6.47005278


--------------------------------------------------------------------------------------------------------




--------------------------------------- Iteration      1(   5)  ---------------------------------------


     EDDAV:  cpu time      2.7362: real time      2.7443
       DOS:  cpu time      0.0007: real time      0.0007
    CHARGE:  cpu time      0.1807: real time      0.1810
    MIXING:  cpu time      0.0062: real time      0.0062
    --------------------------------------------
      LOOP:  cpu time      2.9237: real time      2.9322

 eigenvalue-minimisations  :  6232
 total energy-change (2. order) :-0.7106020E-01  (-0.7103654E-01)
 number of electron      12.0000037 magnetization 
 augmentation part        3.7448174 magnetization 

 Broyden mixing:
  rms(total) = 0.59460E-01    rms(broyden)= 0.59397E-01
  rms(prec ) = 0.11289E+00
  weight for this iteration     100.00

 Free energy of the ion-electron system (eV)
  ---------------------------------------------------
  alpha Z        PSCENC =         3.62607141
  Ewald energy   TEWEN  =      -246.05781527
  -Hartree energ DENC   =      -181.64149928
  -exchange      EXHF   =         0.00000000
  -V(xc)+E(xc)   XCENC  =        47.98123970
  PAW double counting   =       319.04650337     -380.66826624
  entropy T*S    EENTRO =        -0.00033092
  eigenvalues    EBANDS =      -379.93020005
  atomic energy  EATOM  =       811.10301397
  Solvation  Ediel_sol  =         0.00000000
  ---------------------------------------------------
  free energy    TOTEN  =        -6.54128332 eV

  energy without entropy =       -6.54095240  energy(sigma->0) =       -6.54111786


--------------------------------------------------------------------------------------------------------




--------------------------------------- Iteration      1(   6)  ---------------------------------------


    POTLOK:  cpu time      0.0065: real time      0.0065
    SETDIJ:  cpu time      0.0026: real time      0.0026
     EDDAV:  cpu time      2.2057: real time      2.2123
       DOS:  cpu time      0.0007: real time      0.0007
    CHARGE:  cpu time      0.1768: real time      0.1772
    MIXING:  cpu time      0.0057: real time      0.0057
    --------------------------------------------
      LOOP:  cpu time      2.3979: real time      2.4050

 eigenvalue-minimisations  :  4590
 total energy-change (2. order) : 0.4954962E-02  (-0.9446326E-03)
 number of electron      12.0000037 magnetization 
 augmentation part        3.7402185 magnetization 

 Broyden mixing:
  rms(total) = 0.35068E-01    rms(broyden)= 0.35065E-01
  rms(prec ) = 0.70878E-01
  weight for this iteration     100.00

 eigenvalues of (default mixing * dielectric matrix)
  average eigenvalue GAMMA=   2.3846
  2.3846

 Free energy of the ion-electron system (eV)
  ---------------------------------------------------
  alpha Z        PSCENC =         3.62607141
  Ewald energy   TEWEN  =      -246.05781527
  -Hartree energ DENC   =      -180.47252702
  -exchange      EXHF   =         0.00000000
  -V(xc)+E(xc)   XCENC  =        47.88792112
  PAW double counting   =       317.66318147     -379.44909338
  entropy T*S    EENTRO =        -0.00034162
  eigenvalues    EBANDS =      -380.83673903
  atomic energy  EATOM  =       811.10301397
  Solvation  Ediel_sol  =         0.00000000
  ---------------------------------------------------
  free energy    TOTEN  =        -6.53632836 eV

  energy without entropy =       -6.53598673  energy(sigma->0) =       -6.53615754


--------------------------------------------------------------------------------------------------------




--------------------------------------- Iteration      1(   7)  ---------------------------------------


    POTLOK:  cpu time      0.0061: real time      0.0061
    SETDIJ:  cpu time      0.0026: real time      0.0026
     EDDAV:  cpu time      2.8670: real time      2.8763
       DOS:  cpu time      0.0007: real time      0.0007
    CHARGE:  cpu time      0.1799: real time      0.1803
    MIXING:  cpu time      0.0059: real time      0.0059
    --------------------------------------------
      LOOP:  cpu time      3.0623: real time      3.0720

 eigenvalue-minimisations  :  6684
 total energy-change (2. order) : 0.3114090E-02  (-0.8955972E-03)
 number of electron      12.0000037 magnetization 
 augmentation part        3.7195714 magnetization 

 Broyden mixing:
  rms(total) = 0.11030E-01    rms(broyden)= 0.10983E-01
  rms(prec ) = 0.14308E-01
  weight for this iteration     100.00

 eigenvalues of (default mixing * dielectric matrix)
  average eigenvalue GAMMA=   3.7351
  3.7351  3.7351

 Free energy of the ion-electron system (eV)
  ---------------------------------------------------
  alpha Z        PSCENC =         3.62607141
  Ewald energy   TEWEN  =      -246.05781527
  -Hartree energ DENC   =      -178.55569474
  -exchange      EXHF   =         0.00000000
  -V(xc)+E(xc)   XCENC  =        47.74245766
  PAW double counting   =       315.77654121     -377.83029720
  entropy T*S    EENTRO =        -0.00037848
  eigenvalues    EBANDS =      -382.33711283
  atomic energy  EATOM  =       811.10301397
  Solvation  Ediel_sol  =         0.00000000
  ---------------------------------------------------
  free energy    TOTEN  =        -6.53321427 eV

  energy without entropy =       -6.53283579  energy(sigma->0) =       -6.53302503


--------------------------------------------------------------------------------------------------------




--------------------------------------- Iteration      1(   8)  ---------------------------------------


    POTLOK:  cpu time      0.0069: real time      0.0069
    SETDIJ:  cpu time      0.0027: real time      0.0027
     EDDAV:  cpu time      2.0522: real time      2.0586
       DOS:  cpu time      0.0007: real time      0.0007
    CHARGE:  cpu time      0.1762: real time      0.1766
    MIXING:  cpu time      0.0057: real time      0.0057
    --------------------------------------------
      LOOP:  cpu time      2.2443: real time      2.2512

 eigenvalue-minimisations  :  4144
 total energy-change (2. order) :-0.5277410E-03  (-0.8359736E-04)
 number of electron      12.0000037 magnetization 
 augmentation part        3.7219056 magnetization 

 Broyden mixing:
  rms(total) = 0.22178E-01    rms(broyden)= 0.22178E-01
  rms(prec ) = 0.31641E-01
  weight for this iteration     100.00

 eigenvalues of (default mixing * dielectric matrix)
  average eigenvalue GAMMA=   2.1338
  1.0098  2.6958  2.6958

 Free energy of the ion-electron system (eV)
  ---------------------------------------------------
  alpha Z        PSCENC =         3.62607141
  Ewald energy   TEWEN  =      -246.05781527
  -Hartree energ DENC   =      -179.49952393
  -exchange      EXHF   =         0.00000000
  -V(xc)+E(xc)   XCENC  =        47.84440657
  PAW double counting   =       320.08913665     -382.04788471
  entropy T*S    EENTRO =        -0.00036426
  eigenvalues    EBANDS =      -381.59078244
  atomic energy  EATOM  =       811.10301397
  Solvation  Ediel_sol  =         0.00000000
  ---------------------------------------------------
  free energy    TOTEN  =        -6.53374201 eV

  energy without entropy =       -6.53337775  energy(sigma->0) =       -6.53355988


--------------------------------------------------------------------------------------------------------




--------------------------------------- Iteration      1(   9)  ---------------------------------------


    POTLOK:  cpu time      0.0063: real time      0.0063
    SETDIJ:  cpu time      0.0025: real time      0.0026
     EDDAV:  cpu time      1.9955: real time      2.0030
       DOS:  cpu time      0.0007: real time      0.0007
    CHARGE:  cpu time      0.1778: real time      0.1783
    MIXING:  cpu time      0.0058: real time      0.0058
    --------------------------------------------
      LOOP:  cpu time      2.1887: real time      2.1966

 eigenvalue-minimisations  :  4102
 total energy-change (2. order) : 0.5278088E-03  (-0.3304714E-04)
 number of electron      12.0000037 magnetization 
 augmentation part        3.7205248 magnetization 

 Broyden mixing:
  rms(total) = 0.13726E-02    rms(broyden)= 0.13699E-02
  rms(prec ) = 0.18087E-02
  weight for this iteration     100.00

 eigenvalues of (default mixing * dielectric matrix)
  average eigenvalue GAMMA=   1.7992
  2.8590  2.3508  0.9934  0.9934

 Free energy of the ion-electron system (eV)
  ---------------------------------------------------
  alpha Z        PSCENC =         3.62607141
  Ewald energy   TEWEN  =      -246.05781527
  -Hartree energ DENC   =      -178.73845499
  -exchange      EXHF   =         0.00000000
  -V(xc)+E(xc)   XCENC  =        47.77290205
  PAW double counting   =       317.78151582     -379.82680957
  entropy T*S    EENTRO =        -0.00037808
  eigenvalues    EBANDS =      -382.19325953
  atomic energy  EATOM  =       811.10301397
  Solvation  Ediel_sol  =         0.00000000
  ---------------------------------------------------
  free energy    TOTEN  =        -6.53321420 eV

  energy without entropy =       -6.53283612  energy(sigma->0) =       -6.53302516


--------------------------------------------------------------------------------------------------------




--------------------------------------- Iteration      1(  10)  ---------------------------------------


    POTLOK:  cpu time      0.0066: real time      0.0074
    SETDIJ:  cpu time      0.0025: real time      0.0025
     EDDAV:  cpu time      2.3407: real time      2.3483
       DOS:  cpu time      0.0006: real time      0.0006
    CHARGE:  cpu time      0.1764: real time      0.1768
    MIXING:  cpu time      0.0057: real time      0.0057
    --------------------------------------------
      LOOP:  cpu time      2.5326: real time      2.5414

 eigenvalue-minimisations  :  4960
 total energy-change (2. order) :-0.1012856E-04  (-0.7536403E-05)
 number of electron      12.0000037 magnetization 
 augmentation part        3.7195199 magnetization 

 Broyden mixing:
  rms(total) = 0.52496E-03    rms(broyden)= 0.52270E-03
  rms(prec ) = 0.78679E-03
  weight for this iteration     100.00

 eigenvalues of (default mixing * dielectric matrix)
  average eigenvalue GAMMA=   1.8713
  2.7812  2.3532  2.3532  0.9346  0.9346

 Free energy of the ion-electron system (eV)
  ---------------------------------------------------
  alpha Z        PSCENC =         3.62607141
  Ewald energy   TEWEN  =      -246.05781527
  -Hartree energ DENC   =      -178.69386910
  -exchange      EXHF   =         0.00000000
  -V(xc)+E(xc)   XCENC  =        47.76817868
  PAW double counting   =       317.59135564     -379.63494219
  entropy T*S    EENTRO =        -0.00037873
  eigenvalues    EBANDS =      -382.23483873
  atomic energy  EATOM  =       811.10301397
  Solvation  Ediel_sol  =         0.00000000
  ---------------------------------------------------
  free energy    TOTEN  =        -6.53322433 eV

  energy without entropy =       -6.53284560  energy(sigma->0) =       -6.53303496


--------------------------------------------------------------------------------------------------------




--------------------------------------- Iteration      1(  11)  ---------------------------------------


    POTLOK:  cpu time      0.0062: real time      0.0062
    SETDIJ:  cpu time      0.0026: real time      0.0026
     EDDAV:  cpu time      2.2046: real time      2.2114
       DOS:  cpu time      0.0007: real time      0.0007
    --------------------------------------------
      LOOP:  cpu time      2.2141: real time      2.2209

 eigenvalue-minimisations  :  4676
 total energy-change (2. order) : 0.9004088E-06  (-0.6835039E-06)
 number of electron      12.0000037 magnetization 
 augmentation part        3.7195199 magnetization 

 Free energy of the ion-electron system (eV)
  ---------------------------------------------------
  alpha Z        PSCENC =         3.62607141
  Ewald energy   TEWEN  =      -246.05781527
  -Hartree energ DENC   =      -178.70614757
  -exchange      EXHF   =         0.00000000
  -V(xc)+E(xc)   XCENC  =        47.76927663
  PAW double counting   =       317.63122656     -379.67022810
  entropy T*S    EENTRO =        -0.00037847
  eigenvalues    EBANDS =      -382.22824259
  atomic energy  EATOM  =       811.10301397
  Solvation  Ediel_sol  =         0.00000000
  ---------------------------------------------------
  free energy    TOTEN  =        -6.53322343 eV

  energy without entropy =       -6.53284496  energy(sigma->0) =       -6.53303419


--------------------------------------------------------------------------------------------------------




 average (electrostatic) potential at core
  the test charge radii are     0.7079
  (the norm of the test charge is              1.0000)
       1 -66.2710       2 -66.2710       3 -66.2710       4 -66.2710
 
 
 
 E-fermi :   0.1634     XC(G=0):  -6.5053     alpha+bet : -5.8904

 val. band max:        0.1517377640   @ k =   0.5000   0.5000   0.4286
 cond. band min:       0.1719157150   @ k =  -0.3571   0.4286   0.0714
 fundamental gap:      0.0201779510
 Fermi energy:         0.1633998764

 k-point     1 :       0.0000    0.0000    0.0000
  band No.  band energies     occupation 
      1     -47.1879      2.00000
      2     -47.1630      2.00000
      3     -47.1630      2.00000
      4     -47.1630      2.00000
      5      -3.1813      2.00000
      6       2.0494      0.00000
      7       2.0494      0.00000
      8       2.0497      0.00000
      9       2.3683      0.00000
     10       2.3683      0.00000

 k-point     2 :       0.0714    0.0000    0.0000
  band No.  band energies     occupation 
      1     -47.1876      2.00000
      2     -47.1645      2.00000
      3     -47.1629      2.00000
      4     -47.1618      2.00000
      5      -3.1537      2.00000
      6       1.4941      0.00000
      7       2.0613      0.00000
      8       2.1059      0.00000
      9       2.2616      0.00000
     10       2.3988      0.00000

 k-point     3 :       0.1429    0.0000    0.0000
  band No.  band energies     occupation 
      1     -47.1869      2.00000
      2     -47.1664      2.00000
      3     -47.1627      2.00000
      4     -47.1609      2.00000
      5      -3.0708      2.00000
      6       0.8202      0.00000
      7       2.0955      0.00000
      8       2.1250      0.00000
      9       2.3582      0.00000
     10       2.4892      0.00000

 k-point     4 :       0.2143    0.0000    0.0000
  band No.  band energies     occupation 
      1     -47.1858      2.00000
      2     -47.1684      2.00000
      3     -47.1624      2.00000
      4     -47.1603      2.00000
      5      -2.9327      2.00000
      6       0.1849      0.12865
      7       2.1475      0.00000
      8       2.1657      0.00000
      9       2.5088      0.00000
     10       2.6362      0.00000

 k-point     5 :       0.2857    0.0000    0.0000
  band No.  band energies     occupation 
      1     -47.1842      2.00000
      2     -47.1707      2.00000
      3     -47.1620      2.00000
      4     -47.1600      2.00000
      5      -2.7391      2.00000
      6      -0.3997      2.00000
      7       2.2098      0.00000
      8       2.2218      0.00000
      9       2.7012      0.00000
     10       2.8311      0.00000

 k-point     6 :       0.3571    0.0000    0.0000
  band No.  band energies     occupation 
      1     -47.1824      2.00000
      2     -47.1731      2.00000
      3     -47.1615      2.00000
      4     -47.1600      2.00000
      5      -2.4897      2.00000
      6      -0.9299      2.00000
      7       2.2713      0.00000
      8       2.2796      0.00000
      9       2.9228      0.00000
     10       3.0526      0.00000

 k-point     7 :       0.4286    0.0000    0.0000
  band No.  band energies     occupation 
      1     -47.1802      2.00000
      2     -47.1755      2.00000
      3     -47.1610      2.00000
      4     -47.1602      2.00000
      5      -2.1842      2.00000
      6      -1.4043      2.00000
      7       2.3180      0.00000
      8       2.3227      0.00000
      9       3.1433      0.00000
     10       3.2427      0.00000

 k-point     8 :       0.5000    0.0000    0.0000
  band No.  band energies     occupation 
      1     -47.1779      2.00000
      2     -47.1779      2.00000
      3     -47.1605      2.00000
      4     -47.1605      2.00000
      5      -1.8225      2.00000
      6      -1.8225      2.00000
      7       2.3372      0.00000
      8       2.3372      0.00000
      9       3.2855      0.00000
     10       3.2855      0.00000

 k-point     9 :       0.0714    0.0714    0.0000
  band No.  band energies     occupation 
      1     -47.1874      2.00000
      2     -47.1651      2.00000
      3     -47.1630      2.00000
      4     -47.1613      2.00000
      5      -3.1261      2.00000
      6       1.4843      0.00000
      7       1.5441      0.00000
      8       2.1586      0.00000
      9       2.2250      0.00000
     10       2.8328      0.00000

 k-point    10 :       0.1429    0.0714    0.0000
  band No.  band energies     occupation 
      1     -47.1867      2.00000
      2     -47.1666      2.00000
      3     -47.1629      2.00000
      4     -47.1607      2.00000
      5      -3.0433      2.00000
      6       0.8398      0.00000
      7       1.5838      0.00000
      8       2.1977      0.00000
      9       2.2917      0.00000
     10       2.9892      0.00000

 k-point    11 :      -0.0714    0.1429    0.0000
  band No.  band energies     occupation 
      1     -47.1867      2.00000
      2     -47.1666      2.00000
      3     -47.1629      2.00000
      4     -47.1607      2.00000
      5      -3.0433      2.00000
      6       0.8398      0.00000
      7       1.5835      0.00000
      8       2.1986      0.00000
      9       2.2914      0.00000
     10       2.9888      0.00000

 k-point    12 :       0.2143    0.0714    0.0000
  band No.  band energies     occupation 
      1     -47.1855      2.00000
      2     -47.1686      2.00000
      3     -47.1626      2.00000
      4     -47.1602      2.00000
      5      -2.9052      2.00000
      6       0.2078      0.00171
      7       1.6857      0.00000
      8       2.2500      0.00000
      9       2.4067      0.00000
     10       3.0943      0.00000

 k-point    13 :      -0.0714    0.2143    0.0000
  band No.  band energies     occupation 
      1     -47.1855      2.00000
      2     -47.1686      2.00000
      3     -47.1626      2.00000
      4     -47.1602      2.00000
      5      -2.9052      2.00000
      6       0.2078      0.00170
      7       1.6851      0.00000
      8       2.2512      0.00000
      9       2.4068      0.00000
     10       3.0932      0.00000

 k-point    14 :       0.2857    0.0714    0.0000
  band No.  band energies     occupation 
      1     -47.1840      2.00000
      2     -47.1708      2.00000
      3     -47.1622      2.00000
      4     -47.1600      2.00000
      5      -2.7117      2.00000
      6      -0.3750      2.00000
      7       1.8172      0.00000
      8       2.3006      0.00000
      9       2.5648      0.00000
     10       3.2059      0.00000

 k-point    15 :      -0.0714    0.2857    0.0000
  band No.  band energies     occupation 
      1     -47.1840      2.00000
      2     -47.1708      2.00000
      3     -47.1622      2.00000
      4     -47.1600      2.00000
      5      -2.7117      2.00000
      6      -0.3750      2.00000
      7       1.8163      0.00000
      8       2.3018      0.00000
      9       2.5657      0.00000
     10       3.2043      0.00000

 k-point    16 :       0.3571    0.0714    0.0000
  band No.  band energies     occupation 
      1     -47.1822      2.00000
      2     -47.1731      2.00000
      3     -47.1617      2.00000
      4     -47.1600      2.00000
      5      -2.4624      2.00000
      6      -0.9042      2.00000
      7       1.9650      0.00000
      8       2.3268      0.00000
      9       2.7601      0.00000
     10       3.2965      0.00000

 k-point    17 :      -0.0714    0.3571    0.0000
  band No.  band energies     occupation 
      1     -47.1822      2.00000
      2     -47.1731      2.00000
      3     -47.1617      2.00000
      4     -47.1600      2.00000
      5      -2.4624      2.00000
      6      -0.9042      2.00000
      7       1.9638      0.00000
      8       2.3275      0.00000
      9       2.7620      0.00000
     10       3.2951      0.00000

 k-point    18 :       0.4286    0.0714    0.0000
  band No.  band energies     occupation 
      1     -47.1801      2.00000
      2     -47.1755      2.00000
      3     -47.1611      2.00000
      4     -47.1603      2.00000
      5      -2.1571      2.00000
      6      -1.3780      2.00000
      7       2.1105      0.00000
      8       2.3066      0.00000
      9       2.9779      0.00000
     10       3.3033      0.00000

 k-point    19 :      -0.0714    0.4286    0.0000
  band No.  band energies     occupation 
      1     -47.1801      2.00000
      2     -47.1755      2.00000
      3     -47.1611      2.00000
      4     -47.1603      2.00000
      5      -2.1571      2.00000
      6      -1.3780      2.00000
      7       2.1094      0.00000
      8       2.3067      0.00000
      9       2.9803      0.00000
     10       3.3035      0.00000

 k-point    20 :       0.5000    0.0714    0.0000
  band No.  band energies     occupation 
      1     -47.1778      2.00000
      2     -47.1778      2.00000
      3     -47.1606      2.00000
      4     -47.1606      2.00000
      5      -1.7957      2.00000
      6      -1.7957      2.00000
      7       2.2314      0.00000
      8       2.2314      0.00000
      9       3.1817      0.00000
     10       3.1817      0.00000

 k-point    21 :      -0.0714    0.5000    0.0000
  band No.  band energies     occupation 
      1     -47.1778      2.00000
      2     -47.1778      2.00000
      3     -47.1606      2.00000
      4     -47.1606      2.00000
      5      -1.7957      2.00000
      6      -1.7957      2.00000
      7       2.2307      0.00000
      8       2.2307      0.00000
      9       3.1836      0.00000
     10       3.1836      0.00000

 k-point    22 :       0.1429    0.1429    0.0000
  band No.  band energies     occupation 
      1     -47.1860      2.00000
      2     -47.1675      2.00000
      3     -47.1630      2.00000
      4     -47.1603      2.00000
      5      -2.9606      2.00000
      6       0.8098      0.00000
      7       1.0336      0.00000
      8       2.2368      0.00000
      9       2.3484      0.00000
     10       3.3667      0.00000

 k-point    23 :       0.2143    0.1429    0.0000
  band No.  band energies     occupation 
      1     -47.1849      2.00000
      2     -47.1690      2.00000
      3     -47.1629      2.00000
      4     -47.1601      2.00000
      5      -2.8227      2.00000
      6       0.2685      0.00000
      7       1.0720      0.00000
      8       2.2766      0.00000
      9       2.4538      0.00000
     10       3.4515      0.00000

 k-point    24 :      -0.1429    0.2143    0.0000
  band No.  band energies     occupation 
      1     -47.1849      2.00000
      2     -47.1690      2.00000
      3     -47.1629      2.00000
      4     -47.1601      2.00000
      5      -2.8227      2.00000
      6       0.2686      0.00000
      7       1.0717      0.00000
      8       2.2772      0.00000
      9       2.4540      0.00000
     10       3.4505      0.00000

 k-point    25 :       0.2857    0.1429    0.0000
  band No.  band energies     occupation 
      1     -47.1834      2.00000
      2     -47.1709      2.00000
      3     -47.1626      2.00000
      4     -47.1600      2.00000
      5      -2.6293      2.00000
      6      -0.3034      2.00000
      7       1.2314      0.00000
      8       2.2928      0.00000
      9       2.5957      0.00000
     10       3.4136      0.00000

 k-point    26 :      -0.1429    0.2857    0.0000
  band No.  band energies     occupation 
      1     -47.1834      2.00000
      2     -47.1709      2.00000
      3     -47.1626      2.00000
      4     -47.1600      2.00000
      5      -2.6293      2.00000
      6      -0.3034      2.00000
      7       1.2308      0.00000
      8       2.2935      0.00000
      9       2.5967      0.00000
     10       3.4124      0.00000

 k-point    27 :       0.3571    0.1429    0.0000
  band No.  band energies     occupation 
      1     -47.1817      2.00000
      2     -47.1730      2.00000
      3     -47.1620      2.00000
      4     -47.1601      2.00000
      5      -2.3804      2.00000
      6      -0.8279      2.00000
      7       1.4329      0.00000
      8       2.2442      0.00000
      9       2.7635      0.00000
     10       3.3279      0.00000

 k-point    28 :      -0.1429    0.3571    0.0000
  band No.  band energies     occupation 
      1     -47.1817      2.00000
      2     -47.1730      2.00000
      3     -47.1620      2.00000
      4     -47.1601      2.00000
      5      -2.3804      2.00000
      6      -0.8279      2.00000
      7       1.4320      0.00000
      8       2.2443      0.00000
      9       2.7657      0.00000
     10       3.3281      0.00000

 k-point    29 :       0.4286    0.1429    0.0000
  band No.  band energies     occupation 
      1     -47.1796      2.00000
      2     -47.1752      2.00000
      3     -47.1615      2.00000
      4     -47.1604      2.00000
      5      -2.0758      2.00000
      6      -1.2992      2.00000
      7       1.6616      0.00000
      8       2.1052      0.00000
      9       2.9401      0.00000
     10       3.2276      0.00000

 k-point    30 :      -0.1429    0.4286    0.0000
  band No.  band energies     occupation 
      1     -47.1796      2.00000
      2     -47.1752      2.00000
      3     -47.1615      2.00000
      4     -47.1604      2.00000
      5      -2.0758      2.00000
      6      -1.2991      2.00000
      7       1.6604      0.00000
      8       2.1045      0.00000
      9       2.9435      0.00000
     10       3.2301      0.00000

 k-point    31 :       0.5000    0.1429    0.0000
  band No.  band energies     occupation 
      1     -47.1775      2.00000
      2     -47.1775      2.00000
      3     -47.1609      2.00000
      4     -47.1609      2.00000
      5      -1.7153      2.00000
      6      -1.7153      2.00000
      7       1.8967      0.00000
      8       1.8967      0.00000
      9       3.1013      0.00000
     10       3.1013      0.00000

 k-point    32 :      -0.1429    0.5000    0.0000
  band No.  band energies     occupation 
      1     -47.1775      2.00000
      2     -47.1775      2.00000
      3     -47.1609      2.00000
      4     -47.1609      2.00000
      5      -1.7153      2.00000
      6      -1.7153      2.00000
      7       1.8956      0.00000
      8       1.8956      0.00000
      9       3.1050      0.00000
     10       3.1050      0.00000

 k-point    33 :       0.2143    0.2143    0.0000
  band No.  band energies     occupation 
      1     -47.1839      2.00000
      2     -47.1699      2.00000
      3     -47.1631      2.00000
      4     -47.1600      2.00000
      5      -2.6850      2.00000
      6       0.2488      0.00000
      7       0.6062      0.00000
      8       2.2755      0.00000
      9       2.5573      0.00000
     10       3.4656      0.00000

 k-point    34 :       0.2857    0.2143    0.0000
  band No.  band energies     occupation 
      1     -47.1825      2.00000
      2     -47.1713      2.00000
      3     -47.1629      2.00000
      4     -47.1601      2.00000
      5      -2.4922      2.00000
      6      -0.1996      2.00000
      7       0.6610      0.00000
      8       2.1991      0.00000
      9       2.6974      0.00000
     10       3.3482      0.00000

 k-point    35 :      -0.2143    0.2857    0.0000
  band No.  band energies     occupation 
      1     -47.1825      2.00000
      2     -47.1713      2.00000
      3     -47.1629      2.00000
      4     -47.1601      2.00000
      5      -2.4922      2.00000
      6      -0.1995      2.00000
      7       0.6607      0.00000
      8       2.1992      0.00000
      9       2.6982      0.00000
     10       3.3483      0.00000

 k-point    36 :       0.3571    0.2143    0.0000
  band No.  band energies     occupation 
      1     -47.1809      2.00000
      2     -47.1730      2.00000
      3     -47.1625      2.00000
      4     -47.1604      2.00000
      5      -2.2441      2.00000
      6      -0.7056      2.00000
      7       0.8694      0.00000
      8       2.0071      0.00000
      9       2.8602      0.00000
     10       3.2703      0.00000

 k-point    37 :      -0.2143    0.3571    0.0000
  band No.  band energies     occupation 
      1     -47.1809      2.00000
      2     -47.1730      2.00000
      3     -47.1625      2.00000
      4     -47.1604      2.00000
      5      -2.2441      2.00000
      6      -0.7055      2.00000
      7       0.8688      0.00000
      8       2.0067      0.00000
      9       2.8621      0.00000
     10       3.2719      0.00000

 k-point    38 :       0.4286    0.2143    0.0000
  band No.  band energies     occupation 
      1     -47.1790      2.00000
      2     -47.1750      2.00000
      3     -47.1620      2.00000
      4     -47.1609      2.00000
      5      -1.9407      2.00000
      6      -1.1698      2.00000
      7       1.1298      0.00000
      8       1.7289      0.00000
      9       3.0235      0.00000
     10       3.2288      0.00000

 k-point    39 :      -0.2143    0.4286    0.0000
  band No.  band energies     occupation 
      1     -47.1790      2.00000
      2     -47.1750      2.00000
      3     -47.1620      2.00000
      4     -47.1609      2.00000
      5      -1.9407      2.00000
      6      -1.1698      2.00000
      7       1.1290      0.00000
      8       1.7282      0.00000
      9       3.0266      0.00000
     10       3.2320      0.00000

 k-point    40 :       0.5000    0.2143    0.0000
  band No.  band energies     occupation 
      1     -47.1770      2.00000
      2     -47.1770      2.00000
      3     -47.1614      2.00000
      4     -47.1614      2.00000
      5      -1.5824      2.00000
      6      -1.5824      2.00000
      7       1.4235      0.00000
      8       1.4235      0.00000
      9       3.1547      0.00000
     10       3.1547      0.00000

 k-point    41 :      -0.2143    0.5000    0.0000
  band No.  band energies     occupation 
      1     -47.1770      2.00000
      2     -47.1770      2.00000
      3     -47.1614      2.00000
      4     -47.1614      2.00000
      5      -1.5823      2.00000
      6      -1.5823      2.00000
      7       1.4226      0.00000
      8       1.4226      0.00000
      9       3.1585      0.00000
     10       3.1585      0.00000

 k-point    42 :       0.2857    0.2857    0.0000
  band No.  band energies     occupation 
      1     -47.1813      2.00000
      2     -47.1721      2.00000
      3     -47.1631      2.00000
      4     -47.1604      2.00000
      5      -2.3002      2.00000
      6      -0.1902      2.00000
      7       0.2717      0.00000
      8       1.9712      0.00000
      9       2.8405      0.00000
     10       3.2871      0.00000

 k-point    43 :       0.3571    0.2857    0.0000
  band No.  band energies     occupation 
      1     -47.1798      2.00000
      2     -47.1733      2.00000
      3     -47.1629      2.00000
      4     -47.1609      2.00000
      5      -2.0535      2.00000
      6      -0.5557      2.00000
      7       0.3545      0.00000
      8       1.6399      0.00000
      9       3.0063      0.00000
     10       3.3044      0.00000

 k-point    44 :      -0.2857    0.3571    0.0000
  band No.  band energies     occupation 
      1     -47.1798      2.00000
      2     -47.1733      2.00000
      3     -47.1629      2.00000
      4     -47.1609      2.00000
      5      -2.0535      2.00000
      6      -0.5556      2.00000
      7       0.3542      0.00000
      8       1.6396      0.00000
      9       3.0075      0.00000
     10       3.3057      0.00000

 k-point    45 :       0.4286    0.2857    0.0000
  band No.  band energies     occupation 
      1     -47.1781      2.00000
      2     -47.1748      2.00000
      3     -47.1625      2.00000
      4     -47.1614      2.00000
      5      -1.7526      2.00000
      6      -0.9950      2.00000
      7       0.6098      0.00000
      8       1.2760      0.00000
      9       3.1698      0.00000
     10       3.3302      0.00000

 k-point    46 :      -0.2857    0.4286    0.0000
  band No.  band energies     occupation 
      1     -47.1781      2.00000
      2     -47.1748      2.00000
      3     -47.1625      2.00000
      4     -47.1614      2.00000
      5      -1.7525      2.00000
      6      -0.9949      2.00000
      7       0.6093      0.00000
      8       1.2756      0.00000
      9       3.1722      0.00000
     10       3.3329      0.00000

 k-point    47 :       0.5000    0.2857    0.0000
  band No.  band energies     occupation 
      1     -47.1764      2.00000
      2     -47.1764      2.00000
      3     -47.1620      2.00000
      4     -47.1620      2.00000
      5      -1.3986      2.00000
      6      -1.3986      2.00000
      7       0.9246      0.00000
      8       0.9246      0.00000
      9       3.2904      0.00000
     10       3.2904      0.00000

 k-point    48 :      -0.2857    0.5000    0.0000
  band No.  band energies     occupation 
      1     -47.1764      2.00000
      2     -47.1764      2.00000
      3     -47.1620      2.00000
      4     -47.1620      2.00000
      5      -1.3985      2.00000
      6      -1.3985      2.00000
      7       0.9242      0.00000
      8       0.9242      0.00000
      9       3.2935      0.00000
     10       3.2935      0.00000

 k-point    49 :       0.3571    0.3571    0.0000
  band No.  band energies     occupation 
      1     -47.1786      2.00000
      2     -47.1738      2.00000
      3     -47.1631      2.00000
      4     -47.1614      2.00000
      5      -1.8094      2.00000
      6      -0.5048      2.00000
      7       0.0327      2.00000
      8       1.2262      0.00000
      9       3.1797      0.00000
     10       3.4000      0.00000

 k-point    50 :       0.4286    0.3571    0.0000
  band No.  band energies     occupation 
      1     -47.1772      2.00000
      2     -47.1747      2.00000
      3     -47.1629      2.00000
      4     -47.1620      2.00000
      5      -1.5132      2.00000
      6      -0.7950      2.00000
      7       0.1514      1.60249
      8       0.8214      0.00000
      9       3.3491      0.00000
     10       3.4784      0.00000

 k-point    51 :      -0.3571    0.4286    0.0000
  band No.  band energies     occupation 
      1     -47.1772      2.00000
      2     -47.1747      2.00000
      3     -47.1629      2.00000
      4     -47.1620      2.00000
      5      -1.5132      2.00000
      6      -0.7949      2.00000
      7       0.1512      1.61031
      8       0.8212      0.00000
      9       3.3504      0.00000
     10       3.4799      0.00000

 k-point    52 :       0.5000    0.3571    0.0000
  band No.  band energies     occupation 
      1     -47.1759      2.00000
      2     -47.1759      2.00000
      3     -47.1625      2.00000
      4     -47.1625      2.00000
      5      -1.1694      2.00000
      6      -1.1694      2.00000
      7       0.4539      0.00000
      8       0.4539      0.00000
      9       3.4659      0.00000
     10       3.4659      0.00000

 k-point    53 :      -0.3571    0.5000    0.0000
  band No.  band energies     occupation 
      1     -47.1759      2.00000
      2     -47.1759      2.00000
      3     -47.1625      2.00000
      4     -47.1625      2.00000
      5      -1.1693      2.00000
      6      -1.1693      2.00000
      7       0.4537      0.00000
      8       0.4537      0.00000
      9       3.4680      0.00000
     10       3.4680      0.00000

 k-point    54 :       0.4286    0.4286    0.0000
  band No.  band energies     occupation 
      1     -47.1763      2.00000
      2     -47.1749      2.00000
      3     -47.1631      2.00000
      4     -47.1626      2.00000
      5      -1.2276      2.00000
      6      -0.6939      2.00000
      7      -0.1107      2.00000
      8       0.4019      0.00000
      9       3.5252      0.00000
     10       3.6083      0.00000

 k-point    55 :       0.5000    0.4286    0.0000
  band No.  band energies     occupation 
      1     -47.1754      2.00000
      2     -47.1754      2.00000
      3     -47.1630      2.00000
      4     -47.1630      2.00000
      5      -0.9152      2.00000
      6      -0.9152      2.00000
      7       0.0503      2.00000
      8       0.0503      2.00000
      9       3.6329      0.00000
     10       3.6329      0.00000

 k-point    56 :      -0.4286    0.5000    0.0000
  band No.  band energies     occupation 
      1     -47.1754      2.00000
      2     -47.1754      2.00000
      3     -47.1630      2.00000
      4     -47.1630      2.00000
      5      -0.9152      2.00000
      6      -0.9152      2.00000
      7       0.0502      2.00000
      8       0.0502      2.00000
      9       3.6337      0.00000
     10       3.6337      0.00000

 k-point    57 :       0.5000    0.5000    0.0000
  band No.  band energies     occupation 
      1     -47.1752      2.00000
      2     -47.1752      2.00000
      3     -47.1632      2.00000
      4     -47.1632      2.00000
      5      -0.7570      2.00000
      6      -0.7570      2.00000
      7      -0.1583      2.00000
      8      -0.1583      2.00000
      9       3.7087      0.00000
     10       3.7087      0.00000

 k-point    58 :       0.0714    0.0714    0.0714
  band No.  band energies     occupation 
      1     -47.1871      2.00000
      2     -47.1656      2.00000
      3     -47.1630      2.00000
      4     -47.1610      2.00000
      5      -3.0984      2.00000
      6       1.5054      0.00000
      7       1.5059      0.00000
      8       1.5954      0.00000
      9       2.5802      0.00000
     10       3.0204      0.00000

 k-point    59 :       0.1429    0.0714    0.0714
  band No.  band energies     occupation 
      1     -47.1864      2.00000
      2     -47.1669      2.00000
      3     -47.1630      2.00000
      4     -47.1605      2.00000
      5      -3.0157      2.00000
      6       0.8601      0.00000
      7       1.5661      0.00000
      8       1.6469      0.00000
      9       2.6604      0.00000
     10       3.1811      0.00000

 k-point    60 :       0.2143    0.0714    0.0714
  band No.  band energies     occupation 
      1     -47.1853      2.00000
      2     -47.1687      2.00000
      3     -47.1628      2.00000
      4     -47.1601      2.00000
      5      -2.8777      2.00000
      6       0.2309      0.00000
      7       1.6584      0.00000
      8       1.7679      0.00000
      9       2.7012      0.00000
     10       3.2849      0.00000

 k-point    61 :       0.2857    0.0714    0.0714
  band No.  band energies     occupation 
      1     -47.1838      2.00000
      2     -47.1708      2.00000
      3     -47.1623      2.00000
      4     -47.1600      2.00000
      5      -2.6842      2.00000
      6      -0.3502      2.00000
      7       1.7761      0.00000
      8       1.9268      0.00000
      9       2.7328      0.00000
     10       3.3745      0.00000

 k-point    62 :       0.3571    0.0714    0.0714
  band No.  band energies     occupation 
      1     -47.1820      2.00000
      2     -47.1730      2.00000
      3     -47.1618      2.00000
      4     -47.1601      2.00000
      5      -2.4350      2.00000
      6      -0.8784      2.00000
      7       1.9107      0.00000
      8       2.0895      0.00000
      9       2.7698      0.00000
     10       3.3938      0.00000

 k-point    63 :       0.4286    0.0714    0.0714
  band No.  band energies     occupation 
      1     -47.1800      2.00000
      2     -47.1754      2.00000
      3     -47.1613      2.00000
      4     -47.1603      2.00000
      5      -2.1300      2.00000
      6      -1.3515      2.00000
      7       2.0465      0.00000
      8       2.1828      0.00000
      9       2.8669      0.00000
     10       3.2756      0.00000

 k-point    64 :       0.5000    0.0714    0.0714
  band No.  band energies     occupation 
      1     -47.1777      2.00000
      2     -47.1777      2.00000
      3     -47.1608      2.00000
      4     -47.1608      2.00000
      5      -1.7689      2.00000
      6      -1.7689      2.00000
      7       2.1545      0.00000
      8       2.1545      0.00000
      9       3.0608      0.00000
     10       3.0608      0.00000

 k-point    65 :       0.1429    0.1429    0.0714
  band No.  band energies     occupation 
      1     -47.1858      2.00000
      2     -47.1677      2.00000
      3     -47.1632      2.00000
      4     -47.1602      2.00000
      5      -2.9330      2.00000
      6       0.8354      0.00000
      7       1.0463      0.00000
      8       1.6744      0.00000
      9       2.7633      0.00000
     10       3.4857      0.00000

 k-point    66 :       0.2143    0.1429    0.0714
  band No.  band energies     occupation 
      1     -47.1847      2.00000
      2     -47.1691      2.00000
      3     -47.1631      2.00000
      4     -47.1600      2.00000
      5      -2.7952      2.00000
      6       0.2926      0.00000
      7       1.0893      0.00000
      8       1.7732      0.00000
      9       2.7920      0.00000
     10       3.5681      0.00000

 k-point    67 :      -0.1429    0.2143    0.0714
  band No.  band energies     occupation 
      1     -47.1847      2.00000
      2     -47.1691      2.00000
      3     -47.1631      2.00000
      4     -47.1600      2.00000
      5      -2.7952      2.00000
      6       0.2926      0.00000
      7       1.0889      0.00000
      8       1.7736      0.00000
      9       2.7923      0.00000
     10       3.5675      0.00000

 k-point    68 :       0.2857    0.1429    0.0714
  band No.  band energies     occupation 
      1     -47.1832      2.00000
      2     -47.1709      2.00000
      3     -47.1627      2.00000
      4     -47.1600      2.00000
      5      -2.6019      2.00000
      6      -0.2783      2.00000
      7       1.2484      0.00000
      8       1.8963      0.00000
      9       2.7806      0.00000
     10       3.5230      0.00000

 k-point    69 :      -0.1429    0.2857    0.0714
  band No.  band energies     occupation 
      1     -47.1832      2.00000
      2     -47.1709      2.00000
      3     -47.1627      2.00000
      4     -47.1600      2.00000
      5      -2.6019      2.00000
      6      -0.2783      2.00000
      7       1.2478      0.00000
      8       1.8970      0.00000
      9       2.7809      0.00000
     10       3.5228      0.00000

 k-point    70 :       0.3571    0.1429    0.0714
  band No.  band energies     occupation 
      1     -47.1815      2.00000
      2     -47.1730      2.00000
      3     -47.1622      2.00000
      4     -47.1602      2.00000
      5      -2.3532      2.00000
      6      -0.8021      2.00000
      7       1.4464      0.00000
      8       2.0047      0.00000
      9       2.7462      0.00000
     10       3.3803      0.00000

 k-point    71 :      -0.1429    0.3571    0.0714
  band No.  band energies     occupation 
      1     -47.1815      2.00000
      2     -47.1730      2.00000
      3     -47.1622      2.00000
      4     -47.1602      2.00000
      5      -2.3532      2.00000
      6      -0.8020      2.00000
      7       1.4455      0.00000
      8       2.0054      0.00000
      9       2.7466      0.00000
     10       3.3816      0.00000

 k-point    72 :       0.4286    0.1429    0.0714
  band No.  band energies     occupation 
      1     -47.1795      2.00000
      2     -47.1752      2.00000
      3     -47.1616      2.00000
      4     -47.1606      2.00000
      5      -2.0487      2.00000
      6      -1.2727      2.00000
      7       1.6649      0.00000
      8       2.0110      0.00000
      9       2.7780      0.00000
     10       3.1657      0.00000

 k-point    73 :      -0.1429    0.4286    0.0714
  band No.  band energies     occupation 
      1     -47.1795      2.00000
      2     -47.1752      2.00000
      3     -47.1616      2.00000
      4     -47.1606      2.00000
      5      -2.0487      2.00000
      6      -1.2727      2.00000
      7       1.6639      0.00000
      8       2.0109      0.00000
      9       2.7793      0.00000
     10       3.1681      0.00000

 k-point    74 :       0.5000    0.1429    0.0714
  band No.  band energies     occupation 
      1     -47.1774      2.00000
      2     -47.1774      2.00000
      3     -47.1611      2.00000
      4     -47.1611      2.00000
      5      -1.6885      2.00000
      6      -1.6885      2.00000
      7       1.8736      0.00000
      8       1.8736      0.00000
      9       2.9387      0.00000
     10       2.9387      0.00000

 k-point    75 :      -0.1429    0.5000    0.0714
  band No.  band energies     occupation 
      1     -47.1774      2.00000
      2     -47.1774      2.00000
      3     -47.1611      2.00000
      4     -47.1611      2.00000
      5      -1.6885      2.00000
      6      -1.6885      2.00000
      7       1.8727      0.00000
      8       1.8727      0.00000
      9       2.9410      0.00000
     10       2.9410      0.00000

 k-point    76 :       0.2143    0.2143    0.0714
  band No.  band energies     occupation 
      1     -47.1837      2.00000
      2     -47.1700      2.00000
      3     -47.1632      2.00000
      4     -47.1600      2.00000
      5      -2.6576      2.00000
      6       0.2759      0.00000
      7       0.6232      0.00000
      8       1.8533      0.00000
      9       2.7951      0.00000
     10       3.5825      0.00000

 k-point    77 :       0.2857    0.2143    0.0714
  band No.  band energies     occupation 
      1     -47.1823      2.00000
      2     -47.1713      2.00000
      3     -47.1631      2.00000
      4     -47.1602      2.00000
      5      -2.4648      2.00000
      6      -0.1737      2.00000
      7       0.6804      0.00000
      8       1.9246      0.00000
      9       2.7327      0.00000
     10       3.4727      0.00000

 k-point    78 :      -0.2143    0.2857    0.0714
  band No.  band energies     occupation 
      1     -47.1823      2.00000
      2     -47.1713      2.00000
      3     -47.1631      2.00000
      4     -47.1602      2.00000
      5      -2.4648      2.00000
      6      -0.1736      2.00000
      7       0.6801      0.00000
      8       1.9249      0.00000
      9       2.7327      0.00000
     10       3.4735      0.00000

 k-point    79 :       0.3571    0.2143    0.0714
  band No.  band energies     occupation 
      1     -47.1807      2.00000
      2     -47.1730      2.00000
      3     -47.1627      2.00000
      4     -47.1605      2.00000
      5      -2.2168      2.00000
      6      -0.6794      2.00000
      7       0.8881      0.00000
      8       1.8959      0.00000
      9       2.6908      0.00000
     10       3.3454      0.00000

 k-point    80 :      -0.2143    0.3571    0.0714
  band No.  band energies     occupation 
      1     -47.1807      2.00000
      2     -47.1730      2.00000
      3     -47.1627      2.00000
      4     -47.1605      2.00000
      5      -2.2168      2.00000
      6      -0.6794      2.00000
      7       0.8875      0.00000
      8       1.8959      0.00000
      9       2.6913      0.00000
     10       3.3479      0.00000

 k-point    81 :       0.4286    0.2143    0.0714
  band No.  band energies     occupation 
      1     -47.1788      2.00000
      2     -47.1749      2.00000
      3     -47.1621      2.00000
      4     -47.1610      2.00000
      5      -1.9136      2.00000
      6      -1.1432      2.00000
      7       1.1446      0.00000
      8       1.7034      0.00000
      9       2.7857      0.00000
     10       3.1773      0.00000

 k-point    82 :      -0.2143    0.4286    0.0714
  band No.  band energies     occupation 
      1     -47.1788      2.00000
      2     -47.1749      2.00000
      3     -47.1621      2.00000
      4     -47.1610      2.00000
      5      -1.9136      2.00000
      6      -1.1432      2.00000
      7       1.1439      0.00000
      8       1.7028      0.00000
      9       2.7874      0.00000
     10       3.1805      0.00000

 k-point    83 :       0.5000    0.2143    0.0714
  band No.  band energies     occupation 
      1     -47.1769      2.00000
      2     -47.1769      2.00000
      3     -47.1615      2.00000
      4     -47.1615      2.00000
      5      -1.5554      2.00000
      6      -1.5554      2.00000
      7       1.4277      0.00000
      8       1.4277      0.00000
      9       2.9733      0.00000
     10       2.9733      0.00000

 k-point    84 :      -0.2143    0.5000    0.0714
  band No.  band energies     occupation 
      1     -47.1769      2.00000
      2     -47.1769      2.00000
      3     -47.1615      2.00000
      4     -47.1615      2.00000
      5      -1.5554      2.00000
      6      -1.5554      2.00000
      7       1.4270      0.00000
      8       1.4270      0.00000
      9       2.9761      0.00000
     10       2.9761      0.00000

 k-point    85 :       0.2857    0.2857    0.0714
  band No.  band energies     occupation 
      1     -47.1811      2.00000
      2     -47.1720      2.00000
      3     -47.1632      2.00000
      4     -47.1605      2.00000
      5      -2.2729      2.00000
      6      -0.1623      2.00000
      7       0.2908      0.00000
      8       1.8551      0.00000
      9       2.6667      0.00000
     10       3.4358      0.00000

 k-point    86 :       0.3571    0.2857    0.0714
  band No.  band energies     occupation 
      1     -47.1796      2.00000
      2     -47.1732      2.00000
      3     -47.1631      2.00000
      4     -47.1609      2.00000
      5      -2.0263      2.00000
      6      -0.5288      2.00000
      7       0.3749      0.00000
      8       1.6124      0.00000
      9       2.7286      0.00000
     10       3.4047      0.00000

 k-point    87 :      -0.2857    0.3571    0.0714
  band No.  band energies     occupation 
      1     -47.1796      2.00000
      2     -47.1732      2.00000
      3     -47.1631      2.00000
      4     -47.1609      2.00000
      5      -2.0263      2.00000
      6      -0.5287      2.00000
      7       0.3746      0.00000
      8       1.6122      0.00000
      9       2.7292      0.00000
     10       3.4065      0.00000

 k-point    88 :       0.4286    0.2857    0.0714
  band No.  band energies     occupation 
      1     -47.1780      2.00000
      2     -47.1746      2.00000
      3     -47.1627      2.00000
      4     -47.1615      2.00000
      5      -1.7254      2.00000
      6      -0.9682      2.00000
      7       0.6289      0.00000
      8       1.2796      0.00000
      9       2.8989      0.00000
     10       3.2961      0.00000

 k-point    89 :      -0.2857    0.4286    0.0714
  band No.  band energies     occupation 
      1     -47.1780      2.00000
      2     -47.1746      2.00000
      3     -47.1627      2.00000
      4     -47.1615      2.00000
      5      -1.7254      2.00000
      6      -0.9681      2.00000
      7       0.6285      0.00000
      8       1.2792      0.00000
      9       2.9004      0.00000
     10       3.2988      0.00000

 k-point    90 :       0.5000    0.2857    0.0714
  band No.  band energies     occupation 
      1     -47.1763      2.00000
      2     -47.1763      2.00000
      3     -47.1621      2.00000
      4     -47.1621      2.00000
      5      -1.3716      2.00000
      6      -1.3716      2.00000
      7       0.9394      0.00000
      8       0.9394      0.00000
      9       3.1082      0.00000
     10       3.1082      0.00000

 k-point    91 :      -0.2857    0.5000    0.0714
  band No.  band energies     occupation 
      1     -47.1763      2.00000
      2     -47.1763      2.00000
      3     -47.1621      2.00000
      4     -47.1621      2.00000
      5      -1.3716      2.00000
      6      -1.3716      2.00000
      7       0.9390      0.00000
      8       0.9390      0.00000
      9       3.1105      0.00000
     10       3.1105      0.00000

 k-point    92 :       0.3571    0.3571    0.0714
  band No.  band energies     occupation 
      1     -47.1784      2.00000
      2     -47.1737      2.00000
      3     -47.1633      2.00000
      4     -47.1615      2.00000
      5      -1.7822      2.00000
      6      -0.4765      2.00000
      7       0.0525      2.00000
      8       1.2295      0.00000
      9       2.8768      0.00000
     10       3.4768      0.00000

 k-point    93 :       0.4286    0.3571    0.0714
  band No.  band energies     occupation 
      1     -47.1771      2.00000
      2     -47.1746      2.00000
      3     -47.1631      2.00000
      4     -47.1621      2.00000
      5      -1.4861      2.00000
      6      -0.7676      2.00000
      7       0.1721      0.53816
      8       0.8361      0.00000
      9       3.0816      0.00000
     10       3.4512      0.00000

 k-point    94 :      -0.3571    0.4286    0.0714
  band No.  band energies     occupation 
      1     -47.1771      2.00000
      2     -47.1746      2.00000
      3     -47.1631      2.00000
      4     -47.1621      2.00000
      5      -1.4861      2.00000
      6      -0.7675      2.00000
      7       0.1719      0.54707
      8       0.8359      0.00000
      9       3.0824      0.00000
     10       3.4528      0.00000

 k-point    95 :       0.5000    0.3571    0.0714
  band No.  band energies     occupation 
      1     -47.1757      2.00000
      2     -47.1757      2.00000
      3     -47.1627      2.00000
      4     -47.1627      2.00000
      5      -1.1422      2.00000
      6      -1.1422      2.00000
      7       0.4732      0.00000
      8       0.4732      0.00000
      9       3.2957      0.00000
     10       3.2957      0.00000

 k-point    96 :      -0.3571    0.5000    0.0714
  band No.  band energies     occupation 
      1     -47.1757      2.00000
      2     -47.1757      2.00000
      3     -47.1627      2.00000
      4     -47.1627      2.00000
      5      -1.1422      2.00000
      6      -1.1422      2.00000
      7       0.4729      0.00000
      8       0.4729      0.00000
      9       3.2973      0.00000
     10       3.2973      0.00000

 k-point    97 :       0.4286    0.4286    0.0714
  band No.  band energies     occupation 
      1     -47.1761      2.00000
      2     -47.1748      2.00000
      3     -47.1633      2.00000
      4     -47.1627      2.00000
      5      -1.2004      2.00000
      6      -0.6654      2.00000
      7      -0.0904      2.00000
      8       0.4212      0.00000
      9       3.2969      0.00000
     10       3.5534      0.00000

 k-point    98 :       0.5000    0.4286    0.0714
  band No.  band energies     occupation 
      1     -47.1753      2.00000
      2     -47.1753      2.00000
      3     -47.1631      2.00000
      4     -47.1631      2.00000
      5      -0.8876      2.00000
      6      -0.8876      2.00000
      7       0.0710      2.00000
      8       0.0710      2.00000
      9       3.4889      0.00000
     10       3.4889      0.00000

 k-point    99 :      -0.4286    0.5000    0.0714
  band No.  band energies     occupation 
      1     -47.1753      2.00000
      2     -47.1753      2.00000
      3     -47.1631      2.00000
      4     -47.1631      2.00000
      5      -0.8876      2.00000
      6      -0.8876      2.00000
      7       0.0710      2.00000
      8       0.0710      2.00000
      9       3.4896      0.00000
     10       3.4896      0.00000

 k-point   100 :       0.5000    0.5000    0.0714
  band No.  band energies     occupation 
      1     -47.1751      2.00000
      2     -47.1751      2.00000
      3     -47.1633      2.00000
      4     -47.1633      2.00000
      5      -0.7284      2.00000
      6      -0.7284      2.00000
      7      -0.1380      2.00000
      8      -0.1380      2.00000
      9       3.5859      0.00000
     10       3.5859      0.00000

 k-point   101 :       0.1429    0.1429    0.1429
  band No.  band energies     occupation 
      1     -47.1851      2.00000
      2     -47.1683      2.00000
      3     -47.1634      2.00000
      4     -47.1600      2.00000
      5      -2.8505      2.00000
      6       0.8664      0.00000
      7       0.9802      0.00000
      8       1.2106      0.00000
      9       2.9354      0.00000
     10       3.7149      0.00000

 k-point   102 :       0.2143    0.1429    0.1429
  band No.  band energies     occupation 
      1     -47.1841      2.00000
      2     -47.1695      2.00000
      3     -47.1634      2.00000
      4     -47.1600      2.00000
      5      -2.7127      2.00000
      6       0.3582      0.00000
      7       1.0598      0.00000
      8       1.2581      0.00000
      9       2.9427      0.00000
     10       3.7584      0.00000

 k-point   103 :       0.2857    0.1429    0.1429
  band No.  band energies     occupation 
      1     -47.1827      2.00000
      2     -47.1710      2.00000
      3     -47.1631      2.00000
      4     -47.1601      2.00000
      5      -2.5197      2.00000
      6      -0.2053      2.00000
      7       1.2295      0.00000
      8       1.3943      0.00000
      9       2.8593      0.00000
     10       3.6000      0.00000

 k-point   104 :       0.3571    0.1429    0.1429
  band No.  band energies     occupation 
      1     -47.1810      2.00000
      2     -47.1729      2.00000
      3     -47.1626      2.00000
      4     -47.1604      2.00000
      5      -2.2713      2.00000
      6      -0.7253      2.00000
      7       1.4250      0.00000
      8       1.5641      0.00000
      9       2.7227      0.00000
     10       3.2905      0.00000

 k-point   105 :       0.4286    0.1429    0.1429
  band No.  band energies     occupation 
      1     -47.1791      2.00000
      2     -47.1750      2.00000
      3     -47.1620      2.00000
      4     -47.1608      2.00000
      5      -1.9674      2.00000
      6      -1.1937      2.00000
      7       1.6151      0.00000
      8       1.7189      0.00000
      9       2.6169      0.00000
     10       2.9457      0.00000

 k-point   106 :       0.5000    0.1429    0.1429
  band No.  band energies     occupation 
      1     -47.1771      2.00000
      2     -47.1771      2.00000
      3     -47.1614      2.00000
      4     -47.1614      2.00000
      5      -1.6081      2.00000
      6      -1.6081      2.00000
      7       1.7440      0.00000
      8       1.7440      0.00000
      9       2.6824      0.00000
     10       2.6824      0.00000

 k-point   107 :       0.2143    0.2143    0.1429
  band No.  band energies     occupation 
      1     -47.1831      2.00000
      2     -47.1702      2.00000
      3     -47.1636      2.00000
      4     -47.1601      2.00000
      5      -2.5752      2.00000
      6       0.3536      0.00000
      7       0.6629      0.00000
      8       1.2883      0.00000
      9       2.9256      0.00000
     10       3.7367      0.00000

 k-point   108 :       0.2857    0.2143    0.1429
  band No.  band energies     occupation 
      1     -47.1818      2.00000
      2     -47.1713      2.00000
      3     -47.1634      2.00000
      4     -47.1603      2.00000
      5      -2.3827      2.00000
      6      -0.0979      2.00000
      7       0.7319      0.00000
      8       1.4142      0.00000
      9       2.7833      0.00000
     10       3.5236      0.00000

 k-point   109 :      -0.2143    0.2857    0.1429
  band No.  band energies     occupation 
      1     -47.1818      2.00000
      2     -47.1713      2.00000
      3     -47.1634      2.00000
      4     -47.1603      2.00000
      5      -2.3827      2.00000
      6      -0.0978      2.00000
      7       0.7317      0.00000
      8       1.4144      0.00000
      9       2.7831      0.00000
     10       3.5246      0.00000

 k-point   110 :       0.3571    0.2143    0.1429
  band No.  band energies     occupation 
      1     -47.1802      2.00000
      2     -47.1729      2.00000
      3     -47.1631      2.00000
      4     -47.1607      2.00000
      5      -2.1350      2.00000
      6      -0.6018      2.00000
      7       0.9378      0.00000
      8       1.5379      0.00000
      9       2.5865      0.00000
     10       3.2086      0.00000

 k-point   111 :      -0.2143    0.3571    0.1429
  band No.  band energies     occupation 
      1     -47.1802      2.00000
      2     -47.1729      2.00000
      3     -47.1631      2.00000
      4     -47.1607      2.00000
      5      -2.1350      2.00000
      6      -0.6018      2.00000
      7       0.9374      0.00000
      8       1.5382      0.00000
      9       2.5862      0.00000
     10       3.2103      0.00000

 k-point   112 :       0.4286    0.2143    0.1429
  band No.  band energies     occupation 
      1     -47.1784      2.00000
      2     -47.1747      2.00000
      3     -47.1625      2.00000
      4     -47.1613      2.00000
      5      -1.8323      2.00000
      6      -1.0639      2.00000
      7       1.1796      0.00000
      8       1.5645      0.00000
      9       2.4893      0.00000
     10       2.8798      0.00000

 k-point   113 :      -0.2143    0.4286    0.1429
  band No.  band energies     occupation 
      1     -47.1784      2.00000
      2     -47.1747      2.00000
      3     -47.1625      2.00000
      4     -47.1613      2.00000
      5      -1.8323      2.00000
      6      -1.0639      2.00000
      7       1.1791      0.00000
      8       1.5645      0.00000
      9       2.4895      0.00000
     10       2.8815      0.00000

 k-point   114 :       0.5000    0.2143    0.1429
  band No.  band energies     occupation 
      1     -47.1765      2.00000
      2     -47.1765      2.00000
      3     -47.1619      2.00000
      4     -47.1619      2.00000
      5      -1.4750      2.00000
      6      -1.4750      2.00000
      7       1.4169      0.00000
      8       1.4169      0.00000
      9       2.6099      0.00000
     10       2.6099      0.00000

 k-point   115 :      -0.2143    0.5000    0.1429
  band No.  band energies     occupation 
      1     -47.1765      2.00000
      2     -47.1765      2.00000
      3     -47.1619      2.00000
      4     -47.1619      2.00000
      5      -1.4749      2.00000
      6      -1.4749      2.00000
      7       1.4164      0.00000
      8       1.4164      0.00000
      9       2.6110      0.00000
     10       2.6110      0.00000

 k-point   116 :       0.2857    0.2857    0.1429
  band No.  band energies     occupation 
      1     -47.1806      2.00000
      2     -47.1719      2.00000
      3     -47.1636      2.00000
      4     -47.1607      2.00000
      5      -2.1909      2.00000
      6      -0.0800      2.00000
      7       0.3447      0.00000
      8       1.4888      0.00000
      9       2.5740      0.00000
     10       3.4483      0.00000

 k-point   117 :       0.3571    0.2857    0.1429
  band No.  band energies     occupation 
      1     -47.1792      2.00000
      2     -47.1730      2.00000
      3     -47.1635      2.00000
      4     -47.1612      2.00000
      5      -1.9446      2.00000
      6      -0.4490      2.00000
      7       0.4334      0.00000
      8       1.4667      0.00000
      9       2.4238      0.00000
     10       3.2762      0.00000

 k-point   118 :      -0.2857    0.3571    0.1429
  band No.  band energies     occupation 
      1     -47.1792      2.00000
      2     -47.1730      2.00000
      3     -47.1635      2.00000
      4     -47.1612      2.00000
      5      -1.9446      2.00000
      6      -0.4490      2.00000
      7       0.4331      0.00000
      8       1.4667      0.00000
      9       2.4238      0.00000
     10       3.2777      0.00000

 k-point   119 :       0.4286    0.2857    0.1429
  band No.  band energies     occupation 
      1     -47.1776      2.00000
      2     -47.1743      2.00000
      3     -47.1631      2.00000
      4     -47.1619      2.00000
      5      -1.6442      2.00000
      6      -0.8883      2.00000
      7       0.6827      0.00000
      8       1.2669      0.00000
      9       2.4893      0.00000
     10       2.9971      0.00000

 k-point   120 :      -0.2857    0.4286    0.1429
  band No.  band energies     occupation 
      1     -47.1776      2.00000
      2     -47.1743      2.00000
      3     -47.1631      2.00000
      4     -47.1619      2.00000
      5      -1.6442      2.00000
      6      -0.8882      2.00000
      7       0.6824      0.00000
      8       1.2667      0.00000
      9       2.4900      0.00000
     10       2.9988      0.00000

 k-point   121 :       0.5000    0.2857    0.1429
  band No.  band energies     occupation 
      1     -47.1759      2.00000
      2     -47.1759      2.00000
      3     -47.1625      2.00000
      4     -47.1625      2.00000
      5      -1.2910      2.00000
      6      -1.2910      2.00000
      7       0.9758      0.00000
      8       0.9758      0.00000
      9       2.7106      0.00000
     10       2.7106      0.00000

 k-point   122 :      -0.2857    0.5000    0.1429
  band No.  band energies     occupation 
      1     -47.1759      2.00000
      2     -47.1759      2.00000
      3     -47.1625      2.00000
      4     -47.1625      2.00000
      5      -1.2909      2.00000
      6      -1.2909      2.00000
      7       0.9754      0.00000
      8       0.9754      0.00000
      9       2.7118      0.00000
     10       2.7118      0.00000

 k-point   123 :       0.3571    0.3571    0.1429
  band No.  band energies     occupation 
      1     -47.1779      2.00000
      2     -47.1734      2.00000
      3     -47.1637      2.00000
      4     -47.1618      2.00000
      5      -1.7007      2.00000
      6      -0.3923      2.00000
      7       0.1109      1.99980
      8       1.2159      0.00000
      9       2.4532      0.00000
     10       3.3303      0.00000

 k-point   124 :       0.4286    0.3571    0.1429
  band No.  band energies     occupation 
      1     -47.1766      2.00000
      2     -47.1742      2.00000
      3     -47.1635      2.00000
      4     -47.1625      2.00000
      5      -1.4048      2.00000
      6      -0.6861      2.00000
      7       0.2325      0.00000
      8       0.8722      0.00000
      9       2.6398      0.00000
     10       3.1761      0.00000

 k-point   125 :      -0.3571    0.4286    0.1429
  band No.  band energies     occupation 
      1     -47.1766      2.00000
      2     -47.1742      2.00000
      3     -47.1635      2.00000
      4     -47.1625      2.00000
      5      -1.4048      2.00000
      6      -0.6860      2.00000
      7       0.2324      0.00000
      8       0.8720      0.00000
      9       2.6402      0.00000
     10       3.1773      0.00000

 k-point   126 :       0.5000    0.3571    0.1429
  band No.  band energies     occupation 
      1     -47.1753      2.00000
      2     -47.1753      2.00000
      3     -47.1631      2.00000
      4     -47.1631      2.00000
      5      -1.0612      2.00000
      6      -1.0612      2.00000
      7       0.5278      0.00000
      8       0.5278      0.00000
      9       2.9020      0.00000
     10       2.9020      0.00000

 k-point   127 :      -0.3571    0.5000    0.1429
  band No.  band energies     occupation 
      1     -47.1753      2.00000
      2     -47.1753      2.00000
      3     -47.1631      2.00000
      4     -47.1631      2.00000
      5      -1.0612      2.00000
      6      -1.0612      2.00000
      7       0.5276      0.00000
      8       0.5276      0.00000
      9       2.9029      0.00000
     10       2.9029      0.00000

 k-point   128 :       0.4286    0.4286    0.1429
  band No.  band energies     occupation 
      1     -47.1757      2.00000
      2     -47.1744      2.00000
      3     -47.1637      2.00000
      4     -47.1631      2.00000
      5      -1.1190      2.00000
      6      -0.5805      2.00000
      7      -0.0305      2.00000
      8       0.4759      0.00000
      9       2.8720      0.00000
     10       3.2882      0.00000

 k-point   129 :       0.5000    0.4286    0.1429
  band No.  band energies     occupation 
      1     -47.1749      2.00000
      2     -47.1749      2.00000
      3     -47.1635      2.00000
      4     -47.1635      2.00000
      5      -0.8053      2.00000
      6      -0.8053      2.00000
      7       0.1321      1.97335
      8       0.1321      1.97335
      9       3.1326      0.00000
     10       3.1326      0.00000

 k-point   130 :      -0.4286    0.5000    0.1429
  band No.  band energies     occupation 
      1     -47.1749      2.00000
      2     -47.1749      2.00000
      3     -47.1635      2.00000
      4     -47.1635      2.00000
      5      -0.8053      2.00000
      6      -0.8053      2.00000
      7       0.1320      1.97364
      8       0.1320      1.97364
      9       3.1330      0.00000
     10       3.1330      0.00000

 k-point   131 :       0.5000    0.5000    0.1429
  band No.  band energies     occupation 
      1     -47.1747      2.00000
      2     -47.1747      2.00000
      3     -47.1637      2.00000
      4     -47.1637      2.00000
      5      -0.6433      2.00000
      6      -0.6433      2.00000
      7      -0.0777      2.00000
      8      -0.0777      2.00000
      9       3.2766      0.00000
     10       3.2766      0.00000

 k-point   132 :       0.2143    0.2143    0.2143
  band No.  band energies     occupation 
      1     -47.1822      2.00000
      2     -47.1706      2.00000
      3     -47.1639      2.00000
      4     -47.1603      2.00000
      5      -2.4380      2.00000
      6       0.4154      0.00000
      7       0.6101      0.00000
      8       0.9285      0.00000
      9       2.9238      0.00000
     10       3.6960      0.00000

 k-point   133 :       0.2857    0.2143    0.2143
  band No.  band energies     occupation 
      1     -47.1809      2.00000
      2     -47.1714      2.00000
      3     -47.1639      2.00000
      4     -47.1606      2.00000
      5      -2.2458      2.00000
      6       0.0161      2.00000
      7       0.7131      0.00000
      8       0.9909      0.00000
      9       2.7845      0.00000
     10       3.3865      0.00000

 k-point   134 :       0.3571    0.2143    0.2143
  band No.  band energies     occupation 
      1     -47.1794      2.00000
      2     -47.1727      2.00000
      3     -47.1636      2.00000
      4     -47.1611      2.00000
      5      -1.9988      2.00000
      6      -0.4768      2.00000
      7       0.9277      0.00000
      8       1.1377      0.00000
      9       2.5591      0.00000
     10       2.9471      0.00000

 k-point   135 :       0.4286    0.2143    0.2143
  band No.  band energies     occupation 
      1     -47.1777      2.00000
      2     -47.1743      2.00000
      3     -47.1631      2.00000
      4     -47.1617      2.00000
      5      -1.6972      2.00000
      6      -0.9336      2.00000
      7       1.1515      0.00000
      8       1.2763      0.00000
      9       2.3607      0.00000
     10       2.5621      0.00000

 k-point   136 :       0.5000    0.2143    0.2143
  band No.  band energies     occupation 
      1     -47.1760      2.00000
      2     -47.1760      2.00000
      3     -47.1624      2.00000
      4     -47.1624      2.00000
      5      -1.3417      2.00000
      6      -1.3417      2.00000
      7       1.3001      0.00000
      8       1.3001      0.00000
      9       2.3358      0.00000
     10       2.3358      0.00000

 k-point   137 :       0.2857    0.2857    0.2143
  band No.  band energies     occupation 
      1     -47.1798      2.00000
      2     -47.1718      2.00000
      3     -47.1642      2.00000
      4     -47.1611      2.00000
      5      -2.0544      2.00000
      6       0.0495      2.00000
      7       0.4148      0.00000
      8       1.0236      0.00000
      9       2.6119      0.00000
     10       3.2467      0.00000

 k-point   138 :       0.3571    0.2857    0.2143
  band No.  band energies     occupation 
      1     -47.1784      2.00000
      2     -47.1727      2.00000
      3     -47.1641      2.00000
      4     -47.1617      2.00000
      5      -1.8086      2.00000
      6      -0.3203      2.00000
      7       0.5173      0.00000
      8       1.1330      0.00000
      9       2.3472      0.00000
     10       2.9381      0.00000

 k-point   139 :      -0.2857    0.3571    0.2143
  band No.  band energies     occupation 
      1     -47.1784      2.00000
      2     -47.1727      2.00000
      3     -47.1641      2.00000
      4     -47.1617      2.00000
      5      -1.8086      2.00000
      6      -0.3203      2.00000
      7       0.5171      0.00000
      8       1.1331      0.00000
      9       2.3470      0.00000
     10       2.9389      0.00000

 k-point   140 :       0.4286    0.2857    0.2143
  band No.  band energies     occupation 
      1     -47.1769      2.00000
      2     -47.1739      2.00000
      3     -47.1637      2.00000
      4     -47.1624      2.00000
      5      -1.5092      2.00000
      6      -0.7571      2.00000
      7       0.7547      0.00000
      8       1.1519      0.00000
      9       2.2037      0.00000
     10       2.5813      0.00000

 k-point   141 :      -0.2857    0.4286    0.2143
  band No.  band energies     occupation 
      1     -47.1769      2.00000
      2     -47.1739      2.00000
      3     -47.1637      2.00000
      4     -47.1624      2.00000
      5      -1.5092      2.00000
      6      -0.7571      2.00000
      7       0.7545      0.00000
      8       1.1519      0.00000
      9       2.2037      0.00000
     10       2.5821      0.00000

 k-point   142 :       0.5000    0.2857    0.2143
  band No.  band energies     occupation 
      1     -47.1753      2.00000
      2     -47.1753      2.00000
      3     -47.1631      2.00000
      4     -47.1631      2.00000
      5      -1.1575      2.00000
      6      -1.1575      2.00000
      7       0.9983      0.00000
      8       0.9983      0.00000
      9       2.3044      0.00000
     10       2.3044      0.00000

 k-point   143 :      -0.2857    0.5000    0.2143
  band No.  band energies     occupation 
      1     -47.1753      2.00000
      2     -47.1753      2.00000
      3     -47.1631      2.00000
      4     -47.1631      2.00000
      5      -1.1575      2.00000
      6      -1.1575      2.00000
      7       0.9981      0.00000
      8       0.9981      0.00000
      9       2.3049      0.00000
     10       2.3049      0.00000

 k-point   144 :       0.3571    0.3571    0.2143
  band No.  band energies     occupation 
      1     -47.1772      2.00000
      2     -47.1729      2.00000
      3     -47.1643      2.00000
      4     -47.1624      2.00000
      5      -1.5652      2.00000
      6      -0.2556      2.00000
      7       0.2018      0.00666
      8       1.0989      0.00000
      9       2.1667      0.00000
     10       3.0061      0.00000

 k-point   145 :       0.4286    0.3571    0.2143
  band No.  band energies     occupation 
      1     -47.1759      2.00000
      2     -47.1736      2.00000
      3     -47.1642      2.00000
      4     -47.1631      2.00000
      5      -1.2701      2.00000
      6      -0.5525      2.00000
      7       0.3265      0.00000
      8       0.8954      0.00000
      9       2.2219      0.00000
     10       2.7640      0.00000

 k-point   146 :      -0.3571    0.4286    0.2143
  band No.  band energies     occupation 
      1     -47.1759      2.00000
      2     -47.1736      2.00000
      3     -47.1642      2.00000
      4     -47.1631      2.00000
      5      -1.2701      2.00000
      6      -0.5525      2.00000
      7       0.3263      0.00000
      8       0.8953      0.00000
      9       2.2221      0.00000
     10       2.7646      0.00000

 k-point   147 :       0.5000    0.3571    0.2143
  band No.  band energies     occupation 
      1     -47.1746      2.00000
      2     -47.1746      2.00000
      3     -47.1637      2.00000
      4     -47.1637      2.00000
      5      -0.9275      2.00000
      6      -0.9275      2.00000
      7       0.6048      0.00000
      8       0.6048      0.00000
      9       2.4525      0.00000
     10       2.4525      0.00000

 k-point   148 :      -0.3571    0.5000    0.2143
  band No.  band energies     occupation 
      1     -47.1746      2.00000
      2     -47.1746      2.00000
      3     -47.1637      2.00000
      4     -47.1637      2.00000
      5      -0.9275      2.00000
      6      -0.9275      2.00000
      7       0.6046      0.00000
      8       0.6046      0.00000
      9       2.4529      0.00000
     10       2.4529      0.00000

 k-point   149 :       0.4286    0.4286    0.2143
  band No.  band energies     occupation 
      1     -47.1749      2.00000
      2     -47.1737      2.00000
      3     -47.1644      2.00000
      4     -47.1637      2.00000
      5      -0.9845      2.00000
      6      -0.4414      2.00000
      7       0.0655      2.00000
      8       0.5535      0.00000
      9       2.4130      0.00000
     10       2.9128      0.00000

 k-point   150 :       0.5000    0.4286    0.2143
  band No.  band energies     occupation 
      1     -47.1741      2.00000
      2     -47.1741      2.00000
      3     -47.1642      2.00000
      4     -47.1642      2.00000
      5      -0.6700      2.00000
      6      -0.6700      2.00000
      7       0.2280      0.00000
      8       0.2280      0.00000
      9       2.6901      0.00000
     10       2.6901      0.00000

 k-point   151 :      -0.4286    0.5000    0.2143
  band No.  band energies     occupation 
      1     -47.1741      2.00000
      2     -47.1741      2.00000
      3     -47.1642      2.00000
      4     -47.1642      2.00000
      5      -0.6700      2.00000
      6      -0.6700      2.00000
      7       0.2279      0.00001
      8       0.2279      0.00001
      9       2.6904      0.00000
     10       2.6904      0.00000

 k-point   152 :       0.5000    0.5000    0.2143
  band No.  band energies     occupation 
      1     -47.1740      2.00000
      2     -47.1740      2.00000
      3     -47.1645      2.00000
      4     -47.1645      2.00000
      5      -0.5037      2.00000
      6      -0.5037      2.00000
      7       0.0193      2.00000
      8       0.0193      2.00000
      9       2.8836      0.00000
     10       2.8836      0.00000

 k-point   153 :       0.2857    0.2857    0.2857
  band No.  band energies     occupation 
      1     -47.1787      2.00000
      2     -47.1719      2.00000
      3     -47.1646      2.00000
      4     -47.1617      2.00000
      5      -1.8636      2.00000
      6       0.1516      1.59512
      7       0.3957      0.00000
      8       0.7446      0.00000
      9       2.5950      0.00000
     10       3.0587      0.00000

 k-point   154 :       0.3571    0.2857    0.2857
  band No.  band energies     occupation 
      1     -47.1774      2.00000
      2     -47.1724      2.00000
      3     -47.1647      2.00000
      4     -47.1623      2.00000
      5      -1.6190      2.00000
      6      -0.1571      2.00000
      7       0.5228      0.00000
      8       0.8137      0.00000
      9       2.3696      0.00000
     10       2.6192      0.00000

 k-point   155 :       0.4286    0.2857    0.2857
  band No.  band energies     occupation 
      1     -47.1760      2.00000
      2     -47.1733      2.00000
      3     -47.1644      2.00000
      4     -47.1630      2.00000
      5      -1.3215      2.00000
      6      -0.5795      2.00000
      7       0.7492      0.00000
      8       0.9222      0.00000
      9       2.1299      0.00000
     10       2.2412      0.00000

 k-point   156 :       0.5000    0.2857    0.2857
  band No.  band energies     occupation 
      1     -47.1746      2.00000
      2     -47.1746      2.00000
      3     -47.1638      2.00000
      4     -47.1638      2.00000
      5      -0.9734      2.00000
      6      -0.9734      2.00000
      7       0.9172      0.00000
      8       0.9172      0.00000
      9       2.0560      0.00000
     10       2.0560      0.00000

 k-point   157 :       0.3571    0.3571    0.2857
  band No.  band energies     occupation 
      1     -47.1762      2.00000
      2     -47.1724      2.00000
      3     -47.1650      2.00000
      4     -47.1631      2.00000
      5      -1.3765      2.00000
      6      -0.0766      2.00000
      7       0.3032      0.00000
      8       0.8271      0.00000
      9       2.1301      0.00000
     10       2.6342      0.00000

 k-point   158 :       0.4286    0.3571    0.2857
  band No.  band energies     occupation 
      1     -47.1750      2.00000
      2     -47.1729      2.00000
      3     -47.1650      2.00000
      4     -47.1638      2.00000
      5      -1.0833      2.00000
      6      -0.3724      2.00000
      7       0.4339      0.00000
      8       0.8251      0.00000
      9       1.9713      0.00000
     10       2.3374      0.00000

 k-point   159 :      -0.3571    0.4286    0.2857
  band No.  band energies     occupation 
      1     -47.1750      2.00000
      2     -47.1729      2.00000
      3     -47.1650      2.00000
      4     -47.1638      2.00000
      5      -1.0833      2.00000
      6      -0.3724      2.00000
      7       0.4338      0.00000
      8       0.8251      0.00000
      9       1.9713      0.00000
     10       2.3376      0.00000

 k-point   160 :       0.5000    0.3571    0.2857
  band No.  band energies     occupation 
      1     -47.1738      2.00000
      2     -47.1738      2.00000
      3     -47.1645      2.00000
      4     -47.1645      2.00000
      5      -0.7437      2.00000
      6      -0.7437      2.00000
      7       0.6669      0.00000
      8       0.6669      0.00000
      9       2.0630      0.00000
     10       2.0630      0.00000

 k-point   161 :      -0.3571    0.5000    0.2857
  band No.  band energies     occupation 
      1     -47.1738      2.00000
      2     -47.1738      2.00000
      3     -47.1645      2.00000
      4     -47.1645      2.00000
      5      -0.7436      2.00000
      6      -0.7436      2.00000
      7       0.6669      0.00000
      8       0.6669      0.00000
      9       2.0632      0.00000
     10       2.0632      0.00000

 k-point   162 :       0.4286    0.4286    0.2857
  band No.  band energies     occupation 
      1     -47.1740      2.00000
      2     -47.1728      2.00000
      3     -47.1653      2.00000
      4     -47.1646      2.00000
      5      -0.7992      2.00000
      6      -0.2539      2.00000
      7       0.1878      0.08474
      8       0.6187      0.00000
      9       2.0214      0.00000
     10       2.5183      0.00000

 k-point   163 :       0.5000    0.4286    0.2857
  band No.  band energies     occupation 
      1     -47.1732      2.00000
      2     -47.1732      2.00000
      3     -47.1652      2.00000
      4     -47.1652      2.00000
      5      -0.4856      2.00000
      6      -0.4856      2.00000
      7       0.3446      0.00000
      8       0.3446      0.00000
      9       2.2530      0.00000
     10       2.2531      0.00000

 k-point   164 :      -0.4286    0.5000    0.2857
  band No.  band energies     occupation 
      1     -47.1732      2.00000
      2     -47.1732      2.00000
      3     -47.1652      2.00000
      4     -47.1652      2.00000
      5      -0.4856      2.00000
      6      -0.4856      2.00000
      7       0.3446      0.00000
      8       0.3446      0.00000
      9       2.2531      0.00000
     10       2.2534      0.00000

 k-point   165 :       0.5000    0.5000    0.2857
  band No.  band energies     occupation 
      1     -47.1730      2.00000
      2     -47.1730      2.00000
      3     -47.1654      2.00000
      4     -47.1654      2.00000
      5      -0.3145      2.00000
      6      -0.3145      2.00000
      7       0.1449      1.80907
      8       0.1449      1.80907
      9       2.4818      0.00000
     10       2.5459      0.00000

 k-point   166 :       0.3571    0.3571    0.3571
  band No.  band energies     occupation 
      1     -47.1751      2.00000
      2     -47.1721      2.00000
      3     -47.1656      2.00000
      4     -47.1639      2.00000
      5      -1.1362      2.00000
      6       0.0683      2.00000
      7       0.3219      0.00000
      8       0.6310      0.00000
      9       2.1897      0.00000
     10       2.3585      0.00000

 k-point   167 :       0.4286    0.3571    0.3571
  band No.  band energies     occupation 
      1     -47.1739      2.00000
      2     -47.1722      2.00000
      3     -47.1658      2.00000
      4     -47.1647      2.00000
      5      -0.8470      2.00000
      6      -0.1622      2.00000
      7       0.4586      0.00000
      8       0.6647      0.00000
      9       1.9562      0.00000
     10       2.0078      0.00000

 k-point   168 :       0.5000    0.3571    0.3571
  band No.  band energies     occupation 
      1     -47.1729      2.00000
      2     -47.1729      2.00000
      3     -47.1654      2.00000
      4     -47.1654      2.00000
      5      -0.5155      2.00000
      6      -0.5155      2.00000
      7       0.6303      0.00000
      8       0.6303      0.00000
      9       1.8531      0.00000
     10       1.8531      0.00000

 k-point   169 :       0.4286    0.4286    0.3571
  band No.  band energies     occupation 
      1     -47.1729      2.00000
      2     -47.1719      2.00000
      3     -47.1663      2.00000
      4     -47.1656      2.00000
      5      -0.5670      2.00000
      6      -0.0328      2.00000
      7       0.3087      0.00000
      8       0.5997      0.00000
      9       1.8110      0.00000
     10       2.1516      0.00000

 k-point   170 :       0.5000    0.4286    0.3571
  band No.  band energies     occupation 
      1     -47.1722      2.00000
      2     -47.1722      2.00000
      3     -47.1662      2.00000
      4     -47.1662      2.00000
      5      -0.2600      2.00000
      6      -0.2600      2.00000
      7       0.4444      0.00000
      8       0.4444      0.00000
      9       1.8989      0.00000
     10       1.8996      0.00000

 k-point   171 :      -0.4286    0.5000    0.3571
  band No.  band energies     occupation 
      1     -47.1722      2.00000
      2     -47.1722      2.00000
      3     -47.1662      2.00000
      4     -47.1662      2.00000
      5      -0.2600      2.00000
      6      -0.2600      2.00000
      7       0.4444      0.00000
      8       0.4444      0.00000
      9       1.8990      0.00000
     10       1.8995      0.00000

 k-point   172 :       0.5000    0.5000    0.3571
  band No.  band energies     occupation 
      1     -47.1718      2.00000
      2     -47.1718      2.00000
      3     -47.1666      2.00000
      4     -47.1666      2.00000
      5      -0.0868      2.00000
      6      -0.0868      2.00000
      7       0.2790      0.00000
      8       0.2790      0.00000
      9       2.1201      0.00000
     10       2.1429      0.00000

 k-point   173 :       0.4286    0.4286    0.4286
  band No.  band energies     occupation 
      1     -47.1719      2.00000
      2     -47.1712      2.00000
      3     -47.1671      2.00000
      4     -47.1666      2.00000
      5      -0.2970      2.00000
      6       0.1466      1.76453
      7       0.3467      0.00000
      8       0.5187      0.00000
      9       1.8447      0.00000
     10       1.8602      0.00000

 k-point   174 :       0.5000    0.4286    0.4286
  band No.  band energies     occupation 
      1     -47.1711      2.00000
      2     -47.1711      2.00000
      3     -47.1673      2.00000
      4     -47.1673      2.00000
      5      -0.0141      2.00000
      6      -0.0141      2.00000
      7       0.4503      0.00000
      8       0.4503      0.00000
      9       1.7318      0.00000
     10       1.7980      0.00000

 k-point   175 :       0.5000    0.5000    0.4286
  band No.  band energies     occupation 
      1     -47.1706      2.00000
      2     -47.1706      2.00000
      3     -47.1678      2.00000
      4     -47.1678      2.00000
      5       0.1517      1.59042
      6       0.1517      1.59042
      7       0.3714      0.00000
      8       0.3714      0.00000
      9       1.8093      0.00000
     10       1.8233      0.00000

 k-point   176 :       0.5000    0.5000    0.5000
  band No.  band energies     occupation 
      1     -47.1693      2.00000
      2     -47.1693      2.00000
      3     -47.1693      2.00000
      4     -47.1693      2.00000
      5       0.3344      0.00000
      6       0.3344      0.00000
      7       0.3344      0.00000
      8       0.3344      0.00000
      9       1.6914      0.00000
     10       1.6914      0.00000


--------------------------------------------------------------------------------------------------------


 soft charge-density along one line, spin component            1
         0         1         2         3         4         5         6         7         8         9
 total charge-density along one line
 
 pseudopotential strength for first ion, spin component:            1
-41.508   2.653   0.000   0.000  -0.000
  2.653  -8.988   0.000   0.000  -0.000
  0.000   0.000   0.133   0.000  -0.000
  0.000   0.000   0.000   0.133  -0.000
 -0.000  -0.000  -0.000  -0.000   0.133
 total augmentation occupancy for first ion, spin component:            1
  2.001   0.003  -0.000  -0.000   0.000
  0.003   0.883  -0.000  -0.000   0.000
 -0.000  -0.000   0.016  -0.001   0.001
 -0.000  -0.000  -0.001   0.016   0.001
  0.000   0.000   0.001   0.001   0.016


------------------------ aborting loop because EDIFF is reached ----------------------------------------


    CHARGE:  cpu time      0.1935: real time      0.1939
    FORLOC:  cpu time      0.0025: real time      0.0026
    FORNL :  cpu time      0.9754: real time      0.9778
    STRESS:  cpu time      2.9337: real time      2.9413
    FORHAR:  cpu time      0.0018: real time      0.0018
    MIXING:  cpu time      0.0060: real time      0.0060
    OFIELD:  cpu time      0.0000: real time      0.0000

  FORCE on cell =-STRESS in cart. coord.  units (eV):
  Direction    XX          YY          ZZ          XY          YZ          ZX
  --------------------------------------------------------------------------------------
  Alpha Z     3.62607     3.62607     3.62607
  Ewald     -82.01933   -82.01933   -82.01933    -0.00000    -0.00000    -0.00000
  Hartree    59.57303    59.57303    59.57303    -0.00000    -0.00000    -0.00000
  E(xc)     -52.58362   -52.58362   -52.58362    -0.00000     0.00000     0.00000
  Local     -90.51269   -90.51269   -90.51269     0.00000     0.00000     0.00000
  n-local   -73.21312   -73.46428   -74.44664    -0.04006     0.14643    -0.04446
  augment    69.48348    69.48348    69.48348     0.00000     0.00000     0.00000
  Kinetic   168.33134   166.98447   161.09097    -0.65300     0.68095    -0.48553
  Fock        0.00000     0.00000     0.00000     0.00000     0.00000     0.00000
  -------------------------------------------------------------------------------------
  Total      -0.67215    -0.67215    -0.67215     0.00000     0.00000     0.00000
  in kB     -10.60205   -10.60205   -10.60205     0.00000     0.00000     0.00000
  external pressure =      -10.60 kB  Pullay stress =        0.00 kB


 VOLUME and BASIS-vectors are now :
 -----------------------------------------------------------------------------
  energy-cutoff  :      600.00
  volume of cell :      101.57
      direct lattice vectors                 reciprocal lattice vectors
     4.665829396  0.000000000  0.000000000     0.214324167  0.000000000  0.000000000
     0.000000000  4.665829396  0.000000000     0.000000000  0.214324167  0.000000000
     0.000000000  0.000000000  4.665829396     0.000000000  0.000000000  0.214324167

  length of vectors
     4.665829396  4.665829396  4.665829396     0.214324167  0.214324167  0.214324167


 FORCES acting on ions
    electron-ion (+dipol)            ewald-force                    non-local-force                 convergence-correction
 -----------------------------------------------------------------------------------------------
   0.243E-01 -.243E-01 -.243E-01   -.262E-01 0.262E-01 0.262E-01   -.236E-03 0.236E-03 0.236E-03   0.474E-05 -.474E-05 -.474E-05
   0.243E-01 0.243E-01 0.243E-01   -.262E-01 -.262E-01 -.262E-01   -.236E-03 -.236E-03 -.236E-03   0.474E-05 0.474E-05 0.474E-05
   -.243E-01 -.243E-01 0.243E-01   0.262E-01 0.262E-01 -.262E-01   0.236E-03 0.236E-03 -.236E-03   -.474E-05 -.474E-05 0.474E-05
   -.243E-01 0.243E-01 -.243E-01   0.262E-01 -.262E-01 0.262E-01   0.236E-03 -.236E-03 0.236E-03   -.474E-05 0.474E-05 -.474E-05
 -----------------------------------------------------------------------------------------------
   -.310E-08 -.440E-08 0.507E-11   -.101E-15 0.250E-15 0.173E-16   0.298E-18 -.434E-18 -.434E-18   -.518E-14 0.563E-15 -.147E-13
 
 
 POSITION                                       TOTAL-FORCE (eV/Angst)
 -----------------------------------------------------------------------------------
      4.08013      0.58570      2.91862        -0.002108      0.002108      0.002108
      1.74721      1.74721      1.74721        -0.002108     -0.002108     -0.002108
      0.58570      2.91862      4.08013         0.002108      0.002108     -0.002108
      2.91862      4.08013      0.58570         0.002108     -0.002108      0.002108
 -----------------------------------------------------------------------------------
    total drift:                               -0.000000     -0.000000      0.000000


--------------------------------------------------------------------------------------------------------



  FREE ENERGIE OF THE ION-ELECTRON SYSTEM (eV)
  ---------------------------------------------------
  free  energy   TOTEN  =        -6.53322343 eV

  energy  without entropy=       -6.53284496  energy(sigma->0) =       -6.53303419
 


--------------------------------------------------------------------------------------------------------


    POTLOK:  cpu time      0.0112: real time      0.0112


--------------------------------------------------------------------------------------------------------


     LOOP+:  cpu time     30.5107: real time     30.6043
    4ORBIT:  cpu time      0.0000: real time      0.0000

 total amount of memory used by VASP MPI-rank0   173791. kBytes
=======================================================================

   base                                    :      30000. kBytes
   nonlr-proj                              :        694. kBytes
   fftplans                                :      17864. kBytes
   grid                                    :      27571. kBytes
   one-center                              :          4. kBytes
   wavefun                                 :      97658. kBytes
 
  
  
 General timing and accounting informations for this job:
 ========================================================
  
                  Total CPU time used (sec):       32.616
                            User time (sec):       31.965
                          System time (sec):        0.651
                         Elapsed time (sec):       32.748
  
                   Maximum memory used (kb):     1479152.
                   Average memory used (kb):          N/A
  
                          Minor page faults:       310405
                          Major page faults:          523
                 Voluntary context switches:         1437
