       N       E                     dE             d eps       ncg     rms          rms(c)
DAV:   1     0.334461013972E+02    0.33446E+02   -0.67728E+03  3520   0.127E+03
DAV:   2     0.553185826574E+01   -0.27914E+02   -0.27446E+02  3694   0.197E+02
DAV:   3    -0.598108207873E+01   -0.11513E+02   -0.11400E+02  6914   0.675E+01
DAV:   4    -0.653118826817E+01   -0.55011E+00   -0.54939E+00  4136   0.260E+01
DAV:   5    -0.658721509788E+01   -0.56027E-01   -0.56010E-01  6082   0.530E+00    0.528E-01
DAV:   6    -0.658007265773E+01    0.71424E-02   -0.93791E-03  4750   0.100E+00    0.312E-01
DAV:   7    -0.657597952952E+01    0.40931E-02   -0.11228E-02  6712   0.549E-01    0.117E-01
DAV:   8    -0.657598859165E+01   -0.90621E-05   -0.51708E-04  4060   0.250E-01    0.320E-02
DAV:   9    -0.657597626708E+01    0.12325E-04   -0.56374E-05  5132   0.701E-02    0.809E-03
DAV:  10    -0.657597702952E+01   -0.76243E-06   -0.24081E-06  4290   0.175E-02
   1 F= -.65759770E+01 E0= -.65758270E+01  d E =-.300050E-03
