LCHARG  =  .FALSE.
LWAVE  =  .FALSE.
ISTART = 0    #  job   : 0-new  1- orbitals from WAVECAR
ICHARG = 2    #  charge: 1-file 2-atom 10-const

KSPACING = 0.2
KGAMMA = .TRUE.
GGA = PE

ENCUT = 600
ALGO =  Normal    # alorithm for electron optimization, can be also FAST or ALL
NELM = 120        # of ELM steps, sometimes default is too small 
EDIFF = 1E-04
SIGMA = 0.02; 
  ISMEAR =  0   #! broadening in eV, -4-tet -1-fermi 0-gaus
PREC = Accurate
LREAL  =    A      # real space projection; slightly less accurate but faster 

NSW = 2000       # number of steps for IOM
IBRION = 2        # CG for ions, often 1 (RMM-DISS) is faster
ISIF = 3
EDIFFG =  -1E-02   # stopping-criterion for IOM (all forces smaller 1E-2)
POTIM  = 1      # step for ionic-motion (for MD in fs)


#  KPAR   =    4      # make 4 groups, each group working on one set of k-points 
#  NCORE  =    4      # one orbital handled by 4 cores 
