  PAW_PBE Li_sv 10Sep2004                
   3.00000000000000     
 parameters from PSCTR are:
   VRHFIN =Li: 1s2s2p
   LEXCH  = PE
   EATOM  =   202.7858 eV,   14.9043 Ry

   TITEL  = PAW_PBE Li_sv 10Sep2004
   LULTRA =        F    use ultrasoft PP ?
   IUNSCR =        0    unscreen: 0-lin 1-nonlin 2-no
   RPACOR =    0.000    partial core radius
   POMASS =    7.010; ZVAL   =    3.000    mass and valenz
   RCORE  =    1.700    outmost cutoff radius
   RWIGS  =    2.050; RWIGS  =    1.085    wigner-seitz radius (au A)
   ENMAX  =  499.034; ENMIN  =  374.276 eV
   ICORE  =        2    local potential
   LCOR   =        T    correct aug charges
   LPAW   =        T    paw PP
   EAUG   =  628.945
   RMAX   =    1.732    core radius for proj-oper
   RAUG   =    1.300    factor for augmentation sphere
   RDEP   =    1.728    radius for radial grids
   RDEPT  =    1.329    core radius for aug-charge
 
   Atomic configuration
    4 entries
     n  l   j            E        occ.
     1  0  0.50       -51.8549   2.0000
     2  0  0.50        -2.8742   1.0000
     2  1  0.50        -1.3606   0.0000
     3  2  1.50        -1.3606   0.0000
   Description
     l       E           TYP  RCUT    TYP  RCUT
     0    -51.8548813     23  1.400
     0     -2.8742052     23  1.700
     1     -1.3605826     23  1.400
     2     -1.3605826     23  1.400
   Error from kinetic energy argument (eV)
   NDATA  =      100
   STEP   =   20.000   1.050
  58.3      57.8      57.5      56.8      56.5      55.8      55.0      54.6
  53.8      53.0      52.6      51.7      50.7      49.8      48.8      47.8
  46.8      45.8      44.7      43.1      42.0      40.9      39.3      38.2
  37.1      35.4      33.8      32.7      31.1      29.5      27.9      26.4
  24.9      23.4      22.0      20.6      18.9      17.6      16.0      14.8
  13.4      12.0      10.8      9.59      8.50      7.50      6.59      5.56
  4.82      4.00      3.29      2.79      2.25      1.80      1.35      1.05
 0.799     0.567     0.392     0.265     0.174     0.111     0.700E-01 0.407E-01
 0.266E-01 0.180E-01 0.142E-01 0.127E-01 0.118E-01 0.110E-01 0.958E-02 0.784E-02
 0.601E-02 0.434E-02 0.287E-02 0.199E-02 0.143E-02 0.121E-02 0.115E-02 0.114E-02
 0.108E-02 0.940E-03 0.751E-03 0.538E-03 0.367E-03 0.261E-03 0.214E-03 0.202E-03
 0.200E-03 0.186E-03 0.155E-03 0.119E-03 0.824E-04 0.610E-04 0.510E-04 0.480E-04
 0.448E-04 0.386E-04 0.294E-04 0.218E-04
END of PSCTR-controll parameters
 local part
   109.604107337578     
  0.76732912E+01  0.76711766E+01  0.76671017E+01  0.76603243E+01  0.76508652E+01
  0.76387532E+01  0.76240248E+01  0.76067238E+01  0.75869009E+01  0.75646133E+01
  0.75399242E+01  0.75129026E+01  0.74836229E+01  0.74521645E+01  0.74186117E+01
  0.73830535E+01  0.73455832E+01  0.73062984E+01  0.72653007E+01  0.72226955E+01
  0.71785918E+01  0.71331018E+01  0.70863403E+01  0.70384249E+01  0.69894750E+01
  0.69396112E+01  0.68889554E+01  0.68376298E+01  0.67857565E+01  0.67334569E+01
  0.66808513E+01  0.66280585E+01  0.65751952E+01  0.65223757E+01  0.64697115E+01
  0.64173110E+01  0.63652789E+01  0.63137161E+01  0.62627194E+01  0.62123809E+01
  0.61627881E+01  0.61140230E+01  0.60661626E+01  0.60192777E+01  0.59734335E+01
  0.59286886E+01  0.58850954E+01  0.58426998E+01  0.58015406E+01  0.57616501E+01
  0.57230537E+01  0.56857696E+01  0.56498092E+01  0.56151773E+01  0.55818713E+01
  0.55498822E+01  0.55191941E+01  0.54897848E+01  0.54616252E+01  0.54346803E+01
  0.54089088E+01  0.53842636E+01  0.53606919E+01  0.53381354E+01  0.53165310E+01
  0.52958105E+01  0.52759014E+01  0.52567272E+01  0.52382074E+01  0.52202587E+01
  0.52027943E+01  0.51857252E+01  0.51689603E+01  0.51524068E+01  0.51359705E+01
  0.51195564E+01  0.51030693E+01  0.50864137E+01  0.50694947E+01  0.50522182E+01
  0.50344915E+01  0.50162234E+01  0.49973251E+01  0.49777102E+01  0.49572951E+01
  0.49359997E+01  0.49137476E+01  0.48904662E+01  0.48660874E+01  0.48405478E+01
  0.48137886E+01  0.47857566E+01  0.47564036E+01  0.47256873E+01  0.46935711E+01
  0.46600242E+01  0.46250222E+01  0.45885467E+01  0.45505857E+01  0.45111336E+01
  0.44701909E+01  0.44277648E+01  0.43838688E+01  0.43385227E+01  0.42917525E+01
  0.42435903E+01  0.41940741E+01  0.41432479E+01  0.40911611E+01  0.40378686E+01
  0.39834305E+01  0.39279116E+01  0.38713817E+01  0.38139146E+01  0.37555883E+01
  0.36964844E+01  0.36366879E+01  0.35762870E+01  0.35153722E+01  0.34540365E+01
  0.33923748E+01  0.33304833E+01  0.32684593E+01  0.32064009E+01  0.31444065E+01
  0.30825741E+01  0.30210015E+01  0.29597854E+01  0.28990211E+01  0.28388025E+01
  0.27792212E+01  0.27203666E+01  0.26623252E+01  0.26051804E+01  0.25490124E+01
  0.24938977E+01  0.24399086E+01  0.23871133E+01  0.23355758E+01  0.22853549E+01
  0.22365050E+01  0.21890752E+01  0.21431093E+01  0.20986461E+01  0.20557187E+01
  0.20143547E+01  0.19745764E+01  0.19364003E+01  0.18998375E+01  0.18648933E+01
  0.18315679E+01  0.17998557E+01  0.17697460E+01  0.17412228E+01  0.17142652E+01
  0.16888470E+01  0.16649378E+01  0.16425022E+01  0.16215008E+01  0.16018899E+01
  0.15836222E+01  0.15666467E+01  0.15509092E+01  0.15363525E+01  0.15229166E+01
  0.15105393E+01  0.14991562E+01  0.14887012E+01  0.14791068E+01  0.14703043E+01
  0.14622243E+01  0.14547968E+01  0.14479519E+01  0.14416196E+01  0.14357305E+01
  0.14302160E+01  0.14250084E+01  0.14200417E+01  0.14152511E+01  0.14105740E+01
  0.14059499E+01  0.14013205E+01  0.13966303E+01  0.13918265E+01  0.13868593E+01
  0.13816818E+01  0.13762508E+01  0.13705261E+01  0.13644714E+01  0.13580536E+01
  0.13512437E+01  0.13440162E+01  0.13363493E+01  0.13282252E+01  0.13196298E+01
  0.13105527E+01  0.13009872E+01  0.12909304E+01  0.12803829E+01  0.12693487E+01
  0.12578353E+01  0.12458533E+01  0.12334166E+01  0.12205420E+01  0.12072489E+01
  0.11935596E+01  0.11794986E+01  0.11650928E+01  0.11503710E+01  0.11353639E+01
  0.11201040E+01  0.11046248E+01  0.10889614E+01  0.10731496E+01  0.10572260E+01
  0.10412277E+01  0.10251923E+01  0.10091571E+01  0.99315951E+00  0.97723662E+00
  0.96142487E+00  0.94575999E+00  0.93027680E+00  0.91500901E+00  0.89998905E+00
  0.88524794E+00  0.87081513E+00  0.85671835E+00  0.84298350E+00  0.82963456E+00
  0.81669343E+00  0.80417993E+00  0.79211165E+00  0.78050393E+00  0.76936982E+00
  0.75872003E+00  0.74856292E+00  0.73890450E+00  0.72974844E+00  0.72109610E+00
  0.71294654E+00  0.70529658E+00  0.69814088E+00  0.69147197E+00  0.68528037E+00
  0.67955461E+00  0.67428143E+00  0.66944578E+00  0.66503100E+00  0.66101892E+00
  0.65738997E+00  0.65412335E+00  0.65119712E+00  0.64858837E+00  0.64627335E+00
  0.64422762E+00  0.64242620E+00  0.64084369E+00  0.63945445E+00  0.63823272E+00
  0.63715274E+00  0.63618895E+00  0.63531605E+00  0.63450917E+00  0.63374398E+00
  0.63299683E+00  0.63224482E+00  0.63146596E+00  0.63063921E+00  0.62974461E+00
  0.62876337E+00  0.62767791E+00  0.62647196E+00  0.62513060E+00  0.62364032E+00
  0.62198904E+00  0.62016618E+00  0.61816262E+00  0.61597079E+00  0.61358460E+00
  0.61099947E+00  0.60821235E+00  0.60522162E+00  0.60202714E+00  0.59863016E+00
  0.59503332E+00  0.59124055E+00  0.58725706E+00  0.58308928E+00  0.57874473E+00
  0.57423203E+00  0.56956076E+00  0.56474141E+00  0.55978529E+00  0.55470442E+00
  0.54951149E+00  0.54421971E+00  0.53884276E+00  0.53339468E+00  0.52788978E+00
  0.52234256E+00  0.51676759E+00  0.51117944E+00  0.50559263E+00  0.50002146E+00
  0.49448000E+00  0.48898199E+00  0.48354075E+00  0.47816913E+00  0.47287944E+00
  0.46768335E+00  0.46259191E+00  0.45761541E+00  0.45276341E+00  0.44804463E+00
  0.44346699E+00  0.43903752E+00  0.43476235E+00  0.43064672E+00  0.42669493E+00
  0.42291038E+00  0.41929551E+00  0.41585186E+00  0.41258004E+00  0.40947975E+00
  0.40654985E+00  0.40378830E+00  0.40119225E+00  0.39875806E+00  0.39648134E+00
  0.39435696E+00  0.39237914E+00  0.39054149E+00  0.38883702E+00  0.38725824E+00
  0.38579719E+00  0.38444550E+00  0.38319446E+00  0.38203505E+00  0.38095803E+00
  0.37995398E+00  0.37901335E+00  0.37812655E+00  0.37728396E+00  0.37647604E+00
  0.37569333E+00  0.37492655E+00  0.37416662E+00  0.37340473E+00  0.37263236E+00
  0.37184136E+00  0.37102397E+00  0.37017282E+00  0.36928105E+00  0.36834227E+00
  0.36735060E+00  0.36630071E+00  0.36518783E+00  0.36400776E+00  0.36275691E+00
  0.36143226E+00  0.36003140E+00  0.35855255E+00  0.35699450E+00  0.35535666E+00
  0.35363901E+00  0.35184213E+00  0.34996713E+00  0.34801571E+00  0.34599005E+00
  0.34389284E+00  0.34172726E+00  0.33949690E+00  0.33720579E+00  0.33485833E+00
  0.33245926E+00  0.33001363E+00  0.32752679E+00  0.32500430E+00  0.32245193E+00
  0.31987561E+00  0.31728139E+00  0.31467541E+00  0.31206387E+00  0.30945296E+00
  0.30684884E+00  0.30425761E+00  0.30168528E+00  0.29913770E+00  0.29662056E+00
  0.29413937E+00  0.29169939E+00  0.28930562E+00  0.28696279E+00  0.28467532E+00
  0.28244729E+00  0.28028247E+00  0.27818422E+00  0.27615556E+00  0.27419910E+00
  0.27231707E+00  0.27051127E+00  0.26878311E+00  0.26713357E+00  0.26556322E+00
  0.26407223E+00  0.26266035E+00  0.26132693E+00  0.26007094E+00  0.25889095E+00
  0.25778520E+00  0.25675155E+00  0.25578753E+00  0.25489037E+00  0.25405699E+00
  0.25328405E+00  0.25256796E+00  0.25190488E+00  0.25129080E+00  0.25072150E+00
  0.25019264E+00  0.24969972E+00  0.24923817E+00  0.24880334E+00  0.24839053E+00
  0.24799502E+00  0.24761212E+00  0.24723715E+00  0.24686550E+00  0.24649265E+00
  0.24611420E+00  0.24572587E+00  0.24532352E+00  0.24490322E+00  0.24446121E+00
  0.24399395E+00  0.24349813E+00  0.24297069E+00  0.24240881E+00  0.24180996E+00
  0.24117188E+00  0.24049262E+00  0.23977050E+00  0.23900416E+00  0.23819255E+00
  0.23733491E+00  0.23643081E+00  0.23548012E+00  0.23448299E+00  0.23343991E+00
  0.23235163E+00  0.23121918E+00  0.23004390E+00  0.22882734E+00  0.22757134E+00
  0.22627796E+00  0.22494949E+00  0.22358842E+00  0.22219743E+00  0.22077938E+00
  0.21933729E+00  0.21787429E+00  0.21639365E+00  0.21489874E+00  0.21339298E+00
  0.21187988E+00  0.21036294E+00  0.20884573E+00  0.20733176E+00  0.20582456E+00
  0.20432758E+00  0.20284422E+00  0.20137781E+00  0.19993156E+00  0.19850857E+00
  0.19711181E+00  0.19574411E+00  0.19440810E+00  0.19310629E+00  0.19184095E+00
  0.19061418E+00  0.18942785E+00  0.18828364E+00  0.18718297E+00  0.18612706E+00
  0.18511686E+00  0.18415311E+00  0.18323630E+00  0.18236667E+00  0.18154423E+00
  0.18076875E+00  0.18003977E+00  0.17935659E+00  0.17871829E+00  0.17812375E+00
  0.17757161E+00  0.17706034E+00  0.17658821E+00  0.17615331E+00  0.17575357E+00
  0.17538676E+00  0.17505053E+00  0.17474238E+00  0.17445973E+00  0.17419989E+00
  0.17396009E+00  0.17373753E+00  0.17352933E+00  0.17333259E+00  0.17314442E+00
  0.17296192E+00  0.17278221E+00  0.17260244E+00  0.17241983E+00  0.17223165E+00
  0.17203527E+00  0.17182813E+00  0.17160779E+00  0.17137196E+00  0.17111844E+00
  0.17084519E+00  0.17055034E+00  0.17023216E+00  0.16988912E+00  0.16951984E+00
  0.16912313E+00  0.16869801E+00  0.16824366E+00  0.16775949E+00  0.16724508E+00
  0.16670021E+00  0.16612486E+00  0.16551921E+00  0.16488362E+00  0.16421863E+00
  0.16352499E+00  0.16280359E+00  0.16205552E+00  0.16128200E+00  0.16048443E+00
  0.15966434E+00  0.15882338E+00  0.15796334E+00  0.15708611E+00  0.15619367E+00
  0.15528809E+00  0.15437151E+00  0.15344613E+00  0.15251419E+00  0.15157796E+00
  0.15063975E+00  0.14970183E+00  0.14876651E+00  0.14783604E+00  0.14691265E+00
  0.14599853E+00  0.14509580E+00  0.14420650E+00  0.14333261E+00  0.14247599E+00
  0.14163840E+00  0.14082151E+00  0.14002685E+00  0.13925580E+00  0.13850965E+00
  0.13778950E+00  0.13709634E+00  0.13643098E+00  0.13579411E+00  0.13518621E+00
  0.13460766E+00  0.13405863E+00  0.13353918E+00  0.13304916E+00  0.13258831E+00
  0.13215620E+00  0.13175224E+00  0.13137571E+00  0.13102575E+00  0.13070138E+00
  0.13040148E+00  0.13012482E+00  0.12987005E+00  0.12963575E+00  0.12942040E+00
  0.12922237E+00  0.12904001E+00  0.12887159E+00  0.12871531E+00  0.12856937E+00
  0.12843191E+00  0.12830109E+00  0.12817504E+00  0.12805190E+00  0.12792984E+00
  0.12780703E+00  0.12768172E+00  0.12755216E+00  0.12741671E+00  0.12727376E+00
  0.12712178E+00  0.12695934E+00  0.12678508E+00  0.12659776E+00  0.12639622E+00
  0.12617944E+00  0.12594648E+00  0.12569653E+00  0.12542890E+00  0.12514305E+00
  0.12483851E+00  0.12451499E+00  0.12417229E+00  0.12381036E+00  0.12342926E+00
  0.12302918E+00  0.12261042E+00  0.12217343E+00  0.12171873E+00  0.12124697E+00
  0.12075890E+00  0.12025537E+00  0.11973731E+00  0.11920575E+00  0.11866179E+00
  0.11810658E+00  0.11754137E+00  0.11696743E+00  0.11638608E+00  0.11579870E+00
  0.11520667E+00  0.11461140E+00  0.11401432E+00  0.11341686E+00  0.11282042E+00
  0.11222642E+00  0.11163624E+00  0.11105122E+00  0.11047267E+00  0.10990187E+00
  0.10934002E+00  0.10878828E+00  0.10824774E+00  0.10771941E+00  0.10720424E+00
  0.10670309E+00  0.10621674E+00  0.10574589E+00  0.10529112E+00  0.10485296E+00
  0.10443182E+00  0.10402800E+00  0.10364174E+00  0.10327315E+00  0.10292227E+00
  0.10258902E+00  0.10227324E+00  0.10197468E+00  0.10169299E+00  0.10142776E+00
  0.10117846E+00  0.10094452E+00  0.10072529E+00  0.10052002E+00  0.10032795E+00
  0.10014821E+00  0.99979921E-01  0.99822131E-01  0.99673860E-01  0.99534091E-01
  0.99401781E-01  0.99275866E-01  0.99155267E-01  0.99038896E-01  0.98925666E-01
  0.98814493E-01  0.98704304E-01  0.98594045E-01  0.98482682E-01  0.98369212E-01
  0.98252663E-01  0.98132106E-01  0.98006651E-01  0.97875459E-01  0.97737740E-01
  0.97592763E-01  0.97439855E-01  0.97278402E-01  0.97107860E-01  0.96927748E-01
  0.96737656E-01  0.96537242E-01  0.96326238E-01  0.96104444E-01  0.95871733E-01
  0.95628050E-01  0.95373407E-01  0.95107887E-01  0.94831638E-01  0.94544874E-01
  0.94247871E-01  0.93940965E-01  0.93624550E-01  0.93299073E-01  0.92965032E-01
  0.92622973E-01  0.92273485E-01  0.91917197E-01  0.91554773E-01  0.91186911E-01
  0.90814333E-01  0.90437784E-01  0.90058029E-01  0.89675844E-01  0.89292013E-01
  0.88907327E-01  0.88522572E-01  0.88138532E-01  0.87755979E-01  0.87375673E-01
  0.86998356E-01  0.86624746E-01  0.86255537E-01  0.85891396E-01  0.85532954E-01
  0.85180810E-01  0.84835523E-01  0.84497612E-01  0.84167553E-01  0.83845777E-01
  0.83532669E-01  0.83228566E-01  0.82933756E-01  0.82648475E-01  0.82372912E-01
  0.82107204E-01  0.81851437E-01  0.81605648E-01  0.81369824E-01  0.81143901E-01
  0.80927771E-01  0.80721275E-01  0.80524211E-01  0.80336333E-01  0.80157351E-01
  0.79986936E-01  0.79824722E-01  0.79670304E-01  0.79523248E-01  0.79383087E-01
  0.79249328E-01  0.79121455E-01  0.78998929E-01  0.78881197E-01  0.78767688E-01
  0.78657824E-01  0.78551018E-01  0.78446678E-01  0.78344214E-01  0.78243034E-01
  0.78142555E-01  0.78042201E-01  0.77941404E-01  0.77839615E-01  0.77736296E-01
  0.77630932E-01  0.77523026E-01  0.77412106E-01  0.77297725E-01  0.77179466E-01
  0.77056937E-01  0.76929780E-01  0.76797671E-01  0.76660315E-01  0.76517457E-01
  0.76368876E-01  0.76214386E-01  0.76053841E-01  0.75887131E-01  0.75714186E-01
  0.75534972E-01  0.75349495E-01  0.75157796E-01  0.74959956E-01  0.74756091E-01
  0.74546352E-01  0.74330925E-01  0.74110029E-01  0.73883912E-01  0.73652853E-01
  0.73417157E-01  0.73177156E-01  0.72933203E-01  0.72685672E-01  0.72434957E-01
  0.72181466E-01  0.71925623E-01  0.71667863E-01  0.71408629E-01  0.71148373E-01
  0.70887551E-01  0.70626623E-01  0.70366046E-01  0.70106278E-01  0.69847772E-01
  0.69590974E-01  0.69336320E-01  0.69084237E-01  0.68835136E-01  0.68589415E-01
  0.68347451E-01  0.68109606E-01  0.67876217E-01  0.67647598E-01  0.67424042E-01
  0.67205811E-01  0.66993144E-01  0.66786249E-01  0.66585305E-01  0.66390461E-01
  0.66201834E-01  0.66019511E-01  0.65843546E-01  0.65673962E-01  0.65510750E-01
  0.65353869E-01  0.65203247E-01  0.65058783E-01  0.64920346E-01  0.64787775E-01
  0.64660885E-01  0.64539464E-01  0.64423273E-01  0.64312053E-01  0.64205523E-01
  0.64103380E-01  0.64005305E-01  0.63910960E-01  0.63819994E-01  0.63732042E-01
  0.63646728E-01  0.63563665E-01  0.63482462E-01  0.63402722E-01  0.63324042E-01
  0.63246023E-01  0.63168264E-01  0.63090370E-01  0.63011949E-01  0.62932621E-01
  0.62852011E-01  0.62769761E-01  0.62685523E-01  0.62598968E-01  0.62509781E-01
  0.62417668E-01  0.62322357E-01  0.62223595E-01  0.62121155E-01  0.62014834E-01
  0.61904455E-01  0.61789867E-01  0.61670946E-01  0.61547597E-01  0.61419753E-01
  0.61287374E-01  0.61150450E-01  0.61008998E-01  0.60863063E-01  0.60712717E-01
  0.60558059E-01  0.60399212E-01  0.60236327E-01  0.60069576E-01  0.59899154E-01
  0.59725279E-01  0.59548189E-01  0.59368138E-01  0.59185403E-01  0.59000272E-01
  0.58813049E-01  0.58624051E-01  0.58433607E-01  0.58242051E-01  0.58049727E-01
  0.57856985E-01  0.57664174E-01  0.57471648E-01  0.57279757E-01  0.57088851E-01
  0.56899273E-01  0.56711359E-01  0.56525440E-01  0.56341831E-01  0.56160838E-01
  0.55982754E-01  0.55807854E-01  0.55636397E-01  0.55468622E-01  0.55304750E-01
  0.55144979E-01  0.54989485E-01  0.54838421E-01  0.54691917E-01  0.54550076E-01
  0.54412978E-01  0.54280677E-01  0.54153202E-01  0.54030558E-01  0.53912724E-01
  0.53799654E-01  0.53691278E-01  0.53587503E-01  0.53488214E-01  0.53393272E-01
  0.53302518E-01  0.53215772E-01  0.53132835E-01  0.53053490E-01  0.52977504E-01
  0.52904628E-01  0.52834598E-01  0.52767140E-01  0.52701968E-01  0.52638787E-01
  0.52577295E-01  0.52517183E-01  0.52458141E-01  0.52399855E-01  0.52342010E-01
  0.52284294E-01  0.52226397E-01  0.52168013E-01  0.52108845E-01  0.52048602E-01
  0.51987003E-01  0.51923779E-01  0.51858674E-01  0.51791445E-01  0.51721865E-01
  0.51649724E-01  0.51574831E-01  0.51497012E-01  0.51416115E-01  0.51332005E-01
  0.51244571E-01  0.51153723E-01  0.51059391E-01  0.50961530E-01  0.50860114E-01
  0.50755142E-01  0.50646631E-01  0.50534623E-01  0.50419181E-01  0.50300387E-01
  0.50178345E-01  0.50053177E-01  0.49925025E-01  0.49794047E-01  0.49660421E-01
  0.49524336E-01  0.49385999E-01  0.49245629E-01  0.49103455E-01  0.48959718E-01
  0.48814667E-01  0.48668560E-01  0.48521659E-01  0.48374232E-01  0.48226549E-01
  0.48078882E-01  0.47931504E-01  0.47784684E-01  0.47638692E-01  0.47493791E-01
  0.47350238E-01  0.47208285E-01  0.47068173E-01  0.46930136E-01  0.46794392E-01
  0.46661152E-01  0.46530611E-01  0.46402948E-01  0.46278330E-01  0.46156904E-01
  0.46038804E-01  0.45924143E-01  0.45813017E-01  0.45705504E-01  0.45601662E-01
  0.45501532E-01  0.45405134E-01  0.45312467E-01  0.45223514E-01  0.45138237E-01
  0.45056579E-01  0.44978466E-01  0.44903804E-01  0.44832483E-01  0.44764375E-01
 gradient corrections used for XC
           5
 atomic pseudo charge-density
  0.30000000E+01  0.29892040E+01  0.29574983E+01  0.29068411E+01  0.28402184E+01
  0.27612883E+01  0.26739850E+01  0.25821476E+01  0.24892242E+01  0.23980769E+01
  0.23108892E+01  0.22291618E+01  0.21537730E+01  0.20850776E+01  0.20230213E+01
  0.19672543E+01  0.19172332E+01  0.18723048E+01  0.18317714E+01  0.17949390E+01
  0.17611490E+01  0.17297986E+01  0.17003515E+01  0.16723419E+01  0.16453738E+01
  0.16191174E+01  0.15933038E+01  0.15677185E+01  0.15421948E+01  0.15166073E+01
  0.14908656E+01  0.14649084E+01  0.14386986E+01  0.14122184E+01  0.13854658E+01
  0.13584505E+01  0.13311916E+01  0.13037149E+01  0.12760509E+01  0.12482334E+01
  0.12202981E+01  0.11922817E+01  0.11642210E+01  0.11361523E+01  0.11081113E+01
  0.10801324E+01  0.10522486E+01  0.10244915E+01  0.99689125E+00  0.96947615E+00
  0.94227304E+00  0.91530714E+00  0.88860208E+00  0.86217996E+00  0.83606139E+00
  0.81026555E+00  0.78481021E+00  0.75971180E+00  0.73498545E+00  0.71064506E+00
  0.68670330E+00  0.66317171E+00  0.64006071E+00  0.61737966E+00  0.59513689E+00
  0.57333974E+00  0.55199461E+00  0.53110701E+00  0.51068156E+00  0.49072206E+00
  0.47123151E+00  0.45221215E+00  0.43366549E+00  0.41559235E+00  0.39799288E+00
  0.38086660E+00  0.36421244E+00  0.34802873E+00  0.33231328E+00  0.31706337E+00
  0.30227579E+00  0.28794685E+00  0.27407245E+00  0.26064803E+00  0.24766869E+00
  0.23512910E+00  0.22302361E+00  0.21134626E+00  0.20009074E+00  0.18925049E+00
  0.17881866E+00  0.16878816E+00  0.15915168E+00  0.14990168E+00  0.14103045E+00
  0.13253008E+00  0.12439252E+00  0.11660959E+00  0.10917294E+00  0.10207416E+00
  0.95304726E-01  0.88856030E-01  0.82719410E-01  0.76886154E-01  0.71347512E-01
  0.66094717E-01  0.61118990E-01  0.56411561E-01  0.51963675E-01  0.47766609E-01
  0.43811680E-01  0.40090260E-01  0.36593783E-01  0.33313760E-01  0.30241784E-01
  0.27369546E-01  0.24688837E-01  0.22191563E-01  0.19869752E-01  0.17715558E-01
  0.15721274E-01  0.13879337E-01  0.12182333E-01  0.10623006E-01  0.91942614E-02
  0.78891726E-02  0.67009856E-02  0.56231235E-02  0.46491900E-02  0.37729733E-02
  0.29884488E-02  0.22897821E-02  0.16713305E-02  0.11276453E-02  0.65347285E-03
  0.24375539E-03 -0.10636855E-03 -0.40156407E-03 -0.64630029E-03 -0.84485110E-03
 -0.10012963E-02 -0.11195230E-02 -0.12032277E-02 -0.12559183E-02 -0.12809165E-02
 -0.12813609E-02 -0.12602098E-02 -0.12202448E-02 -0.11640744E-02 -0.10941379E-02
 -0.10127094E-02 -0.92190204E-03 -0.82367299E-03 -0.71982760E-03 -0.61202455E-03
 -0.50178074E-03 -0.39047642E-03 -0.27936042E-03 -0.16955541E-03 -0.62063315E-04
  0.42229274E-04  0.14254566E-03  0.23821352E-03  0.32865948E-03  0.41340359E-03
  0.49205389E-03  0.56430102E-03  0.62991289E-03  0.68872935E-03  0.74065703E-03
  0.78566422E-03  0.82377586E-03  0.85506869E-03  0.87966645E-03  0.89773527E-03
  0.90947919E-03  0.91513580E-03  0.91497212E-03  0.90928051E-03  0.89837488E-03
  0.88258699E-03  0.86226298E-03  0.83776002E-03  0.80944320E-03  0.77768255E-03
  0.74285032E-03  0.70531835E-03  0.66545569E-03  0.62362641E-03  0.58018750E-03
  0.53548711E-03  0.48986276E-03  0.44363993E-03  0.39713069E-03  0.35063249E-03
  0.30442720E-03  0.25878024E-03  0.21393985E-03  0.17013655E-03  0.12758270E-03
  0.86472207E-04  0.46980365E-04  0.92637878E-05 -0.26539526E-04 -0.60310027E-04
 -0.91946359E-04 -0.12136500E-03 -0.14849985E-03 -0.17330169E-03 -0.19573762E-03
 -0.21579042E-03 -0.23345785E-03 -0.24875191E-03 -0.26169804E-03 -0.27233433E-03
 -0.28071061E-03 -0.28688766E-03 -0.29093625E-03 -0.29293626E-03 -0.29297580E-03
 -0.29115025E-03 -0.28756142E-03 -0.28231660E-03 -0.27552770E-03 -0.26731039E-03
 -0.25778327E-03 -0.24706701E-03 -0.23528360E-03 -0.22255556E-03 -0.20900524E-03
 -0.19475411E-03 -0.17992211E-03 -0.16462702E-03 -0.14898394E-03 -0.13310468E-03
 -0.11709732E-03 -0.10106575E-03 -0.85109270E-04 -0.69322227E-04 -0.53793696E-04
 -0.38607215E-04 -0.23840550E-04 -0.95655111E-05  0.41521955E-05  0.17253073E-04
  0.29683899E-04  0.41397757E-04  0.52354027E-04  0.62518344E-04  0.71862527E-04
  0.80364466E-04  0.88007994E-04  0.94782723E-04  0.10068386E-03  0.10571197E-03
  0.10987281E-03  0.11317701E-03  0.11563983E-03  0.11728089E-03  0.11812387E-03
  0.11819621E-03  0.11752876E-03  0.11615554E-03  0.11411334E-03  0.11144141E-03
  0.10818118E-03  0.10437588E-03  0.10007025E-03  0.95310198E-04  0.90142521E-04
  0.84614568E-04  0.78773965E-04  0.72668319E-04  0.66344953E-04  0.59850635E-04
  0.53231339E-04  0.46532002E-04  0.39796313E-04  0.33066500E-04  0.26383149E-04
  0.19785029E-04  0.13308939E-04  0.69895665E-05  0.85937016E-06 -0.50515257E-05
 -0.10715418E-04 -0.16107094E-04 -0.21203888E-04 -0.25985712E-04 -0.30435084E-04
 -0.34537129E-04 -0.38279571E-04 -0.41652711E-04 -0.44649387E-04 -0.47264926E-04
 -0.49497081E-04 -0.51345956E-04 -0.52813921E-04 -0.53905521E-04 -0.54627368E-04
 -0.54988032E-04 -0.54997922E-04 -0.54669160E-04 -0.54015454E-04 -0.53051958E-04
 -0.51795137E-04 -0.50262627E-04 -0.48473089E-04 -0.46446068E-04 -0.44201848E-04
 -0.41761309E-04 -0.39145786E-04 -0.36376929E-04 -0.33476567E-04 -0.30466573E-04
 -0.27368740E-04 -0.24204652E-04 -0.20995569E-04 -0.17762312E-04 -0.14525158E-04
 -0.11303739E-04 -0.81169486E-05 -0.49828591E-05 -0.19186400E-05  0.10595105E-05
  0.39364289E-05  0.66980406E-05  0.93314070E-05  0.11824764E-04  0.14167552E-04
  0.16350440E-04  0.18365341E-04  0.20205417E-04  0.21865081E-04  0.23339991E-04
  0.24627032E-04  0.25724301E-04  0.26631075E-04  0.27347782E-04  0.27875960E-04
  0.28218216E-04  0.28378175E-04  0.28360431E-04  0.28170485E-04  0.27814691E-04
  0.27300189E-04  0.26634842E-04  0.25827167E-04  0.24886263E-04  0.23821746E-04
  0.22643674E-04  0.21362474E-04  0.19988874E-04  0.18533827E-04  0.17008445E-04
  0.15423928E-04  0.13791494E-04  0.12122316E-04  0.10427459E-04  0.87178139E-05
  0.70040453E-05  0.52965323E-05  0.36053173E-05  0.19400577E-05  0.30998071E-06
 -0.12761582E-05 -0.28101124E-05 -0.42841774E-05 -0.56912205E-05 -0.70247057E-05
 -0.82787150E-05 -0.94479651E-05 -0.10527821E-04 -0.11514302E-04 -0.12404092E-04
 -0.13194533E-04 -0.13883630E-04 -0.14470036E-04 -0.14953051E-04 -0.15332599E-04
 -0.15609217E-04 -0.15784036E-04 -0.15858754E-04 -0.15835613E-04 -0.15717370E-04
 -0.15507271E-04 -0.15209012E-04 -0.14826713E-04 -0.14364878E-04 -0.13828359E-04
 -0.13222319E-04 -0.12552197E-04 -0.11823663E-04 -0.11042584E-04 -0.10214983E-04
 -0.93469992E-05 -0.84448510E-05 -0.75147965E-05 -0.65630967E-05 -0.55959792E-05
 -0.46196023E-05 -0.36400219E-05 -0.26631583E-05 -0.16947653E-05 -0.74040147E-06
  0.19459752E-06  0.11051442E-05  0.19864226E-05  0.28339092E-05  0.36433925E-05
  0.44109887E-05  0.51331573E-05  0.58067122E-05  0.64288319E-05  0.69970671E-05
  0.75093453E-05  0.79639743E-05  0.83596422E-05  0.86954159E-05  0.89707379E-05
  0.91854198E-05  0.93396349E-05  0.94339084E-05  0.94691062E-05  0.94464213E-05
  0.93673597E-05  0.92337238E-05  0.90475949E-05  0.88113150E-05  0.85274666E-05
  0.81988524E-05  0.78284734E-05  0.74195074E-05  0.69752861E-05  0.64992721E-05
  0.59950358E-05  0.54662322E-05  0.49165775E-05  0.43498262E-05  0.37697483E-05
  0.31801067E-05  0.25846358E-05  0.19870201E-05  0.13908740E-05  0.79972200E-06
  0.21698024E-06 -0.35406098E-06 -0.91025370E-06 -0.14486076E-05 -0.19663038E-05
 -0.24607081E-05 -0.29293816E-05 -0.33700914E-05 -0.37808187E-05 -0.41597662E-05
 -0.45053639E-05 -0.48162732E-05 -0.50913897E-05 -0.53298450E-05 -0.55310065E-05
 -0.56944759E-05 -0.58200869E-05 -0.59079010E-05 -0.59582025E-05 -0.59714919E-05
 -0.59484786E-05 -0.58900721E-05 -0.57973729E-05 -0.56716613E-05 -0.55143869E-05
 -0.53271561E-05 -0.51117195E-05 -0.48699585E-05 -0.46038716E-05 -0.43155604E-05
 -0.40072147E-05 -0.36810982E-05 -0.33395331E-05 -0.29848860E-05 -0.26195522E-05
 -0.22459415E-05 -0.18664637E-05 -0.14835139E-05 -0.10994593E-05 -0.71662521E-06
 -0.33728260E-06  0.36364521E-07  0.40219067E-06  0.75815989E-06  0.11023360E-05
  0.14328921E-05  0.17481191E-05  0.20464337E-05  0.23263850E-05  0.25866605E-05
  0.28260915E-05  0.30436567E-05  0.32384856E-05  0.34098607E-05  0.35572186E-05
  0.36801506E-05  0.37784016E-05  0.38518691E-05  0.39006006E-05  0.39247904E-05
  0.39247757E-05  0.39010315E-05  0.38541655E-05  0.37849117E-05  0.36941236E-05
  0.35827669E-05  0.34519114E-05  0.33027230E-05  0.31364544E-05  0.29544364E-05
  0.27580684E-05  0.25488084E-05  0.23281640E-05  0.20976814E-05  0.18589363E-05
  0.16135238E-05  0.13630482E-05  0.11091135E-05  0.85331381E-06  0.59722412E-06
  0.34239115E-06  0.90324719E-07 -0.15751055E-06 -0.39970313E-06 -0.63490199E-06
 -0.86182352E-06 -0.10792579E-05 -0.12860750E-05 -0.14812295E-05 -0.16637656E-05
 -0.18328211E-05 -0.19876308E-05 -0.21275290E-05 -0.22519520E-05 -0.23604392E-05
 -0.24526343E-05 -0.25282852E-05 -0.25872435E-05 -0.26294638E-05 -0.26550017E-05
 -0.26640121E-05 -0.26567457E-05 -0.26335464E-05 -0.25948472E-05 -0.25411659E-05
 -0.24731009E-05 -0.23913254E-05 -0.22965829E-05 -0.21896806E-05 -0.20714840E-05
 -0.19429105E-05 -0.18049229E-05 -0.16585228E-05 -0.15047441E-05 -0.13446461E-05
 -0.11793066E-05 -0.10098153E-05 -0.83726726E-06 -0.66275572E-06 -0.48736609E-06
 -0.31216942E-06 -0.13821628E-06  0.33469103E-07  0.20189453E-06  0.36610513E-06
  0.52518843E-06  0.67827899E-06  0.82456276E-06  0.96328098E-06  0.10937338E-05
  0.12152832E-05  0.13273559E-05  0.14294456E-05  0.15211148E-05  0.16019959E-05
  0.16717926E-05  0.17302801E-05  0.17773053E-05  0.18127864E-05  0.18367121E-05
  0.18491404E-05  0.18501972E-05  0.18400741E-05  0.18190264E-05  0.17873701E-05
  0.17454792E-05  0.16937825E-05  0.16327598E-05  0.15629385E-05  0.14848893E-05
  0.13992224E-05  0.13065828E-05  0.12076461E-05  0.11031139E-05  0.99370912E-06
  0.88017143E-06  0.76325245E-06  0.64371115E-06  0.52230914E-06  0.39980617E-06
  0.27695561E-06  0.15450006E-06  0.33167155E-07 -0.86334532E-07 -0.20331936E-06
 -0.31712830E-06 -0.42713242E-06 -0.53273610E-06 -0.63338000E-06 -0.72854377E-06
 -0.81774849E-06 -0.90055882E-06 -0.97658482E-06 -0.10454835E-05 -0.11069602E-05
 -0.11607694E-05 -0.12067151E-05 -0.12446519E-05 -0.12744841E-05 -0.12961661E-05
 -0.13097018E-05 -0.13151431E-05 -0.13125898E-05 -0.13021873E-05 -0.12841256E-05
 -0.12586371E-05 -0.12259948E-05 -0.11865095E-05 -0.11405282E-05 -0.10884305E-05
 -0.10306265E-05 -0.96755364E-06 -0.89967360E-06 -0.82746926E-06 -0.75144149E-06
 -0.67210586E-06 -0.58998938E-06 -0.50562720E-06 -0.41955925E-06 -0.33232705E-06
 -0.24447043E-06 -0.15652434E-06 -0.69015833E-07  0.17539014E-07  0.10263792E-06
  0.18579518E-06  0.26654429E-06  0.34444034E-06  0.41906242E-06  0.49001560E-06
  0.55693298E-06  0.61947733E-06  0.67734267E-06  0.73025558E-06  0.77797631E-06
  0.82029965E-06  0.85705567E-06  0.88811012E-06  0.91336470E-06  0.93275707E-06
  0.94626072E-06  0.95388449E-06  0.95567207E-06  0.95170114E-06  0.94208244E-06
  0.92695859E-06  0.90650278E-06  0.88091727E-06  0.85043175E-06  0.81530159E-06
  0.77580594E-06  0.73224571E-06  0.68494146E-06  0.63423123E-06  0.58046828E-06
  0.52401875E-06  0.46525931E-06  0.40457481E-06  0.34235583E-06  0.27899632E-06
  0.21489123E-06  0.15043412E-06  0.86014895E-07  0.22017520E-07 -0.41182136E-07
 -0.10321842E-06 -0.16373790E-06 -0.22240127E-06 -0.27888518E-06 -0.33288389E-06
 -0.38411083E-06 -0.43230002E-06 -0.47720735E-06 -0.51861173E-06 -0.55631602E-06
 -0.59014790E-06 -0.61996054E-06 -0.64563308E-06 -0.66707098E-06 -0.68420622E-06
 -0.69699735E-06 -0.70542932E-06 -0.70951321E-06 -0.70928582E-06 -0.70480906E-06
 -0.69616926E-06 -0.68347630E-06 -0.66686262E-06 -0.64648214E-06 -0.62250906E-06
 -0.59513651E-06 -0.56457516E-06 -0.53105175E-06 -0.49480749E-06 -0.45609645E-06
 -0.41518389E-06 -0.37234451E-06 -0.32786071E-06 -0.28202081E-06 -0.23511726E-06
 -0.18744485E-06 -0.13929895E-06 -0.90973701E-07 -0.42760356E-07  0.50544546E-08
  0.52190344E-07  0.98374755E-07  0.14334447E-06  0.18684703E-06  0.22864214E-06
  0.26850287E-06  0.30621686E-06  0.34158739E-06  0.37443434E-06  0.40459503E-06
  0.43192494E-06  0.45629838E-06  0.47760891E-06  0.49576981E-06  0.51071425E-06
  0.52239549E-06  0.53078683E-06  0.53588155E-06  0.53769268E-06  0.53625266E-06
  0.53161288E-06  0.52384313E-06  0.51303097E-06  0.49928093E-06  0.48271372E-06
  0.46346527E-06  0.44168575E-06  0.41753846E-06  0.39119872E-06  0.36285267E-06
  0.33269599E-06  0.30093268E-06  0.26777367E-06  0.23343554E-06  0.19813910E-06
  0.16210806E-06  0.12556765E-06  0.88743253E-07  0.51859074E-07  0.15136804E-07
 -0.21205662E-07 -0.56955481E-07 -0.91906062E-07 -0.12585822E-06 -0.15862126E-06
 -0.19001403E-06 -0.21986587E-06 -0.24801749E-06 -0.27432176E-06 -0.29864448E-06
 -0.32086497E-06 -0.34087663E-06 -0.35858744E-06 -0.37392025E-06 -0.38681311E-06
 -0.39721943E-06 -0.40510807E-06 -0.41046330E-06 -0.41328477E-06 -0.41358726E-06
 -0.41140042E-06 -0.40676842E-06 -0.39974951E-06 -0.39041548E-06 -0.37885108E-06
 -0.36515333E-06 -0.34943086E-06 -0.33180302E-06 -0.31239912E-06 -0.29135747E-06
 -0.26882450E-06 -0.24495375E-06 -0.21990488E-06 -0.19384265E-06 -0.16693584E-06
 -0.13935622E-06 -0.11127747E-06 -0.82874153E-07 -0.54320610E-07 -0.25789962E-07
  0.25469289E-08  0.30522452E-07  0.57973206E-07  0.84740924E-07  0.11067335E-06
  0.13562509E-06  0.15945836E-06  0.18204379E-06  0.20326102E-06  0.22299933E-06
  0.24115821E-06  0.25764782E-06  0.27238936E-06  0.28531549E-06  0.29637051E-06
  0.30551064E-06  0.31270403E-06  0.31793091E-06  0.32118350E-06  0.32246594E-06
  0.32179410E-06  0.31919539E-06  0.31470842E-06  0.30838265E-06  0.30027794E-06
  0.29046410E-06  0.27902036E-06  0.26603474E-06  0.25160348E-06  0.23583032E-06
  0.21882581E-06  0.20070655E-06  0.18159443E-06  0.16161588E-06  0.14090099E-06
  0.11958276E-06  0.97796188E-07  0.75677526E-07  0.53363387E-07  0.30989951E-07
  0.86921590E-08 -0.13397084E-07 -0.35147679E-07 -0.56433081E-07 -0.77131016E-07
 -0.97124160E-07 -0.11630078E-06 -0.13455532E-06 -0.15178899E-06 -0.16791025E-06
 -0.18283530E-06 -0.19648848E-06 -0.20880260E-06 -0.21971929E-06 -0.22918921E-06
 -0.23717225E-06 -0.24363767E-06 -0.24856415E-06 -0.25193987E-06 -0.25376239E-06
 -0.25403863E-06 -0.25278465E-06 -0.25002551E-06 -0.24579497E-06 -0.24013523E-06
 -0.23309656E-06 -0.22473691E-06 -0.21512148E-06 -0.20432223E-06 -0.19241740E-06
 -0.17949095E-06 -0.16563200E-06 -0.15093426E-06 -0.13549538E-06 -0.11941636E-06
 -0.10280088E-06 -0.85754639E-07 -0.68384744E-07 -0.50799022E-07 -0.33105385E-07
 -0.15411173E-07  0.21774779E-08  0.19556262E-07  0.36623306E-07  0.53279746E-07
  0.69430278E-07  0.84983693E-07  0.99853370E-07  0.11395775E-06  0.12722077E-06
  0.13957225E-06  0.15094825E-06  0.16129138E-06  0.17055104E-06  0.17868369E-06
  0.18565301E-06  0.19143006E-06  0.19599333E-06  0.19932883E-06  0.20143007E-06
  0.20229799E-06  0.20194092E-06  0.20037441E-06  0.19762109E-06  0.19371045E-06
  0.18867857E-06  0.18256787E-06  0.17542673E-06  0.16730919E-06  0.15827453E-06
  0.14838686E-06  0.13771474E-06  0.12633067E-06  0.11431060E-06  0.10173350E-06
  0.88680788E-07  0.75235854E-07  0.61483537E-07  0.47509604E-07  0.33400233E-07
  0.19241486E-07  0.51187950E-08 -0.88835467E-08 -0.22682872E-07 -0.36198615E-07
 -0.49352762E-07 -0.62070293E-07 -0.74279595E-07 -0.85912860E-07 -0.96906454E-07
 -0.10720125E-06 -0.11674294E-06 -0.12548229E-06 -0.13337539E-06 -0.14038384E-06
 -0.14647497E-06 -0.15162191E-06 -0.15580375E-06 -0.15900558E-06 -0.16121852E-06
 -0.16243967E-06 -0.16267214E-06 -0.16192486E-06 -0.16021257E-06 -0.15755564E-06
 -0.15397985E-06 -0.14951626E-06 -0.14420087E-06 -0.13807444E-06 -0.13118213E-06
 -0.12357323E-06 -0.11530078E-06 -0.10642128E-06 -0.96994260E-07 -0.87081936E-07
 -0.76748769E-07 -0.66061074E-07 -0.55086599E-07 -0.43894110E-07 -0.32552976E-07
 -0.21132751E-07 -0.97027534E-08  0.16683494E-08  0.12912949E-07  0.23964891E-07
  0.34759857E-07  0.45235725E-07  0.55332912E-07  0.64994703E-07  0.74167566E-07
  0.82801439E-07  0.90850005E-07  0.98270927E-07  0.10502606E-06  0.11108165E-06
  0.11640844E-06  0.12098185E-06  0.12478206E-06  0.12779406E-06  0.13000774E-06
  0.13141787E-06  0.13202411E-06  0.13183090E-06  0.13084746E-06  0.12908762E-06
  0.12656972E-06  0.12331648E-06  0.11935477E-06  0.11471546E-06  0.10943318E-06
   22.1097940663734      T
 Non local Part
           0           2  0.916284561785053     
  -5.68708388406308        13.3474110298483        13.3474110298483     
  -20.5009676525186     
 Reciprocal Space Part
  0.10505846E+02  0.10473800E+02  0.10378051E+02  0.10219755E+02  0.10000821E+02
  0.97238793E+01  0.93922379E+01  0.90098332E+01  0.85811672E+01  0.81112377E+01
  0.76054607E+01  0.70695882E+01  0.65096204E+01  0.59317164E+01  0.53421032E+01
  0.47469853E+01  0.41524565E+01  0.35644155E+01  0.29884861E+01  0.24299443E+01
  0.18936519E+01  0.13839997E+01  0.90485922E+00  0.45954431E+00  0.50783421E-01
 -0.31929796E+00 -0.64918425E+00 -0.93796643E+00 -0.11853288E+01 -0.13915264E+01
 -0.15573539E+01 -0.16841062E+01 -0.17735336E+01 -0.18277894E+01 -0.18493750E+01
 -0.18410800E+01 -0.18059215E+01 -0.17470821E+01 -0.16678478E+01 -0.15715483E+01
 -0.14614992E+01 -0.13409482E+01 -0.12130248E+01 -0.10806967E+01 -0.94673008E+00
 -0.81365728E+00 -0.68375050E+00 -0.55900204E+00 -0.44111127E+00 -0.33147802E+00
 -0.23120219E+00 -0.14108921E+00 -0.61660859E-01  0.68290999E-02  0.64375158E-01
  0.11119680E+00  0.14771249E+00  0.17451171E+00  0.19232561E+00  0.20199725E+00
  0.20445192E+00  0.20066823E+00  0.19165061E+00  0.17840368E+00  0.16190895E+00
  0.14310415E+00  0.12286556E+00  0.10199340E+00  0.81200464E-01  0.61103955E-01
  0.42220458E-01  0.24963930E-01  0.96464772E-02 -0.35183217E-02 -0.14409866E-01
 -0.22993078E-01 -0.29309422E-01 -0.33466745E-01 -0.35628332E-01 -0.36001538E-01
 -0.34826332E-01 -0.32364088E-01 -0.28886907E-01 -0.24667722E-01 -0.19971398E-01
 -0.15046992E-01 -0.10121292E-01 -0.53937080E-02 -0.10325449E-02  0.28273570E-02
  0.60856658E-02  0.86763735E-02  0.10566499E-01  0.11753821E-01  0.12263795E-01
  0.12145826E-01  0.11469084E-01  0.10318015E-01  0.87877474E-02  0.69795358E-02
 Real Space Part
 -0.11082652E+02 -0.11069937E+02 -0.11031807E+02 -0.10968314E+02 -0.10879547E+02
 -0.10765626E+02 -0.10626713E+02 -0.10463006E+02 -0.10274744E+02 -0.10062208E+02
 -0.98257248E+01 -0.95656664E+01 -0.92824561E+01 -0.89765693E+01 -0.86485369E+01
 -0.82989481E+01 -0.79284534E+01 -0.75377678E+01 -0.71276730E+01 -0.66990204E+01
 -0.62527335E+01 -0.57898096E+01 -0.53113222E+01 -0.48184220E+01 -0.43123374E+01
 -0.37943756E+01 -0.32659216E+01 -0.27284377E+01 -0.21834616E+01 -0.16326039E+01
 -0.10775451E+01 -0.52003091E+00  0.38132188E-01  0.59508338E+00  0.11489143E+01
  0.16976770E+01  0.22393927E+01  0.27720617E+01  0.32936738E+01  0.38022201E+01
  0.42957049E+01  0.47721592E+01  0.52296537E+01  0.56663130E+01  0.60803303E+01
  0.64699816E+01  0.68336403E+01  0.71697921E+01  0.74770490E+01  0.77541630E+01
  0.80000389E+01  0.82137471E+01  0.83945342E+01  0.85418333E+01  0.86552721E+01
  0.87346802E+01  0.87800940E+01  0.87917605E+01  0.87701385E+01  0.87158980E+01
  0.86299180E+01  0.85132818E+01  0.83672700E+01  0.81933526E+01  0.79931775E+01
  0.77685592E+01  0.75214641E+01  0.72539952E+01  0.69683753E+01  0.66669290E+01
  0.63520639E+01  0.60262512E+01  0.56920053E+01  0.53518637E+01  0.50083671E+01
  0.46640391E+01  0.43213667E+01  0.39827813E+01  0.36506405E+01  0.33272244E+01
  0.30147811E+01  0.27147577E+01  0.24380003E+01  0.21668958E+01  0.19039148E+01
  0.16509905E+01  0.14101481E+01  0.11832976E+01  0.97220793E+00  0.77850013E+00
  0.60363892E+00  0.44892093E+00  0.31545945E+00  0.20417029E+00  0.11574922E+00
  0.50670605E-01  0.91499407E-02 -0.93776798E-02 -0.23288011E-02 -0.27550445E-16
 Reciprocal Space Part
  0.83671355E+01  0.83292642E+01  0.82161676E+01  0.80293895E+01  0.77714738E+01
  0.74459217E+01  0.70571334E+01  0.66103340E+01  0.61114868E+01  0.55671947E+01
  0.49845913E+01  0.43712249E+01  0.37349361E+01  0.30837329E+01  0.24256639E+01
  0.17686934E+01  0.11205802E+01  0.48876103E+00 -0.11975673E+00 -0.69849408E+00
 -0.12415876E+01 -0.17438641E+01 -0.22009021E+01 -0.26090780E+01 -0.29655983E+01
 -0.32685157E+01 -0.35167302E+01 -0.37099766E+01 -0.38487962E+01 -0.39344967E+01
 -0.39690995E+01 -0.39552768E+01 -0.38962792E+01 -0.37958560E+01 -0.36581703E+01
 -0.34877098E+01 -0.32891956E+01 -0.30674916E+01 -0.28275143E+01 -0.25741468E+01
 -0.23121573E+01 -0.20461239E+01 -0.17803663E+01 -0.15188864E+01 -0.12653178E+01
 -0.10228851E+01 -0.79437296E+00 -0.58210580E+00 -0.38793703E+00 -0.21324837E+00
 -0.58958211E-01  0.74461399E-01  0.18696010E+00  0.27887778E+00  0.35090736E+00
  0.40405310E+00  0.43958530E+00  0.45899288E+00  0.46393476E+00  0.45619124E+00
  0.43761650E+00  0.41009306E+00  0.37548919E+00  0.33561995E+00  0.29221245E+00
  0.24687599E+00  0.20107715E+00  0.15612027E+00  0.11313329E+00  0.73058921E-01
  0.36650833E-01  0.44748032E-02 -0.23085805E-01 -0.45820570E-01 -0.63679133E-01
 -0.76755493E-01 -0.85270093E-01 -0.89550317E-01 -0.90010032E-01 -0.87128777E-01
 -0.81431163E-01 -0.73467002E-01 -0.63792650E-01 -0.52953934E-01 -0.41471013E-01
 -0.29825408E-01 -0.18449387E-01 -0.77177839E-02  0.20577078E-02  0.10631830E-01
  0.17826750E-01  0.23530911E-01  0.27695969E-01  0.30332057E-01  0.31501670E-01
  0.31312467E-01  0.29909305E-01  0.27465803E-01  0.24175742E-01  0.20244588E-01
 Real Space Part
 -0.32875761E+02 -0.32856881E+02 -0.32800235E+02 -0.32705806E+02 -0.32573566E+02
 -0.32403480E+02 -0.32195509E+02 -0.31949613E+02 -0.31665756E+02 -0.31343912E+02
 -0.30984073E+02 -0.30586255E+02 -0.30150502E+02 -0.29676903E+02 -0.29165593E+02
 -0.28616765E+02 -0.28030681E+02 -0.27407679E+02 -0.26748186E+02 -0.26052725E+02
 -0.25321928E+02 -0.24556541E+02 -0.23757440E+02 -0.22925632E+02 -0.22062269E+02
 -0.21168652E+02 -0.20246241E+02 -0.19296655E+02 -0.18321681E+02 -0.17323275E+02
 -0.16303564E+02 -0.15264844E+02 -0.14209581E+02 -0.13140404E+02 -0.12060105E+02
 -0.10971623E+02 -0.98780442E+01 -0.87825824E+01 -0.76885700E+01 -0.65994410E+01
 -0.55187135E+01 -0.44499700E+01 -0.33968366E+01 -0.23629594E+01 -0.13519805E+01
 -0.36751212E+00  0.58689035E+00  0.15077558E+01  0.23917254E+01  0.32355813E+01
  0.40362741E+01  0.47909509E+01  0.54969822E+01  0.61519867E+01  0.67538561E+01
  0.73007764E+01  0.77912479E+01  0.82241022E+01  0.85985164E+01  0.89140244E+01
  0.91705243E+01  0.93682829E+01  0.95079364E+01  0.95904874E+01  0.96172979E+01
  0.95900797E+01  0.95108802E+01  0.93820656E+01  0.92063005E+01  0.89865252E+01
  0.87259300E+01  0.84279275E+01  0.80961230E+01  0.77342830E+01  0.73463034E+01
  0.69361767E+01  0.65079581E+01  0.60657326E+01  0.56135820E+01  0.51555772E+01
  0.46958618E+01  0.42372300E+01  0.38053053E+01  0.33821999E+01  0.29717263E+01
  0.25769484E+01  0.22010295E+01  0.18469500E+01  0.15174707E+01  0.12151219E+01
  0.94218979E+00  0.70069822E+00  0.49238486E+00  0.31867919E+00  0.18066717E+00
  0.79089211E-01  0.14281685E-01 -0.14637151E-01 -0.36349090E-02 -0.43002111E-16
 Non local Part
           1           1  0.916284561785053     
  0.315125339290240     
 Reciprocal Space Part
  0.00000000E+00  0.79577950E-01  0.16198543E+00  0.25000138E+00  0.34630440E+00
  0.45342456E+00  0.57369758E+00  0.70922217E+00  0.86182108E+00  0.10330065E+01
  0.12239507E+01  0.14354615E+01  0.16679641E+01  0.19214889E+01  0.21956649E+01
  0.24897205E+01  0.28024901E+01  0.31324265E+01  0.34776200E+01  0.38358231E+01
  0.42044800E+01  0.45807612E+01  0.49616027E+01  0.53437485E+01  0.57237957E+01
  0.60982428E+01  0.64635387E+01  0.68161326E+01  0.71525243E+01  0.74693133E+01
  0.77632463E+01  0.80312631E+01  0.82705384E+01  0.84785216E+01  0.86529708E+01
  0.87919838E+01  0.88940230E+01  0.89579355E+01  0.89829672E+01  0.89687718E+01
  0.89154133E+01  0.88233634E+01  0.86934926E+01  0.85270566E+01  0.83256768E+01
  0.80913163E+01  0.78262522E+01  0.75330427E+01  0.72144919E+01  0.68736116E+01
  0.65135808E+01  0.61377037E+01  0.57493674E+01  0.53519982E+01  0.49490198E+01
  0.45438114E+01  0.41396678E+01  0.37397621E+01  0.33471103E+01  0.29645396E+01
  0.25946599E+01  0.22398395E+01  0.19021843E+01  0.15835218E+01  0.12853891E+01
  0.10090258E+01  0.75537048E+00  0.52506238E+00  0.31844653E+00  0.13558306E+00
 -0.23739893E-01 -0.15999003E+00 -0.27387176E+00 -0.36630462E+00 -0.43839949E+00
 -0.49143323E+00 -0.52682214E+00 -0.54609458E+00 -0.55086342E+00 -0.54279858E+00
 -0.52360015E+00 -0.49497253E+00 -0.45859982E+00 -0.41612297E+00 -0.36911879E+00
 -0.31908120E+00 -0.26740484E+00 -0.21537117E+00 -0.16413732E+00 -0.11472741E+00
 -0.68026740E-01 -0.24778467E-01  0.14417103E-01  0.49100842E-01  0.78950870E-01
  0.10377657E+00  0.12351078E+00  0.13820034E+00  0.14799539E+00  0.15313753E+00
 Real Space Part
  0.00000000E+00  0.72986095E+01  0.14560927E+02  0.21750872E+02  0.28832781E+02
  0.35771619E+02  0.42533180E+02  0.49084290E+02  0.55392999E+02  0.61428771E+02
  0.67162665E+02  0.72567510E+02  0.77618066E+02  0.82291182E+02  0.86565935E+02
  0.90423766E+02  0.93848593E+02  0.96826920E+02  0.99347925E+02  0.10140353E+03
  0.10298847E+03  0.10410033E+03  0.10473956E+03  0.10490949E+03  0.10461631E+03
  0.10386905E+03  0.10267953E+03  0.10106226E+03  0.99034387E+02  0.96615558E+02
  0.93827806E+02  0.90695393E+02  0.87244645E+02  0.83503769E+02  0.79502645E+02
  0.75272614E+02  0.70846237E+02  0.66257057E+02  0.61539335E+02  0.56727783E+02
  0.51857290E+02  0.46962640E+02  0.42078225E+02  0.37237766E+02  0.32474028E+02
  0.27818539E+02  0.23301327E+02  0.18950658E+02  0.14792792E+02  0.10851755E+02
  0.71491298E+01  0.37038712E+01  0.53214145E+00 -0.23528249E+01 -0.49408272E+01
 -0.72247777E+01 -0.92007476E+01 -0.10867981E+02 -0.12228877E+02 -0.13288941E+02
 -0.14056705E+02 -0.14543611E+02 -0.14763874E+02 -0.14734315E+02 -0.14474162E+02
 -0.14004842E+02 -0.13349740E+02 -0.12533947E+02 -0.11583998E+02 -0.10527594E+02
 -0.93933202E+01 -0.82103628E+01 -0.70082200E+01 -0.58164218E+01 -0.46642544E+01
 -0.35804939E+01 -0.25931497E+01 -0.17292246E+01 -0.10144902E+01 -0.47322433E+00
 -0.12777910E+00 -0.13874806E-02 -0.64402910E-03  0.10342122E-04  0.12426302E-04
 -0.34903347E-06 -0.24940588E-06  0.19296554E-07  0.45697861E-08 -0.81744840E-09
 -0.41098209E-10  0.24563553E-10 -0.21850460E-11 -0.38022002E-12  0.12117508E-12
 -0.10602937E-13 -0.17624174E-14  0.68345173E-15 -0.10132371E-15 -0.12948524E-29
 PAW radial sets
         373  0.707881450974510     
(5E20.12)                                
 augmentation charges (non sperical)
  0.540889678889E+00  0.161148006734E+00  0.672606468644E-01  0.161148006734E+00 -0.173596655944E+00
  0.114730412720E+00  0.672606468644E-01  0.114730412720E+00  0.290119853312E-02
 uccopancies in atom
  0.199999999994E+01  0.000000000000E+00  0.000000000000E+00  0.000000000000E+00  0.100000000041E+01
  0.000000000000E+00  0.000000000000E+00  0.000000000000E+00  0.000000000000E+00
 grid
  0.222431015208E-04  0.229663916925E-04  0.237132014562E-04  0.244842956104E-04  0.252804638228E-04
  0.261025214392E-04  0.269513103186E-04  0.278276996949E-04  0.287325870673E-04  0.296668991197E-04
  0.306315926692E-04  0.316276556464E-04  0.326561081066E-04  0.337180032752E-04  0.348144286256E-04
  0.359465069931E-04  0.371153977250E-04  0.383222978674E-04  0.395684433916E-04  0.408551104595E-04
  0.421836167306E-04  0.435553227115E-04  0.449716331488E-04  0.464339984683E-04  0.479439162598E-04
  0.495029328111E-04  0.511126446914E-04  0.527747003864E-04  0.544908019861E-04  0.562627069288E-04
  0.580922297998E-04  0.599812441906E-04  0.619316846167E-04  0.639455484998E-04  0.660248982124E-04
  0.681718631903E-04  0.703886421132E-04  0.726775051566E-04  0.750407963161E-04  0.774809358084E-04
  0.800004225496E-04  0.826018367142E-04  0.852878423778E-04  0.880611902448E-04  0.909247204657E-04
  0.938813655458E-04  0.969341533480E-04  0.100086210194E-03  0.103340764065E-03  0.106701147908E-03
  0.110170803052E-03  0.113753282724E-03  0.117452255699E-03  0.121271510047E-03  0.125214957018E-03
  0.129286635047E-03  0.133490713888E-03  0.137831498885E-03  0.142313435381E-03  0.146941113271E-03
  0.151719271702E-03  0.156652803924E-03  0.161746762307E-03  0.167006363508E-03  0.172436993819E-03
  0.178044214681E-03  0.183833768376E-03  0.189811583915E-03  0.195983783102E-03  0.202356686808E-03
  0.208936821445E-03  0.215730925645E-03  0.222745957164E-03  0.229989100008E-03  0.237467771787E-03
  0.245189631316E-03  0.253162586453E-03  0.261394802201E-03  0.269894709069E-03  0.278671011703E-03
  0.287732697804E-03  0.297089047331E-03  0.306749642004E-03  0.316724375115E-03  0.327023461663E-03
  0.337657448813E-03  0.348637226696E-03  0.359974039565E-03  0.371679497306E-03  0.383765587331E-03
  0.396244686853E-03  0.409129575560E-03  0.422433448704E-03  0.436169930613E-03  0.450353088646E-03
  0.464997447595E-03  0.480118004564E-03  0.495730244325E-03  0.511850155174E-03  0.528494245311E-03
  0.545679559736E-03  0.563423697715E-03  0.581744830794E-03  0.600661721416E-03  0.620193742129E-03
  0.640360895429E-03  0.661183834243E-03  0.682683883080E-03  0.704883059870E-03  0.727804098509E-03
  0.751470472143E-03  0.775906417208E-03  0.801136958246E-03  0.827187933536E-03  0.854086021553E-03
  0.881858768290E-03  0.910534615466E-03  0.940142929655E-03  0.970714032357E-03  0.100227923105E-02
  0.103487085127E-02  0.106852226966E-02  0.110326794824E-02  0.113914346960E-02  0.117618557341E-02
  0.121443219403E-02  0.125392249935E-02  0.129469693087E-02  0.133679724519E-02  0.138026655670E-02
  0.142514938178E-02  0.147149168436E-02  0.151934092302E-02  0.156874609954E-02  0.161975780916E-02
  0.167242829231E-02  0.172681148818E-02  0.178296308990E-02  0.184094060164E-02  0.190080339742E-02
  0.196261278198E-02  0.202643205353E-02  0.209232656858E-02  0.216036380887E-02  0.223061345049E-02
  0.230314743520E-02  0.237804004414E-02  0.245536797389E-02  0.253521041501E-02  0.261764913313E-02
  0.270276855270E-02  0.279065584345E-02  0.288140100965E-02  0.297509698227E-02  0.307183971417E-02
  0.317172827837E-02  0.327486496949E-02  0.338135540851E-02  0.349130865094E-02  0.360483729852E-02
  0.372205761450E-02  0.384308964273E-02  0.396805733057E-02  0.409708865587E-02  0.423031575797E-02
  0.436787507308E-02  0.450990747394E-02  0.465655841415E-02  0.480797807708E-02  0.496432152971E-02
  0.512574888139E-02  0.529242544783E-02  0.546452192041E-02  0.564221454095E-02  0.582568528221E-02
  0.601512203428E-02  0.621071879694E-02  0.641267587837E-02  0.662120010027E-02  0.683650500965E-02
  0.705881109757E-02  0.728834602489E-02  0.752534485542E-02  0.777005029668E-02  0.802271294842E-02
  0.828359155928E-02  0.855295329176E-02  0.883107399579E-02  0.911823849130E-02  0.941474085982E-02
  0.972088474567E-02  0.100369836670E-01  0.103633613366E-01  0.107003519938E-01  0.110483007466E-01
  0.114075639247E-01  0.117785094451E-01  0.121615171885E-01  0.125569793882E-01  0.129653010321E-01
  0.133869002772E-01  0.138222088780E-01  0.142716726285E-01  0.147357518189E-01  0.152149217068E-01
  0.157096730041E-01  0.162205123794E-01  0.167479629768E-01  0.172925649517E-01  0.178548760243E-01
  0.184354720501E-01  0.190349476103E-01  0.196539166202E-01  0.202930129581E-01  0.209528911147E-01
  0.216342268627E-01  0.223377179494E-01  0.230640848114E-01  0.238140713116E-01  0.245884455018E-01
  0.253880004088E-01  0.262135548468E-01  0.270659542556E-01  0.279460715667E-01  0.288548080971E-01
  0.297930944725E-01  0.307618915801E-01  0.317621915527E-01  0.327950187850E-01  0.338614309824E-01
  0.349625202440E-01  0.360994141815E-01  0.372732770736E-01  0.384853110586E-01  0.397367573651E-01
  0.410288975836E-01  0.423630549784E-01  0.437405958434E-01  0.451629309008E-01  0.466315167460E-01
  0.481478573391E-01  0.497135055456E-01  0.513300647259E-01  0.529991903779E-01  0.547225918322E-01
  0.565020340024E-01  0.583393391928E-01  0.602363889645E-01  0.621951260623E-01  0.642175564039E-01
  0.663057511350E-01  0.684618487493E-01  0.706880572792E-01  0.729866565568E-01  0.753600005486E-01
  0.778105197662E-01  0.803407237555E-01  0.829532036664E-01  0.856506349067E-01  0.884357798817E-01
  0.913114908231E-01  0.942807127104E-01  0.973464862861E-01  0.100511951170E+00  0.103780349076E+00
  0.107155027127E+00  0.110639441291E+00  0.114237159910E+00  0.117951867363E+00  0.121787367836E+00
  0.125747589215E+00  0.129836587115E+00  0.134058549025E+00  0.138417798604E+00  0.142918800105E+00
  0.147566162945E+00  0.152364646432E+00  0.157319164630E+00  0.162434791401E+00  0.167716765592E+00
  0.173170496407E+00  0.178801568943E+00  0.184615749909E+00  0.190618993536E+00  0.196817447670E+00
  0.203217460069E+00  0.209825584904E+00  0.216648589475E+00  0.223693461132E+00  0.230967414441E+00
  0.238477898566E+00  0.246232604898E+00  0.254239474934E+00  0.262506708409E+00  0.271042771692E+00
  0.279856406458E+00  0.288956638640E+00  0.298352787670E+00  0.308054476026E+00  0.318071639084E+00
  0.328414535295E+00  0.339093756689E+00  0.350120239721E+00  0.361505276474E+00  0.373260526219E+00
  0.385398027361E+00  0.397930209760E+00  0.410869907467E+00  0.424230371863E+00  0.438025285231E+00
  0.452268774767E+00  0.466975427050E+00  0.482160302976E+00  0.497838953186E+00  0.514027433987E+00
  0.530742323799E+00  0.548000740129E+00  0.565820357103E+00  0.584219423567E+00  0.603216781772E+00
  0.622831886674E+00  0.643084825853E+00  0.663996340089E+00  0.685587844601E+00  0.707881450975E+00
  0.730899989812E+00  0.754667034108E+00  0.779206923393E+00  0.804544788659E+00  0.830706578092E+00
  0.857719083652E+00  0.885609968505E+00  0.914407795354E+00  0.944142055691E+00  0.974843199995E+00
  0.100654266892E+01  0.103927292550E+01  0.107306748837E+01  0.110796096611E+01  0.114398909271E+01
  0.118118876410E+01  0.121959807600E+01  0.125925636291E+01  0.130020423837E+01  0.134248363659E+01
  0.138613785536E+01  0.143121160043E+01  0.147775103124E+01  0.152580380824E+01  0.157541914166E+01
  0.162664784196E+01  0.167954237179E+01  0.173415689978E+01  0.179054735597E+01  0.184877148911E+01
  0.190888892582E+01  0.197096123159E+01  0.203505197389E+01  0.210122678725E+01  0.216955344045E+01
  0.224010190596E+01  0.231294443157E+01  0.238815561440E+01  0.246581247726E+01  0.254599454757E+01
  0.262878393878E+01  0.271426543445E+01  0.280252657512E+01  0.289365774789E+01  0.298775227906E+01
  0.308490652964E+01  0.318521999409E+01  0.328879540214E+01
 aepotential
  0.397037718041E+05  0.379386122419E+05  0.362371233792E+05  0.345996164036E+05  0.330260091318E+05
  0.315157219238E+05  0.300681974328E+05  0.286823730320E+05  0.273566563703E+05  0.260896808519E+05
  0.248800653177E+05  0.237261620032E+05  0.226253595036E+05  0.215765408881E+05  0.205774690987E+05
  0.196263679500E+05  0.187208619515E+05  0.178593589461E+05  0.170400450631E+05  0.162596779069E+05
  0.155173130976E+05  0.148154621543E+05  0.141444170567E+05  0.135060225435E+05  0.129023023823E+05
  0.123261525280E+05  0.117777025135E+05  0.112546998157E+05  0.107614742767E+05  0.102892057307E+05
  0.984082017390E+04  0.941322376760E+04  0.900766330173E+04  0.862062192861E+04  0.825257659761E+04
  0.790117581008E+04  0.756676856323E+04  0.724795986053E+04  0.694381619747E+04  0.665477536002E+04
  0.637881658208E+04  0.611493472722E+04  0.586369721945E+04  0.562396329382E+04  0.539498732653E+04
  0.517610163738E+04  0.496745920603E+04  0.476818302567E+04  0.457732019486E+04  0.439497815297E+04
  0.422074459681E+04  0.405417334409E+04  0.389454603455E+04  0.374184254460E+04  0.359555231276E+04
  0.345586501309E+04  0.332194966771E+04  0.319330063157E+04  0.307028385124E+04  0.295237476797E+04
  0.283957547025E+04  0.273124209392E+04  0.262748592513E+04  0.252798644563E+04  0.243227877240E+04
  0.234022786379E+04  0.225219357537E+04  0.216762795217E+04  0.208630149009E+04  0.200825145826E+04
  0.193328099043E+04  0.186129805773E+04  0.179202215738E+04  0.172546766097E+04  0.166140737765E+04
  0.159987736514E+04  0.154065717044E+04  0.148364495429E+04  0.142885493006E+04  0.137610208056E+04
  0.132531969417E+04  0.127645742787E+04  0.122935509992E+04  0.118402039842E+04  0.114034918064E+04
  0.109829631012E+04  0.105776575996E+04  0.101872995558E+04  0.981094910699E+03  0.944807175187E+03
  0.909825311103E+03  0.876093174905E+03  0.843611001958E+03  0.812270450183E+03  0.782019889115E+03
  0.752881385601E+03  0.724749990924E+03  0.697607742828E+03  0.671399682481E+03  0.646119404577E+03
  0.621723842506E+03  0.598191912697E+03  0.575449687030E+03  0.553509546126E+03  0.532319999640E+03
  0.511868239640E+03  0.492108272781E+03  0.473031174754E+03  0.454606846153E+03  0.436809314567E+03
  0.419613801831E+03  0.403006031151E+03  0.386961883977E+03  0.371453407347E+03  0.356477013213E+03
  0.341993566837E+03  0.327999551521E+03  0.314480829598E+03  0.301409849530E+03  0.288777907425E+03
  0.276560318622E+03  0.264759254837E+03  0.253338230143E+03  0.242307442370E+03  0.231636500654E+03
  0.221316211842E+03  0.211339903895E+03  0.201693506028E+03  0.192359274105E+03  0.183333529354E+03
  0.174608417114E+03  0.166164446737E+03  0.157997509937E+03  0.150098674123E+03  0.142456203960E+03
  0.135063477656E+03  0.127908733122E+03  0.120989987535E+03  0.114293633043E+03  0.107814822598E+03
  0.101544697208E+03  0.954781541053E+02  0.896067385442E+02  0.839263892152E+02  0.784278591133E+02
  0.731052760459E+02  0.679560415444E+02  0.629699235394E+02  0.581443742417E+02  0.534726695964E+02
  0.489516262630E+02  0.445741948606E+02  0.403360089016E+02  0.362335729500E+02  0.322609863913E+02
  0.284142969918E+02  0.246906697106E+02  0.210846341344E+02  0.175922154025E+02  0.142110904419E+02
  0.109356802521E+02  0.776431140286E+01  0.469178853814E+01  0.171674984002E+01 -0.116548478041E+01
 -0.395769064441E+01 -0.666222738638E+01 -0.928251213328E+01 -0.118215386139E+02 -0.142804018076E+02
 -0.166648806256E+02 -0.189738019695E+02 -0.212125966513E+02 -0.233814760727E+02 -0.254837245241E+02
 -0.275216973218E+02 -0.294976582955E+02 -0.314123524267E+02 -0.332692493178E+02 -0.350697612669E+02
 -0.368154305987E+02 -0.385086757026E+02 -0.401507132482E+02 -0.417434387764E+02 -0.432884916053E+02
 -0.447876177829E+02 -0.462420061218E+02 -0.476534604408E+02 -0.490231063795E+02 -0.503526274366E+02
 -0.516432448167E+02 -0.528961738644E+02 -0.541127590920E+02 -0.552941982290E+02 -0.564416773997E+02
 -0.575562807250E+02 -0.586391113026E+02 -0.596912560479E+02 -0.607136916412E+02 -0.617074686411E+02
 -0.626734520659E+02 -0.636126212749E+02 -0.645258837779E+02 -0.654137867194E+02 -0.662777755746E+02
 -0.671180254410E+02 -0.679354413413E+02 -0.687310356394E+02 -0.695052454193E+02 -0.702586030373E+02
 -0.709921749816E+02 -0.717060913018E+02 -0.724013645331E+02 -0.730781662461E+02 -0.737372932585E+02
 -0.743791351917E+02 -0.750041230501E+02 -0.756127780653E+02 -0.762054854663E+02 -0.767825821734E+02
 -0.773445335982E+02 -0.778915667979E+02 -0.784240494736E+02 -0.789422681816E+02 -0.794464040435E+02
 -0.799367780917E+02 -0.804135223587E+02 -0.808768207596E+02 -0.813268311245E+02 -0.817636566806E+02
 -0.821873804555E+02 -0.825980837347E+02 -0.829957660605E+02 -0.833804593405E+02 -0.837521194621E+02
 -0.841107030142E+02 -0.844561252416E+02 -0.847882792837E+02 -0.851070170569E+02 -0.854121821506E+02
 -0.857035740467E+02 -0.859809689931E+02 -0.862441223297E+02 -0.864927463580E+02 -0.867265418410E+02
 -0.869451768751E+02 -0.871482906908E+02 -0.873354968612E+02 -0.875063977455E+02 -0.876605666291E+02
 -0.877975272374E+02 -0.879168390411E+02 -0.880179759702E+02 -0.881004603123E+02 -0.881637405899E+02
 -0.882072904223E+02 -0.882305586155E+02 -0.882329754977E+02 -0.882139847020E+02 -0.881730118417E+02
 -0.881094822476E+02 -0.880228313166E+02 -0.879124974483E+02 -0.877779277911E+02 -0.876185799952E+02
 -0.874339345790E+02 -0.872234925319E+02 -0.869867796775E+02 -0.867233569311E+02 -0.864328140025E+02
 -0.861147874264E+02 -0.857689534528E+02 -0.853950445382E+02 -0.849928423625E+02 -0.845621887934E+02
 -0.841029956654E+02 -0.836152363178E+02 -0.830989645929E+02 -0.825543032308E+02 -0.819814667838E+02
 -0.813807449695E+02 -0.807525217340E+02 -0.800972681676E+02 -0.794155475293E+02 -0.787080167021E+02
 -0.779754258859E+02 -0.772186188781E+02 -0.764385290116E+02 -0.756361792709E+02 -0.748126759085E+02
 -0.739692055783E+02 -0.731070247908E+02 -0.722274544976E+02 -0.713318659900E+02 -0.704216709096E+02
 -0.694983026887E+02 -0.685632013690E+02 -0.676177906235E+02 -0.666634559310E+02 -0.657015175490E+02
 -0.647332031485E+02 -0.637596175611E+02 -0.627817128259E+02 -0.618002592400E+02 -0.608158199505E+02
 -0.598287316353E+02 -0.588390952259E+02 -0.578467797655E+02 -0.568514443765E+02 -0.558525796978E+02
 -0.548495724402E+02 -0.538417918446E+02 -0.528286948006E+02 -0.518099423551E+02 -0.507855160967E+02
 -0.497558188845E+02 -0.487217414167E+02 -0.476846753432E+02 -0.466464562902E+02 -0.456092278827E+02
 -0.445752324845E+02 -0.435465590299E+02 -0.425249187019E+02 -0.415115871343E+02 -0.405077690237E+02
 -0.395158359789E+02 -0.385421579074E+02 -0.376024062002E+02 -0.367294967374E+02 -0.359808662611E+02
 -0.354328821202E+02 -0.351372798143E+02 -0.350180532709E+02 -0.347709201632E+02 -0.340144174874E+02
 -0.327422218144E+02 -0.313372064006E+02 -0.300773983515E+02 -0.289984792998E+02 -0.280466751151E+02
 -0.271725878119E+02 -0.263473079737E+02 -0.255562805399E+02 -0.247926643620E+02 -0.240534320590E+02
 -0.233373717193E+02 -0.226440956513E+02 -0.219735362134E+02 -0.213257099646E+02 -0.207006056271E+02
 -0.200981544445E+02 -0.195182548392E+02 -0.189607719020E+02 -0.184255879530E+02 -0.179125499736E+02
 -0.174214921907E+02 -0.169521022626E+02 -0.165038836095E+02 -0.160760305862E+02 -0.156673420701E+02
 -0.152762157666E+02 -0.149006713141E+02 -0.145384468596E+02 -0.141871896438E+02 -0.138445926362E+02
 -0.135085891138E+02 -0.131774597215E+02 -0.128499168080E+02 -0.125251306663E+02 -0.122027210129E+02
 -0.118827190046E+02 -0.115655116152E+02 -0.112517751574E+02
 core charge-density
  0.000000000000E+00  0.000000000000E+00  0.000000000000E+00  0.000000000000E+00  0.000000000000E+00
  0.000000000000E+00  0.000000000000E+00  0.000000000000E+00  0.000000000000E+00  0.000000000000E+00
  0.000000000000E+00  0.000000000000E+00  0.000000000000E+00  0.000000000000E+00  0.000000000000E+00
  0.000000000000E+00  0.000000000000E+00  0.000000000000E+00  0.000000000000E+00  0.000000000000E+00
  0.000000000000E+00  0.000000000000E+00  0.000000000000E+00  0.000000000000E+00  0.000000000000E+00
  0.000000000000E+00  0.000000000000E+00  0.000000000000E+00  0.000000000000E+00  0.000000000000E+00
  0.000000000000E+00  0.000000000000E+00  0.000000000000E+00  0.000000000000E+00  0.000000000000E+00
  0.000000000000E+00  0.000000000000E+00  0.000000000000E+00  0.000000000000E+00  0.000000000000E+00
  0.000000000000E+00  0.000000000000E+00  0.000000000000E+00  0.000000000000E+00  0.000000000000E+00
  0.000000000000E+00  0.000000000000E+00  0.000000000000E+00  0.000000000000E+00  0.000000000000E+00
  0.000000000000E+00  0.000000000000E+00  0.000000000000E+00  0.000000000000E+00  0.000000000000E+00
  0.000000000000E+00  0.000000000000E+00  0.000000000000E+00  0.000000000000E+00  0.000000000000E+00
  0.000000000000E+00  0.000000000000E+00  0.000000000000E+00  0.000000000000E+00  0.000000000000E+00
  0.000000000000E+00  0.000000000000E+00  0.000000000000E+00  0.000000000000E+00  0.000000000000E+00
  0.000000000000E+00  0.000000000000E+00  0.000000000000E+00  0.000000000000E+00  0.000000000000E+00
  0.000000000000E+00  0.000000000000E+00  0.000000000000E+00  0.000000000000E+00  0.000000000000E+00
  0.000000000000E+00  0.000000000000E+00  0.000000000000E+00  0.000000000000E+00  0.000000000000E+00
  0.000000000000E+00  0.000000000000E+00  0.000000000000E+00  0.000000000000E+00  0.000000000000E+00
  0.000000000000E+00  0.000000000000E+00  0.000000000000E+00  0.000000000000E+00  0.000000000000E+00
  0.000000000000E+00  0.000000000000E+00  0.000000000000E+00  0.000000000000E+00  0.000000000000E+00
  0.000000000000E+00  0.000000000000E+00  0.000000000000E+00  0.000000000000E+00  0.000000000000E+00
  0.000000000000E+00  0.000000000000E+00  0.000000000000E+00  0.000000000000E+00  0.000000000000E+00
  0.000000000000E+00  0.000000000000E+00  0.000000000000E+00  0.000000000000E+00  0.000000000000E+00
  0.000000000000E+00  0.000000000000E+00  0.000000000000E+00  0.000000000000E+00  0.000000000000E+00
  0.000000000000E+00  0.000000000000E+00  0.000000000000E+00  0.000000000000E+00  0.000000000000E+00
  0.000000000000E+00  0.000000000000E+00  0.000000000000E+00  0.000000000000E+00  0.000000000000E+00
  0.000000000000E+00  0.000000000000E+00  0.000000000000E+00  0.000000000000E+00  0.000000000000E+00
  0.000000000000E+00  0.000000000000E+00  0.000000000000E+00  0.000000000000E+00  0.000000000000E+00
  0.000000000000E+00  0.000000000000E+00  0.000000000000E+00  0.000000000000E+00  0.000000000000E+00
  0.000000000000E+00  0.000000000000E+00  0.000000000000E+00  0.000000000000E+00  0.000000000000E+00
  0.000000000000E+00  0.000000000000E+00  0.000000000000E+00  0.000000000000E+00  0.000000000000E+00
  0.000000000000E+00  0.000000000000E+00  0.000000000000E+00  0.000000000000E+00  0.000000000000E+00
  0.000000000000E+00  0.000000000000E+00  0.000000000000E+00  0.000000000000E+00  0.000000000000E+00
  0.000000000000E+00  0.000000000000E+00  0.000000000000E+00  0.000000000000E+00  0.000000000000E+00
  0.000000000000E+00  0.000000000000E+00  0.000000000000E+00  0.000000000000E+00  0.000000000000E+00
  0.000000000000E+00  0.000000000000E+00  0.000000000000E+00  0.000000000000E+00  0.000000000000E+00
  0.000000000000E+00  0.000000000000E+00  0.000000000000E+00  0.000000000000E+00  0.000000000000E+00
  0.000000000000E+00  0.000000000000E+00  0.000000000000E+00  0.000000000000E+00  0.000000000000E+00
  0.000000000000E+00  0.000000000000E+00  0.000000000000E+00  0.000000000000E+00  0.000000000000E+00
  0.000000000000E+00  0.000000000000E+00  0.000000000000E+00  0.000000000000E+00  0.000000000000E+00
  0.000000000000E+00  0.000000000000E+00  0.000000000000E+00  0.000000000000E+00  0.000000000000E+00
  0.000000000000E+00  0.000000000000E+00  0.000000000000E+00  0.000000000000E+00  0.000000000000E+00
  0.000000000000E+00  0.000000000000E+00  0.000000000000E+00  0.000000000000E+00  0.000000000000E+00
  0.000000000000E+00  0.000000000000E+00  0.000000000000E+00  0.000000000000E+00  0.000000000000E+00
  0.000000000000E+00  0.000000000000E+00  0.000000000000E+00  0.000000000000E+00  0.000000000000E+00
  0.000000000000E+00  0.000000000000E+00  0.000000000000E+00  0.000000000000E+00  0.000000000000E+00
  0.000000000000E+00  0.000000000000E+00  0.000000000000E+00  0.000000000000E+00  0.000000000000E+00
  0.000000000000E+00  0.000000000000E+00  0.000000000000E+00  0.000000000000E+00  0.000000000000E+00
  0.000000000000E+00  0.000000000000E+00  0.000000000000E+00  0.000000000000E+00  0.000000000000E+00
  0.000000000000E+00  0.000000000000E+00  0.000000000000E+00  0.000000000000E+00  0.000000000000E+00
  0.000000000000E+00  0.000000000000E+00  0.000000000000E+00  0.000000000000E+00  0.000000000000E+00
  0.000000000000E+00  0.000000000000E+00  0.000000000000E+00  0.000000000000E+00  0.000000000000E+00
  0.000000000000E+00  0.000000000000E+00  0.000000000000E+00  0.000000000000E+00  0.000000000000E+00
  0.000000000000E+00  0.000000000000E+00  0.000000000000E+00  0.000000000000E+00  0.000000000000E+00
  0.000000000000E+00  0.000000000000E+00  0.000000000000E+00  0.000000000000E+00  0.000000000000E+00
  0.000000000000E+00  0.000000000000E+00  0.000000000000E+00  0.000000000000E+00  0.000000000000E+00
  0.000000000000E+00  0.000000000000E+00  0.000000000000E+00  0.000000000000E+00  0.000000000000E+00
  0.000000000000E+00  0.000000000000E+00  0.000000000000E+00  0.000000000000E+00  0.000000000000E+00
  0.000000000000E+00  0.000000000000E+00  0.000000000000E+00  0.000000000000E+00  0.000000000000E+00
  0.000000000000E+00  0.000000000000E+00  0.000000000000E+00  0.000000000000E+00  0.000000000000E+00
  0.000000000000E+00  0.000000000000E+00  0.000000000000E+00  0.000000000000E+00  0.000000000000E+00
  0.000000000000E+00  0.000000000000E+00  0.000000000000E+00  0.000000000000E+00  0.000000000000E+00
  0.000000000000E+00  0.000000000000E+00  0.000000000000E+00  0.000000000000E+00  0.000000000000E+00
  0.000000000000E+00  0.000000000000E+00  0.000000000000E+00  0.000000000000E+00  0.000000000000E+00
  0.000000000000E+00  0.000000000000E+00  0.000000000000E+00  0.000000000000E+00  0.000000000000E+00
  0.000000000000E+00  0.000000000000E+00  0.000000000000E+00  0.000000000000E+00  0.000000000000E+00
  0.000000000000E+00  0.000000000000E+00  0.000000000000E+00  0.000000000000E+00  0.000000000000E+00
  0.000000000000E+00  0.000000000000E+00  0.000000000000E+00  0.000000000000E+00  0.000000000000E+00
  0.000000000000E+00  0.000000000000E+00  0.000000000000E+00  0.000000000000E+00  0.000000000000E+00
  0.000000000000E+00  0.000000000000E+00  0.000000000000E+00  0.000000000000E+00  0.000000000000E+00
  0.000000000000E+00  0.000000000000E+00  0.000000000000E+00  0.000000000000E+00  0.000000000000E+00
  0.000000000000E+00  0.000000000000E+00  0.000000000000E+00  0.000000000000E+00  0.000000000000E+00
  0.000000000000E+00  0.000000000000E+00  0.000000000000E+00  0.000000000000E+00  0.000000000000E+00
  0.000000000000E+00  0.000000000000E+00  0.000000000000E+00  0.000000000000E+00  0.000000000000E+00
  0.000000000000E+00  0.000000000000E+00  0.000000000000E+00
 kinetic energy-density
  0.000000000000E+00  0.000000000000E+00  0.000000000000E+00  0.000000000000E+00  0.000000000000E+00
  0.000000000000E+00  0.000000000000E+00  0.000000000000E+00  0.000000000000E+00  0.000000000000E+00
  0.000000000000E+00  0.000000000000E+00  0.000000000000E+00  0.000000000000E+00  0.000000000000E+00
  0.000000000000E+00  0.000000000000E+00  0.000000000000E+00  0.000000000000E+00  0.000000000000E+00
  0.000000000000E+00  0.000000000000E+00  0.000000000000E+00  0.000000000000E+00  0.000000000000E+00
  0.000000000000E+00  0.000000000000E+00  0.000000000000E+00  0.000000000000E+00  0.000000000000E+00
  0.000000000000E+00  0.000000000000E+00  0.000000000000E+00  0.000000000000E+00  0.000000000000E+00
  0.000000000000E+00  0.000000000000E+00  0.000000000000E+00  0.000000000000E+00  0.000000000000E+00
  0.000000000000E+00  0.000000000000E+00  0.000000000000E+00  0.000000000000E+00  0.000000000000E+00
  0.000000000000E+00  0.000000000000E+00  0.000000000000E+00  0.000000000000E+00  0.000000000000E+00
  0.000000000000E+00  0.000000000000E+00  0.000000000000E+00  0.000000000000E+00  0.000000000000E+00
  0.000000000000E+00  0.000000000000E+00  0.000000000000E+00  0.000000000000E+00  0.000000000000E+00
  0.000000000000E+00  0.000000000000E+00  0.000000000000E+00  0.000000000000E+00  0.000000000000E+00
  0.000000000000E+00  0.000000000000E+00  0.000000000000E+00  0.000000000000E+00  0.000000000000E+00
  0.000000000000E+00  0.000000000000E+00  0.000000000000E+00  0.000000000000E+00  0.000000000000E+00
  0.000000000000E+00  0.000000000000E+00  0.000000000000E+00  0.000000000000E+00  0.000000000000E+00
  0.000000000000E+00  0.000000000000E+00  0.000000000000E+00  0.000000000000E+00  0.000000000000E+00
  0.000000000000E+00  0.000000000000E+00  0.000000000000E+00  0.000000000000E+00  0.000000000000E+00
  0.000000000000E+00  0.000000000000E+00  0.000000000000E+00  0.000000000000E+00  0.000000000000E+00
  0.000000000000E+00  0.000000000000E+00  0.000000000000E+00  0.000000000000E+00  0.000000000000E+00
  0.000000000000E+00  0.000000000000E+00  0.000000000000E+00  0.000000000000E+00  0.000000000000E+00
  0.000000000000E+00  0.000000000000E+00  0.000000000000E+00  0.000000000000E+00  0.000000000000E+00
  0.000000000000E+00  0.000000000000E+00  0.000000000000E+00  0.000000000000E+00  0.000000000000E+00
  0.000000000000E+00  0.000000000000E+00  0.000000000000E+00  0.000000000000E+00  0.000000000000E+00
  0.000000000000E+00  0.000000000000E+00  0.000000000000E+00  0.000000000000E+00  0.000000000000E+00
  0.000000000000E+00  0.000000000000E+00  0.000000000000E+00  0.000000000000E+00  0.000000000000E+00
  0.000000000000E+00  0.000000000000E+00  0.000000000000E+00  0.000000000000E+00  0.000000000000E+00
  0.000000000000E+00  0.000000000000E+00  0.000000000000E+00  0.000000000000E+00  0.000000000000E+00
  0.000000000000E+00  0.000000000000E+00  0.000000000000E+00  0.000000000000E+00  0.000000000000E+00
  0.000000000000E+00  0.000000000000E+00  0.000000000000E+00  0.000000000000E+00  0.000000000000E+00
  0.000000000000E+00  0.000000000000E+00  0.000000000000E+00  0.000000000000E+00  0.000000000000E+00
  0.000000000000E+00  0.000000000000E+00  0.000000000000E+00  0.000000000000E+00  0.000000000000E+00
  0.000000000000E+00  0.000000000000E+00  0.000000000000E+00  0.000000000000E+00  0.000000000000E+00
  0.000000000000E+00  0.000000000000E+00  0.000000000000E+00  0.000000000000E+00  0.000000000000E+00
  0.000000000000E+00  0.000000000000E+00  0.000000000000E+00  0.000000000000E+00  0.000000000000E+00
  0.000000000000E+00  0.000000000000E+00  0.000000000000E+00  0.000000000000E+00  0.000000000000E+00
  0.000000000000E+00  0.000000000000E+00  0.000000000000E+00  0.000000000000E+00  0.000000000000E+00
  0.000000000000E+00  0.000000000000E+00  0.000000000000E+00  0.000000000000E+00  0.000000000000E+00
  0.000000000000E+00  0.000000000000E+00  0.000000000000E+00  0.000000000000E+00  0.000000000000E+00
  0.000000000000E+00  0.000000000000E+00  0.000000000000E+00  0.000000000000E+00  0.000000000000E+00
  0.000000000000E+00  0.000000000000E+00  0.000000000000E+00  0.000000000000E+00  0.000000000000E+00
  0.000000000000E+00  0.000000000000E+00  0.000000000000E+00  0.000000000000E+00  0.000000000000E+00
  0.000000000000E+00  0.000000000000E+00  0.000000000000E+00  0.000000000000E+00  0.000000000000E+00
  0.000000000000E+00  0.000000000000E+00  0.000000000000E+00  0.000000000000E+00  0.000000000000E+00
  0.000000000000E+00  0.000000000000E+00  0.000000000000E+00  0.000000000000E+00  0.000000000000E+00
  0.000000000000E+00  0.000000000000E+00  0.000000000000E+00  0.000000000000E+00  0.000000000000E+00
  0.000000000000E+00  0.000000000000E+00  0.000000000000E+00  0.000000000000E+00  0.000000000000E+00
  0.000000000000E+00  0.000000000000E+00  0.000000000000E+00  0.000000000000E+00  0.000000000000E+00
  0.000000000000E+00  0.000000000000E+00  0.000000000000E+00  0.000000000000E+00  0.000000000000E+00
  0.000000000000E+00  0.000000000000E+00  0.000000000000E+00  0.000000000000E+00  0.000000000000E+00
  0.000000000000E+00  0.000000000000E+00  0.000000000000E+00  0.000000000000E+00  0.000000000000E+00
  0.000000000000E+00  0.000000000000E+00  0.000000000000E+00  0.000000000000E+00  0.000000000000E+00
  0.000000000000E+00  0.000000000000E+00  0.000000000000E+00  0.000000000000E+00  0.000000000000E+00
  0.000000000000E+00  0.000000000000E+00  0.000000000000E+00  0.000000000000E+00  0.000000000000E+00
  0.000000000000E+00  0.000000000000E+00  0.000000000000E+00  0.000000000000E+00  0.000000000000E+00
  0.000000000000E+00  0.000000000000E+00  0.000000000000E+00  0.000000000000E+00  0.000000000000E+00
  0.000000000000E+00  0.000000000000E+00  0.000000000000E+00  0.000000000000E+00  0.000000000000E+00
  0.000000000000E+00  0.000000000000E+00  0.000000000000E+00  0.000000000000E+00  0.000000000000E+00
  0.000000000000E+00  0.000000000000E+00  0.000000000000E+00  0.000000000000E+00  0.000000000000E+00
  0.000000000000E+00  0.000000000000E+00  0.000000000000E+00  0.000000000000E+00  0.000000000000E+00
  0.000000000000E+00  0.000000000000E+00  0.000000000000E+00  0.000000000000E+00  0.000000000000E+00
  0.000000000000E+00  0.000000000000E+00  0.000000000000E+00  0.000000000000E+00  0.000000000000E+00
  0.000000000000E+00  0.000000000000E+00  0.000000000000E+00  0.000000000000E+00  0.000000000000E+00
  0.000000000000E+00  0.000000000000E+00  0.000000000000E+00  0.000000000000E+00  0.000000000000E+00
  0.000000000000E+00  0.000000000000E+00  0.000000000000E+00  0.000000000000E+00  0.000000000000E+00
  0.000000000000E+00  0.000000000000E+00  0.000000000000E+00  0.000000000000E+00  0.000000000000E+00
  0.000000000000E+00  0.000000000000E+00  0.000000000000E+00  0.000000000000E+00  0.000000000000E+00
  0.000000000000E+00  0.000000000000E+00  0.000000000000E+00  0.000000000000E+00  0.000000000000E+00
  0.000000000000E+00  0.000000000000E+00  0.000000000000E+00  0.000000000000E+00  0.000000000000E+00
  0.000000000000E+00  0.000000000000E+00  0.000000000000E+00  0.000000000000E+00  0.000000000000E+00
  0.000000000000E+00  0.000000000000E+00  0.000000000000E+00  0.000000000000E+00  0.000000000000E+00
  0.000000000000E+00  0.000000000000E+00  0.000000000000E+00  0.000000000000E+00  0.000000000000E+00
  0.000000000000E+00  0.000000000000E+00  0.000000000000E+00  0.000000000000E+00  0.000000000000E+00
  0.000000000000E+00  0.000000000000E+00  0.000000000000E+00  0.000000000000E+00  0.000000000000E+00
  0.000000000000E+00  0.000000000000E+00  0.000000000000E+00
 local pseudopotential core
 -0.184675154608E+03 -0.184675170020E+03 -0.184675184945E+03 -0.184675199398E+03 -0.184675213394E+03
 -0.184675226946E+03 -0.184675240068E+03 -0.184675252775E+03 -0.184675265078E+03 -0.184675276991E+03
 -0.184675288524E+03 -0.184675299692E+03 -0.184675310503E+03 -0.184675320969E+03 -0.184675331102E+03
 -0.184675340911E+03 -0.184675350405E+03 -0.184675359595E+03 -0.184675368490E+03 -0.184675377098E+03
 -0.184675385429E+03 -0.184675393491E+03 -0.184675401291E+03 -0.184675408837E+03 -0.184675416138E+03
 -0.184675423199E+03 -0.184675430028E+03 -0.184675436632E+03 -0.184675443017E+03 -0.184675449189E+03
 -0.184675455154E+03 -0.184675460918E+03 -0.184675466487E+03 -0.184675471864E+03 -0.184675477057E+03
 -0.184675482068E+03 -0.184675486904E+03 -0.184675491567E+03 -0.184675496063E+03 -0.184675500395E+03
 -0.184675504567E+03 -0.184675508582E+03 -0.184675512444E+03 -0.184675516155E+03 -0.184675519719E+03
 -0.184675523138E+03 -0.184675526415E+03 -0.184675529551E+03 -0.184675532549E+03 -0.184675535410E+03
 -0.184675538136E+03 -0.184675540729E+03 -0.184675543189E+03 -0.184675545517E+03 -0.184675547713E+03
 -0.184675549779E+03 -0.184675551713E+03 -0.184675553516E+03 -0.184675555187E+03 -0.184675556726E+03
 -0.184675558131E+03 -0.184675559401E+03 -0.184675560534E+03 -0.184675561528E+03 -0.184675562380E+03
 -0.184675563089E+03 -0.184675563650E+03 -0.184675564060E+03 -0.184675564314E+03 -0.184675564409E+03
 -0.184675564339E+03 -0.184675564100E+03 -0.184675563684E+03 -0.184675563085E+03 -0.184675562296E+03
 -0.184675561309E+03 -0.184675560116E+03 -0.184675558708E+03 -0.184675557074E+03 -0.184675555204E+03
 -0.184675553086E+03 -0.184675550709E+03 -0.184675548057E+03 -0.184675545118E+03 -0.184675541875E+03
 -0.184675538312E+03 -0.184675534411E+03 -0.184675530153E+03 -0.184675525517E+03 -0.184675520482E+03
 -0.184675515025E+03 -0.184675509119E+03 -0.184675502738E+03 -0.184675495854E+03 -0.184675488435E+03
 -0.184675480449E+03 -0.184675471861E+03 -0.184675462633E+03 -0.184675452726E+03 -0.184675442097E+03
 -0.184675430699E+03 -0.184675418485E+03 -0.184675405402E+03 -0.184675391394E+03 -0.184675376404E+03
 -0.184675360367E+03 -0.184675343216E+03 -0.184675324879E+03 -0.184675305280E+03 -0.184675284336E+03
 -0.184675261960E+03 -0.184675238060E+03 -0.184675212535E+03 -0.184675185280E+03 -0.184675156182E+03
 -0.184675125120E+03 -0.184675091967E+03 -0.184675056584E+03 -0.184675018825E+03 -0.184674978536E+03
 -0.184674935549E+03 -0.184674889687E+03 -0.184674840763E+03 -0.184674788573E+03 -0.184674732903E+03
 -0.184674673525E+03 -0.184674610194E+03 -0.184674542650E+03 -0.184674470615E+03 -0.184674393793E+03
 -0.184674311869E+03 -0.184674224506E+03 -0.184674131345E+03 -0.184674032005E+03 -0.184673926077E+03
 -0.184673813126E+03 -0.184673692690E+03 -0.184673564274E+03 -0.184673427352E+03 -0.184673281361E+03
 -0.184673125703E+03 -0.184672959740E+03 -0.184672782792E+03 -0.184672594132E+03 -0.184672392987E+03
 -0.184672178533E+03 -0.184671949891E+03 -0.184671706123E+03 -0.184671446230E+03 -0.184671169147E+03
 -0.184670873738E+03 -0.184670558793E+03 -0.184670223021E+03 -0.184669865046E+03 -0.184669483400E+03
 -0.184669076521E+03 -0.184668642740E+03 -0.184668180281E+03 -0.184667687248E+03 -0.184667161621E+03
 -0.184666601247E+03 -0.184666003830E+03 -0.184665366921E+03 -0.184664687912E+03 -0.184663964021E+03
 -0.184663192282E+03 -0.184662369533E+03 -0.184661492405E+03 -0.184660557304E+03 -0.184659560398E+03
 -0.184658497606E+03 -0.184657364573E+03 -0.184656156659E+03 -0.184654868916E+03 -0.184653496069E+03
 -0.184652032496E+03 -0.184650472203E+03 -0.184648808799E+03 -0.184647035472E+03 -0.184645144962E+03
 -0.184643129525E+03 -0.184640980909E+03 -0.184638690317E+03 -0.184636248370E+03 -0.184633645070E+03
 -0.184630869759E+03 -0.184627911077E+03 -0.184624756911E+03 -0.184621394351E+03 -0.184617809635E+03
 -0.184613988091E+03 -0.184609914080E+03 -0.184605570932E+03 -0.184600940877E+03 -0.184596004972E+03
 -0.184590743024E+03 -0.184585133512E+03 -0.184579153492E+03 -0.184572778509E+03 -0.184565982498E+03
 -0.184558737674E+03 -0.184551014423E+03 -0.184542781179E+03 -0.184534004298E+03 -0.184524647921E+03
 -0.184514673829E+03 -0.184504041286E+03 -0.184492706879E+03 -0.184480624338E+03 -0.184467744352E+03
 -0.184454014368E+03 -0.184439378383E+03 -0.184423776713E+03 -0.184407145759E+03 -0.184389417748E+03
 -0.184370520462E+03 -0.184350376950E+03 -0.184328905220E+03 -0.184306017911E+03 -0.184281621948E+03
 -0.184255618168E+03 -0.184227900929E+03 -0.184198357692E+03 -0.184166868577E+03 -0.184133305889E+03
 -0.184097533617E+03 -0.184059406905E+03 -0.184018771479E+03 -0.183975463052E+03 -0.183929306686E+03
 -0.183880116116E+03 -0.183827693029E+03 -0.183771826310E+03 -0.183712291233E+03 -0.183648848609E+03
 -0.183581243879E+03 -0.183509206166E+03 -0.183432447253E+03 -0.183350660523E+03 -0.183263519825E+03
 -0.183170678281E+03 -0.183071767030E+03 -0.182966393899E+03 -0.182854142008E+03 -0.182734568295E+03
 -0.182607201971E+03 -0.182471542898E+03 -0.182327059878E+03 -0.182173188871E+03 -0.182009331122E+03
 -0.181834851209E+03 -0.181649075002E+03 -0.181451287539E+03 -0.181240730821E+03 -0.181016601516E+03
 -0.180778048595E+03 -0.180524170882E+03 -0.180254014535E+03 -0.179966570470E+03 -0.179660771715E+03
 -0.179335490732E+03 -0.178989536695E+03 -0.178621652757E+03 -0.178230513316E+03 -0.177814721302E+03
 -0.177372805516E+03 -0.176903218044E+03 -0.176404331791E+03 -0.175874438167E+03 -0.175311744986E+03
 -0.174714374615E+03 -0.174080362461E+03 -0.173407655846E+03 -0.172694113383E+03 -0.171937504925E+03
 -0.171135512218E+03 -0.170285730386E+03 -0.169385670387E+03 -0.168432762631E+03 -0.167424361938E+03
 -0.166357754082E+03 -0.165230164175E+03 -0.164038767191E+03 -0.162780701003E+03 -0.161453082318E+03
 -0.160053026008E+03 -0.158577668380E+03 -0.157024195042E+03 -0.155389874136E+03 -0.153672095820E+03
 -0.151868419062E+03 -0.149976626978E+03 -0.147994792163E+03 -0.145921353670E+03 -0.143755207551E+03
 -0.141495813050E+03 -0.139143316626E+03 -0.136698695791E+03 -0.134163924006E+03 -0.131542155972E+03
 -0.128837928762E+03 -0.126057366554E+03 -0.123208362878E+03 -0.120300690511E+03 -0.117345951600E+03
 -0.114357227314E+03 -0.111348224831E+03 -0.108331679356E+03 -0.105316820168E+03 -0.102305968748E+03
 -0.992909230005E+02 -0.962506742926E+02 -0.931528273996E+02 -0.899610224896E+02 -0.866487814313E+02
 -0.832164197492E+02 -0.797035703798E+02 -0.761885437934E+02 -0.727698294874E+02 -0.695339723130E+02
 -0.665251248474E+02 -0.637528418038E+02 -0.613399329259E+02 -0.598664911085E+02 -0.599176268922E+02
 -0.588001598379E+02 -0.574147270056E+02 -0.556370868811E+02 -0.538674624756E+02 -0.521052946921E+02
 -0.503879541538E+02 -0.487753860875E+02 -0.472409484702E+02 -0.457550761922E+02 -0.443141118123E+02
 -0.429185332725E+02 -0.415668909931E+02 -0.402578073198E+02 -0.389899488932E+02 -0.377620175924E+02
 -0.365727601322E+02 -0.354209595080E+02 -0.343054323524E+02 -0.332250377144E+02 -0.321786680016E+02
 -0.311652532571E+02 -0.301837533302E+02 -0.292331635617E+02 -0.283125126242E+02 -0.274208558935E+02
 -0.265572812093E+02 -0.257209014351E+02 -0.249108646442E+02 -0.241263362693E+02 -0.233665148348E+02
 -0.226306279645E+02 -0.219179094111E+02 -0.212276385475E+02 -0.205591111491E+02 -0.199116328281E+02
 -0.192845475376E+02 -0.186772136628E+02 -0.180890017918E+02 -0.175193186508E+02 -0.169675746441E+02
 -0.164332079128E+02 -0.159156698950E+02 -0.154144312478E+02 -0.149289782966E+02 -0.144588139299E+02
 -0.140034566461E+02 -0.135624401043E+02 -0.131353126658E+02
 pspotential valence only
 -0.769024267577E+02 -0.769024421816E+02 -0.769024571197E+02 -0.769024715865E+02 -0.769024855966E+02
 -0.769024991645E+02 -0.769025123037E+02 -0.769025250279E+02 -0.769025373500E+02 -0.769025492825E+02
 -0.769025608377E+02 -0.769025720276E+02 -0.769025828634E+02 -0.769025933558E+02 -0.769026035162E+02
 -0.769026133545E+02 -0.769026228805E+02 -0.769026321043E+02 -0.769026410352E+02 -0.769026496818E+02
 -0.769026580533E+02 -0.769026661582E+02 -0.769026740047E+02 -0.769026816006E+02 -0.769026889536E+02
 -0.769026960710E+02 -0.769027029599E+02 -0.769027096275E+02 -0.769027160803E+02 -0.769027223247E+02
 -0.769027283672E+02 -0.769027342135E+02 -0.769027398696E+02 -0.769027453410E+02 -0.769027506329E+02
 -0.769027557509E+02 -0.769027606996E+02 -0.769027654841E+02 -0.769027701087E+02 -0.769027745781E+02
 -0.769027788963E+02 -0.769027830677E+02 -0.769027870959E+02 -0.769027909849E+02 -0.769027947380E+02
 -0.769027983588E+02 -0.769028018504E+02 -0.769028052160E+02 -0.769028084583E+02 -0.769028115802E+02
 -0.769028145844E+02 -0.769028174731E+02 -0.769028202485E+02 -0.769028229130E+02 -0.769028254684E+02
 -0.769028279163E+02 -0.769028302585E+02 -0.769028324964E+02 -0.769028346313E+02 -0.769028366642E+02
 -0.769028385960E+02 -0.769028404276E+02 -0.769028421593E+02 -0.769028437916E+02 -0.769028453247E+02
 -0.769028467586E+02 -0.769028480929E+02 -0.769028493273E+02 -0.769028504610E+02 -0.769028514931E+02
 -0.769028524226E+02 -0.769028532479E+02 -0.769028539674E+02 -0.769028545791E+02 -0.769028550809E+02
 -0.769028554702E+02 -0.769028557441E+02 -0.769028558996E+02 -0.769028559329E+02 -0.769028558403E+02
 -0.769028556175E+02 -0.769028552597E+02 -0.769028547618E+02 -0.769028541183E+02 -0.769028533230E+02
 -0.769028523694E+02 -0.769028512503E+02 -0.769028499580E+02 -0.769028484842E+02 -0.769028468200E+02
 -0.769028449556E+02 -0.769028428807E+02 -0.769028405841E+02 -0.769028380539E+02 -0.769028352771E+02
 -0.769028322400E+02 -0.769028289277E+02 -0.769028253245E+02 -0.769028214134E+02 -0.769028171762E+02
 -0.769028125936E+02 -0.769028076446E+02 -0.769028023072E+02 -0.769027965575E+02 -0.769027903703E+02
 -0.769027837183E+02 -0.769027765727E+02 -0.769027689025E+02 -0.769027606747E+02 -0.769027518540E+02
 -0.769027424029E+02 -0.769027322810E+02 -0.769027214456E+02 -0.769027098509E+02 -0.769026974480E+02
 -0.769026841849E+02 -0.769026700061E+02 -0.769026548521E+02 -0.769026386597E+02 -0.769026213616E+02
 -0.769026028857E+02 -0.769025831552E+02 -0.769025620884E+02 -0.769025395978E+02 -0.769025155905E+02
 -0.769024899670E+02 -0.769024626216E+02 -0.769024334413E+02 -0.769024023057E+02 -0.769023690865E+02
 -0.769023336467E+02 -0.769022958403E+02 -0.769022555118E+02 -0.769022124952E+02 -0.769021666135E+02
 -0.769021176781E+02 -0.769020654878E+02 -0.769020098282E+02 -0.769019504707E+02 -0.769018871713E+02
 -0.769018196704E+02 -0.769017476906E+02 -0.769016709366E+02 -0.769015890935E+02 -0.769015018254E+02
 -0.769014087742E+02 -0.769013095584E+02 -0.769012037709E+02 -0.769010909780E+02 -0.769009707171E+02
 -0.769008424951E+02 -0.769007057864E+02 -0.769005600305E+02 -0.769004046300E+02 -0.769002389479E+02
 -0.769000623051E+02 -0.768998739777E+02 -0.768996731940E+02 -0.768994591311E+02 -0.768992309119E+02
 -0.768989876013E+02 -0.768987282024E+02 -0.768984516525E+02 -0.768981568186E+02 -0.768978424929E+02
 -0.768975073879E+02 -0.768971501308E+02 -0.768967692583E+02 -0.768963632106E+02 -0.768959303245E+02
 -0.768954688274E+02 -0.768949768291E+02 -0.768944523152E+02 -0.768938931379E+02 -0.768932970075E+02
 -0.768926614835E+02 -0.768919839641E+02 -0.768912616757E+02 -0.768904916617E+02 -0.768896707704E+02
 -0.768887956421E+02 -0.768878626953E+02 -0.768868681125E+02 -0.768858078240E+02 -0.768846774919E+02
 -0.768834724923E+02 -0.768821878961E+02 -0.768808184494E+02 -0.768793585520E+02 -0.768778022346E+02
 -0.768761431344E+02 -0.768743744694E+02 -0.768724890112E+02 -0.768704790551E+02 -0.768683363890E+02
 -0.768660522607E+02 -0.768636173418E+02 -0.768610216902E+02 -0.768582547102E+02 -0.768553051092E+02
 -0.768521608527E+02 -0.768488091157E+02 -0.768452362307E+02 -0.768414276334E+02 -0.768373678038E+02
 -0.768330402041E+02 -0.768284272127E+02 -0.768235100536E+02 -0.768182687215E+02 -0.768126819026E+02
 -0.768067268891E+02 -0.768003794898E+02 -0.767936139343E+02 -0.767864027711E+02 -0.767787167597E+02
 -0.767705247553E+02 -0.767617935877E+02 -0.767524879312E+02 -0.767425701673E+02 -0.767320002388E+02
 -0.767207354954E+02 -0.767087305293E+02 -0.766959370014E+02 -0.766823034572E+02 -0.766677751314E+02
 -0.766522937412E+02 -0.766357972680E+02 -0.766182197258E+02 -0.765994909170E+02 -0.765795361739E+02
 -0.765582760866E+02 -0.765356262151E+02 -0.765114967864E+02 -0.764857923754E+02 -0.764584115689E+02
 -0.764292466130E+02 -0.763981830419E+02 -0.763650992897E+02 -0.763298662831E+02 -0.762923470155E+02
 -0.762523961023E+02 -0.762098593175E+02 -0.761645731109E+02 -0.761163641076E+02 -0.760650485881E+02
 -0.760104319527E+02 -0.759523081681E+02 -0.758904591995E+02 -0.758246544297E+02 -0.757546500662E+02
 -0.756801885399E+02 -0.756009978990E+02 -0.755167912001E+02 -0.754272659031E+02 -0.753321032739E+02
 -0.752309678020E+02 -0.751235066392E+02 -0.750093490698E+02 -0.748881060199E+02 -0.747593696186E+02
 -0.746227128234E+02 -0.744776891242E+02 -0.743238323434E+02 -0.741606565496E+02 -0.739876561073E+02
 -0.738043058853E+02 -0.736100616521E+02 -0.734043606857E+02 -0.731866226336E+02 -0.729562506576E+02
 -0.727126329064E+02 -0.724551443594E+02 -0.721831490924E+02 -0.718960030215E+02 -0.715930571830E+02
 -0.712736616189E+02 -0.709371699391E+02 -0.705829446421E+02 -0.702103632827E+02 -0.698188255834E+02
 -0.694077615994E+02 -0.689766410567E+02 -0.685249839978E+02 -0.680523728862E+02 -0.675584663431E+02
 -0.670430147125E+02 -0.665058776847E+02 -0.659470442470E+02 -0.653666552794E+02 -0.647650291781E+02
 -0.641426909646E+02 -0.635004054375E+02 -0.628392150341E+02 -0.621604831995E+02 -0.614659441880E+02
 -0.607577603129E+02 -0.600385876471E+02 -0.593116509071E+02 -0.585808274358E+02 -0.578507383197E+02
 -0.571268407832E+02 -0.564155085032E+02 -0.557240728675E+02 -0.550607748927E+02 -0.544345405634E+02
 -0.538544400473E+02 -0.533286309610E+02 -0.528625474427E+02 -0.524561501567E+02 -0.521003140272E+02
 -0.517730194809E+02 -0.514369091833E+02 -0.510405992911E+02 -0.505260669676E+02 -0.498425622567E+02
 -0.489637135831E+02 -0.479004013094E+02 -0.467006498232E+02 -0.454318631468E+02 -0.441496472645E+02
 -0.428685151518E+02 -0.415710158010E+02 -0.403570560752E+02 -0.397894601578E+02 -0.404432029381E+02
 -0.396234552819E+02 -0.387140027229E+02 -0.377993832469E+02 -0.369028485888E+02 -0.360830665686E+02
 -0.354555078808E+02 -0.351335261789E+02 -0.350160900386E+02 -0.347709201633E+02 -0.340144174874E+02
 -0.327422218145E+02 -0.313372064006E+02 -0.300773983515E+02 -0.289984792998E+02 -0.280466751151E+02
 -0.271725878119E+02 -0.263473079737E+02 -0.255562805399E+02 -0.247926643620E+02 -0.240534320590E+02
 -0.233373717193E+02 -0.226440956513E+02 -0.219735362134E+02 -0.213257099646E+02 -0.207006056271E+02
 -0.200981544445E+02 -0.195182548393E+02 -0.189607719020E+02 -0.184255879531E+02 -0.179125499737E+02
 -0.174214921907E+02 -0.169521022626E+02 -0.165038836095E+02 -0.160760305862E+02 -0.156673420701E+02
 -0.152762157666E+02 -0.149006713141E+02 -0.145384468596E+02 -0.141871896438E+02 -0.138445926362E+02
 -0.135085891138E+02 -0.131774597215E+02 -0.128499168080E+02 -0.125251306663E+02 -0.122027210129E+02
 -0.118827190046E+02 -0.115655116152E+02 -0.112517751574E+02
 core charge-density (pseudized)
  0.000000000000E+00  0.000000000000E+00  0.000000000000E+00  0.000000000000E+00  0.000000000000E+00
  0.000000000000E+00  0.000000000000E+00  0.000000000000E+00  0.000000000000E+00  0.000000000000E+00
  0.000000000000E+00  0.000000000000E+00  0.000000000000E+00  0.000000000000E+00  0.000000000000E+00
  0.000000000000E+00  0.000000000000E+00  0.000000000000E+00  0.000000000000E+00  0.000000000000E+00
  0.000000000000E+00  0.000000000000E+00  0.000000000000E+00  0.000000000000E+00  0.000000000000E+00
  0.000000000000E+00  0.000000000000E+00  0.000000000000E+00  0.000000000000E+00  0.000000000000E+00
  0.000000000000E+00  0.000000000000E+00  0.000000000000E+00  0.000000000000E+00  0.000000000000E+00
  0.000000000000E+00  0.000000000000E+00  0.000000000000E+00  0.000000000000E+00  0.000000000000E+00
  0.000000000000E+00  0.000000000000E+00  0.000000000000E+00  0.000000000000E+00  0.000000000000E+00
  0.000000000000E+00  0.000000000000E+00  0.000000000000E+00  0.000000000000E+00  0.000000000000E+00
  0.000000000000E+00  0.000000000000E+00  0.000000000000E+00  0.000000000000E+00  0.000000000000E+00
  0.000000000000E+00  0.000000000000E+00  0.000000000000E+00  0.000000000000E+00  0.000000000000E+00
  0.000000000000E+00  0.000000000000E+00  0.000000000000E+00  0.000000000000E+00  0.000000000000E+00
  0.000000000000E+00  0.000000000000E+00  0.000000000000E+00  0.000000000000E+00  0.000000000000E+00
  0.000000000000E+00  0.000000000000E+00  0.000000000000E+00  0.000000000000E+00  0.000000000000E+00
  0.000000000000E+00  0.000000000000E+00  0.000000000000E+00  0.000000000000E+00  0.000000000000E+00
  0.000000000000E+00  0.000000000000E+00  0.000000000000E+00  0.000000000000E+00  0.000000000000E+00
  0.000000000000E+00  0.000000000000E+00  0.000000000000E+00  0.000000000000E+00  0.000000000000E+00
  0.000000000000E+00  0.000000000000E+00  0.000000000000E+00  0.000000000000E+00  0.000000000000E+00
  0.000000000000E+00  0.000000000000E+00  0.000000000000E+00  0.000000000000E+00  0.000000000000E+00
  0.000000000000E+00  0.000000000000E+00  0.000000000000E+00  0.000000000000E+00  0.000000000000E+00
  0.000000000000E+00  0.000000000000E+00  0.000000000000E+00  0.000000000000E+00  0.000000000000E+00
  0.000000000000E+00  0.000000000000E+00  0.000000000000E+00  0.000000000000E+00  0.000000000000E+00
  0.000000000000E+00  0.000000000000E+00  0.000000000000E+00  0.000000000000E+00  0.000000000000E+00
  0.000000000000E+00  0.000000000000E+00  0.000000000000E+00  0.000000000000E+00  0.000000000000E+00
  0.000000000000E+00  0.000000000000E+00  0.000000000000E+00  0.000000000000E+00  0.000000000000E+00
  0.000000000000E+00  0.000000000000E+00  0.000000000000E+00  0.000000000000E+00  0.000000000000E+00
  0.000000000000E+00  0.000000000000E+00  0.000000000000E+00  0.000000000000E+00  0.000000000000E+00
  0.000000000000E+00  0.000000000000E+00  0.000000000000E+00  0.000000000000E+00  0.000000000000E+00
  0.000000000000E+00  0.000000000000E+00  0.000000000000E+00  0.000000000000E+00  0.000000000000E+00
  0.000000000000E+00  0.000000000000E+00  0.000000000000E+00  0.000000000000E+00  0.000000000000E+00
  0.000000000000E+00  0.000000000000E+00  0.000000000000E+00  0.000000000000E+00  0.000000000000E+00
  0.000000000000E+00  0.000000000000E+00  0.000000000000E+00  0.000000000000E+00  0.000000000000E+00
  0.000000000000E+00  0.000000000000E+00  0.000000000000E+00  0.000000000000E+00  0.000000000000E+00
  0.000000000000E+00  0.000000000000E+00  0.000000000000E+00  0.000000000000E+00  0.000000000000E+00
  0.000000000000E+00  0.000000000000E+00  0.000000000000E+00  0.000000000000E+00  0.000000000000E+00
  0.000000000000E+00  0.000000000000E+00  0.000000000000E+00  0.000000000000E+00  0.000000000000E+00
  0.000000000000E+00  0.000000000000E+00  0.000000000000E+00  0.000000000000E+00  0.000000000000E+00
  0.000000000000E+00  0.000000000000E+00  0.000000000000E+00  0.000000000000E+00  0.000000000000E+00
  0.000000000000E+00  0.000000000000E+00  0.000000000000E+00  0.000000000000E+00  0.000000000000E+00
  0.000000000000E+00  0.000000000000E+00  0.000000000000E+00  0.000000000000E+00  0.000000000000E+00
  0.000000000000E+00  0.000000000000E+00  0.000000000000E+00  0.000000000000E+00  0.000000000000E+00
  0.000000000000E+00  0.000000000000E+00  0.000000000000E+00  0.000000000000E+00  0.000000000000E+00
  0.000000000000E+00  0.000000000000E+00  0.000000000000E+00  0.000000000000E+00  0.000000000000E+00
  0.000000000000E+00  0.000000000000E+00  0.000000000000E+00  0.000000000000E+00  0.000000000000E+00
  0.000000000000E+00  0.000000000000E+00  0.000000000000E+00  0.000000000000E+00  0.000000000000E+00
  0.000000000000E+00  0.000000000000E+00  0.000000000000E+00  0.000000000000E+00  0.000000000000E+00
  0.000000000000E+00  0.000000000000E+00  0.000000000000E+00  0.000000000000E+00  0.000000000000E+00
  0.000000000000E+00  0.000000000000E+00  0.000000000000E+00  0.000000000000E+00  0.000000000000E+00
  0.000000000000E+00  0.000000000000E+00  0.000000000000E+00  0.000000000000E+00  0.000000000000E+00
  0.000000000000E+00  0.000000000000E+00  0.000000000000E+00  0.000000000000E+00  0.000000000000E+00
  0.000000000000E+00  0.000000000000E+00  0.000000000000E+00  0.000000000000E+00  0.000000000000E+00
  0.000000000000E+00  0.000000000000E+00  0.000000000000E+00  0.000000000000E+00  0.000000000000E+00
  0.000000000000E+00  0.000000000000E+00  0.000000000000E+00  0.000000000000E+00  0.000000000000E+00
  0.000000000000E+00  0.000000000000E+00  0.000000000000E+00  0.000000000000E+00  0.000000000000E+00
  0.000000000000E+00  0.000000000000E+00  0.000000000000E+00  0.000000000000E+00  0.000000000000E+00
  0.000000000000E+00  0.000000000000E+00  0.000000000000E+00  0.000000000000E+00  0.000000000000E+00
  0.000000000000E+00  0.000000000000E+00  0.000000000000E+00  0.000000000000E+00  0.000000000000E+00
  0.000000000000E+00  0.000000000000E+00  0.000000000000E+00  0.000000000000E+00  0.000000000000E+00
  0.000000000000E+00  0.000000000000E+00  0.000000000000E+00  0.000000000000E+00  0.000000000000E+00
  0.000000000000E+00  0.000000000000E+00  0.000000000000E+00  0.000000000000E+00  0.000000000000E+00
  0.000000000000E+00  0.000000000000E+00  0.000000000000E+00  0.000000000000E+00  0.000000000000E+00
  0.000000000000E+00  0.000000000000E+00  0.000000000000E+00  0.000000000000E+00  0.000000000000E+00
  0.000000000000E+00  0.000000000000E+00  0.000000000000E+00  0.000000000000E+00  0.000000000000E+00
  0.000000000000E+00  0.000000000000E+00  0.000000000000E+00  0.000000000000E+00  0.000000000000E+00
  0.000000000000E+00  0.000000000000E+00  0.000000000000E+00  0.000000000000E+00  0.000000000000E+00
  0.000000000000E+00  0.000000000000E+00  0.000000000000E+00  0.000000000000E+00  0.000000000000E+00
  0.000000000000E+00  0.000000000000E+00  0.000000000000E+00  0.000000000000E+00  0.000000000000E+00
  0.000000000000E+00  0.000000000000E+00  0.000000000000E+00  0.000000000000E+00  0.000000000000E+00
  0.000000000000E+00  0.000000000000E+00  0.000000000000E+00  0.000000000000E+00  0.000000000000E+00
  0.000000000000E+00  0.000000000000E+00  0.000000000000E+00  0.000000000000E+00  0.000000000000E+00
  0.000000000000E+00  0.000000000000E+00  0.000000000000E+00  0.000000000000E+00  0.000000000000E+00
  0.000000000000E+00  0.000000000000E+00  0.000000000000E+00  0.000000000000E+00  0.000000000000E+00
  0.000000000000E+00  0.000000000000E+00  0.000000000000E+00  0.000000000000E+00  0.000000000000E+00
  0.000000000000E+00  0.000000000000E+00  0.000000000000E+00
 pseudo wavefunction
  0.104211974228E-03  0.107600687639E-03  0.111099593555E-03  0.114712275161E-03  0.118442432159E-03
  0.122293884555E-03  0.126270576572E-03  0.130376580691E-03  0.134616101818E-03  0.138993481593E-03
  0.143513202836E-03  0.148179894134E-03  0.152998334588E-03  0.157973458700E-03  0.163110361433E-03
  0.168414303424E-03  0.173890716370E-03  0.179545208598E-03  0.185383570800E-03  0.191411781969E-03
  0.197636015519E-03  0.204062645607E-03  0.210698253664E-03  0.217549635131E-03  0.224623806419E-03
  0.231928012098E-03  0.239469732309E-03  0.247256690431E-03  0.255296860989E-03  0.263598477817E-03
  0.272170042493E-03  0.281020333047E-03  0.290158412946E-03  0.299593640379E-03  0.309335677840E-03
  0.319394502023E-03  0.329780414038E-03  0.340504049961E-03  0.351576391729E-03  0.363008778380E-03
  0.374812917671E-03  0.387000898065E-03  0.399585201111E-03  0.412578714226E-03  0.425994743895E-03
  0.439847029293E-03  0.454149756359E-03  0.468917572323E-03  0.484165600706E-03  0.499909456806E-03
  0.516165263690E-03  0.532949668706E-03  0.550279860531E-03  0.568173586775E-03  0.586649172151E-03
  0.605725537246E-03  0.625422217895E-03  0.645759385187E-03  0.666757866123E-03  0.688439164941E-03
  0.710825485144E-03  0.733939752229E-03  0.757805637174E-03  0.782447580672E-03  0.807890818160E-03
  0.834161405668E-03  0.861286246494E-03  0.889293118758E-03  0.918210703852E-03  0.948068615805E-03
  0.978897431613E-03  0.101072872255E-02  0.104359508650E-02  0.107753018134E-02  0.111256875941E-02
  0.114874670308E-02  0.118610106153E-02  0.122467008865E-02  0.126449328226E-02  0.130561142452E-02
  0.134806662368E-02  0.139190235727E-02  0.143716351653E-02  0.148389645245E-02  0.153214902319E-02
  0.158197064314E-02  0.163341233343E-02  0.168652677428E-02  0.174136835885E-02  0.179799324903E-02
  0.185645943286E-02  0.191682678396E-02  0.197915712282E-02  0.204351428012E-02  0.210996416205E-02
  0.217857481784E-02  0.224941650941E-02  0.232256178329E-02  0.239808554497E-02  0.247606513550E-02
  0.255658041076E-02  0.263971382319E-02  0.272555050617E-02  0.281417836124E-02  0.290568814809E-02
  0.300017357740E-02  0.309773140690E-02  0.319846154030E-02  0.330246712968E-02  0.340985468098E-02
  0.352073416310E-02  0.363521912045E-02  0.375342678915E-02  0.387547821707E-02  0.400149838769E-02
  0.413161634805E-02  0.426596534081E-02  0.440468294063E-02  0.454791119493E-02  0.469579676930E-02
  0.484849109754E-02  0.500615053663E-02  0.516893652672E-02  0.533701575629E-02  0.551056033268E-02
  0.568974795817E-02  0.587476211172E-02  0.606579223670E-02  0.626303393457E-02  0.646668916500E-02
  0.667696645230E-02  0.689408109871E-02  0.711825540445E-02  0.734971889502E-02  0.758870855580E-02
  0.783546907422E-02  0.809025308982E-02  0.835332145236E-02  0.862494348834E-02  0.890539727604E-02
  0.919496992952E-02  0.949395789177E-02  0.980266723733E-02  0.101214139847E-01  0.104505244187E-01
  0.107903354234E-01  0.111411948259E-01  0.115034617505E-01  0.118775069852E-01  0.122637133593E-01
  0.126624761334E-01  0.130742034021E-01  0.134993165089E-01  0.139382504756E-01  0.143914544441E-01
  0.148593921335E-01  0.153425423108E-01  0.158413992777E-01  0.163564733718E-01  0.168882914846E-01
  0.174373975955E-01  0.180043533230E-01  0.185897384933E-01  0.191941517265E-01  0.198182110421E-01
  0.204625544830E-01  0.211278407591E-01  0.218147499114E-01  0.225239839965E-01  0.232562677928E-01
  0.240123495288E-01  0.247930016332E-01  0.255990215092E-01  0.264312323319E-01  0.272904838708E-01
  0.281776533366E-01  0.290936462547E-01  0.300393973649E-01  0.310158715474E-01  0.320240647781E-01
  0.330650051108E-01  0.341397536899E-01  0.352494057916E-01  0.363950918968E-01  0.375779787937E-01
  0.387992707135E-01  0.400602104976E-01  0.413620807977E-01  0.427062053097E-01  0.440939500417E-01
  0.455267246155E-01  0.470059836049E-01  0.485332279074E-01  0.501100061526E-01  0.517379161466E-01
  0.534186063518E-01  0.551537774038E-01  0.569451836636E-01  0.587946348061E-01  0.607039974451E-01
  0.626751967920E-01  0.647102183509E-01  0.668111096465E-01  0.689799819853E-01  0.712190122481E-01
  0.735304447132E-01  0.759165929069E-01  0.783798414811E-01  0.809226481132E-01  0.835475454277E-01
  0.862571429336E-01  0.890541289761E-01  0.919412726955E-01  0.949214259905E-01  0.979975254782E-01
  0.101172594445E+00  0.104449744780E+00  0.107832178884E+00  0.111323191546E+00  0.114926171763E+00
  0.118644604520E+00  0.122482072482E+00  0.126442257608E+00  0.130528942662E+00  0.134746012599E+00
  0.139097455810E+00  0.143587365205E+00  0.148219939096E+00  0.152999481873E+00  0.157930404417E+00
  0.163017224235E+00  0.168264565272E+00  0.173677157350E+00  0.179259835206E+00  0.185017537048E+00
  0.190955302613E+00  0.197078270623E+00  0.203391675598E+00  0.209900843945E+00  0.216611189232E+00
  0.223528206564E+00  0.230657465965E+00  0.238004604648E+00  0.245575318063E+00  0.253375349589E+00
  0.261410478727E+00  0.269686507654E+00  0.278209245946E+00  0.286984493310E+00  0.296018020122E+00
  0.305315545545E+00  0.314882713011E+00  0.324725062810E+00  0.334848001512E+00  0.345256767939E+00
  0.355956395364E+00  0.366951669615E+00  0.378247082718E+00  0.389846781698E+00  0.401754512133E+00
  0.413973556042E+00  0.426506663637E+00  0.439355978482E+00  0.452522955559E+00  0.466008271726E+00
  0.479811728046E+00  0.493932143443E+00  0.508367239152E+00  0.523113513413E+00  0.538166105894E+00
  0.553518651326E+00  0.569163121893E+00  0.585089657952E+00  0.601286386758E+00  0.617739228921E+00
  0.634431692517E+00  0.651344654849E+00  0.668456132132E+00  0.685741037559E+00  0.703170928531E+00
  0.720713744179E+00  0.738333534733E+00  0.755990184779E+00  0.773639133048E+00  0.791231092057E+00
  0.808711771705E+00  0.826021611819E+00  0.843095529715E+00  0.859862689931E+00  0.876246304640E+00
  0.892163474653E+00  0.907525082479E+00  0.922235750618E+00  0.936193880045E+00  0.949291785695E+00
  0.961415947682E+00  0.972447398835E+00  0.982262270867E+00  0.990732523052E+00  0.997726878385E+00
  0.100311199282E+01  0.100675388296E+01  0.100851963642E+01  0.100827942619E+01  0.100590884629E+01
  0.100129157900E+01  0.994322394669E+00  0.984910472526E+00  0.972983014095E+00  0.958489099821E+00
  0.941403713289E+00  0.921731825606E+00  0.899512394863E+00  0.874822091979E+00  0.847778515092E+00
  0.818542600975E+00  0.787319885522E+00  0.754360209125E+00  0.719955410983E+00  0.684434515080E+00
  0.648155887770E+00  0.611495852933E+00  0.574833298286E+00  0.538529911037E+00  0.502905859903E+00
  0.468211012556E+00  0.434593309482E+00  0.402124088484E+00  0.370866598216E+00  0.340879723178E+00
  0.312219699062E+00  0.284944061530E+00  0.259113532887E+00  0.234786198535E+00  0.212000442242E+00
  0.190757169462E+00  0.171022104115E+00  0.152745644127E+00  0.135877203333E+00  0.120367553103E+00
  0.106166574270E+00  0.932213246170E-01  0.814752826725E-01  0.708684018015E-01  0.613375884358E-01
  0.528173776739E-01  0.452406881503E-01  0.385395940976E-01  0.326460797938E-01  0.274927552727E-01
  0.230135194445E-01  0.191441608831E-01  0.158228890290E-01  0.129907903186E-01  0.105922054125E-01
  0.857502522204E-02  0.689090534214E-02  0.549540041697E-02  0.434802199705E-02  0.341222536320E-02
  0.265533247551E-02  0.204839937819E-02  0.156603711471E-02  0.118619545332E-02  0.889918509209E-03
  0.661081017767E-03  0.486113456430E-03  0.353723637417E-03  0.254621687734E-03  0.181254505674E-03
  0.127554808199E-03  0.887087827150E-04  0.609451865219E-04
 ae wavefunction
  0.538968015664E-03  0.556487138863E-03  0.574575643255E-03  0.593252029056E-03  0.612535397251E-03
  0.632445469075E-03  0.653002606138E-03  0.674227831184E-03  0.696142849535E-03  0.718770071225E-03
  0.742132633851E-03  0.766254426156E-03  0.791160112379E-03  0.816875157403E-03  0.843425852690E-03
  0.870839343086E-03  0.899143654459E-03  0.928367722257E-03  0.958541420975E-03  0.989695594568E-03
  0.102186208787E-02  0.105507377900E-02  0.108936461279E-02  0.112476963540E-02  0.116132502993E-02
  0.119906815317E-02  0.123803757370E-02  0.127827311101E-02  0.131981587606E-02  0.136270831295E-02
  0.140699424217E-02  0.145271890499E-02  0.149992900952E-02  0.154867277803E-02  0.159899999597E-02
  0.165096206244E-02  0.170461204237E-02  0.176000472030E-02  0.181719665594E-02  0.187624624150E-02
  0.193721376083E-02  0.200016145048E-02  0.206515356275E-02  0.213225643071E-02  0.220153853524E-02
  0.227307057441E-02  0.234692553486E-02  0.242317876560E-02  0.250190805411E-02  0.258319370489E-02
  0.266711862051E-02  0.275376838523E-02  0.284323135128E-02  0.293559872795E-02  0.303096467342E-02
  0.312942638959E-02  0.323108421983E-02  0.333604174991E-02  0.344440591222E-02  0.355628709297E-02
  0.367179924322E-02  0.379105999296E-02  0.391419076929E-02  0.404131691786E-02  0.417256782845E-02
  0.430807706440E-02  0.444798249622E-02  0.459242643908E-02  0.474155579502E-02  0.489552219943E-02
  0.505448217207E-02  0.521859727293E-02  0.538803426286E-02  0.556296526933E-02  0.574356795722E-02
  0.593002570511E-02  0.612252778670E-02  0.632126955835E-02  0.652645265208E-02  0.673828517448E-02
  0.695698191213E-02  0.718276454300E-02  0.741586185445E-02  0.765650996811E-02  0.790495257130E-02
  0.816144115584E-02  0.842623526393E-02  0.869960274173E-02  0.898182000036E-02  0.927317228507E-02
  0.957395395240E-02  0.988446875577E-02  0.102050301396E-01  0.105359615420E-01  0.108775967073E-01
  0.112302800070E-01  0.115943667704E-01  0.119702236259E-01  0.123582288510E-01  0.127587727337E-01
  0.131722579440E-01  0.135990999162E-01  0.140397272425E-01  0.144945820781E-01  0.149641205573E-01
  0.154488132227E-01  0.159491454652E-01  0.164656179781E-01  0.169987472226E-01  0.175490659071E-01
  0.181171234802E-01  0.187034866363E-01  0.193087398367E-01  0.199334858433E-01  0.205783462683E-01
  0.212439621378E-01  0.219309944714E-01  0.226401248762E-01  0.233720561573E-01  0.241275129442E-01
  0.249072423330E-01  0.257120145465E-01  0.265426236076E-01  0.273998880358E-01  0.282846515537E-01
  0.291977838173E-01  0.301401811601E-01  0.311127673567E-01  0.321164944035E-01  0.331523433195E-01
  0.342213249636E-01  0.353244808696E-01  0.364628841037E-01  0.376376401360E-01  0.388498877332E-01
  0.401007998699E-01  0.413915846564E-01  0.427234862887E-01  0.440977860120E-01  0.455158031065E-01
  0.469788958884E-01  0.484884627305E-01  0.500459430970E-01  0.516528185988E-01  0.533106140614E-01
  0.550208986108E-01  0.567852867739E-01  0.586054395901E-01  0.604830657423E-01  0.624199226919E-01
  0.644178178339E-01  0.664786096524E-01  0.686042088924E-01  0.707965797351E-01  0.730577409759E-01
  0.753897672118E-01  0.777947900255E-01  0.802749991676E-01  0.828326437406E-01  0.854700333730E-01
  0.881895393826E-01  0.909935959367E-01  0.938847011812E-01  0.968654183712E-01  0.999383769564E-01
  0.103106273658E+00  0.106371873503E+00  0.109738010820E+00  0.113207590205E+00  0.116783587428E+00
  0.120469050274E+00  0.124267099372E+00  0.128180928877E+00  0.132213807160E+00  0.136369077349E+00
  0.140650157820E+00  0.145060542554E+00  0.149603801428E+00  0.154283580318E+00  0.159103601132E+00
  0.164067661669E+00  0.169179635315E+00  0.174443470588E+00  0.179863190478E+00  0.185442891608E+00
  0.191186743154E+00  0.197098985564E+00  0.203183928991E+00  0.209445951496E+00  0.215889496923E+00
  0.222519072499E+00  0.229339246088E+00  0.236354643085E+00  0.243569942948E+00  0.250989875313E+00
  0.258619215698E+00  0.266462780731E+00  0.274525422906E+00  0.282812024822E+00  0.291327492874E+00
  0.300076750376E+00  0.309064730055E+00  0.318296365918E+00  0.327776584457E+00  0.337510295011E+00
  0.347502379644E+00  0.357757681905E+00  0.368280994944E+00  0.379077048789E+00  0.390150496587E+00
  0.401505899871E+00  0.413147713079E+00  0.425080266622E+00  0.437307749348E+00  0.449834189406E+00
  0.462663434338E+00  0.475799129752E+00  0.489244696775E+00  0.503003308290E+00  0.517077863826E+00
  0.531470963033E+00  0.546184877942E+00  0.561221523590E+00  0.576582427416E+00  0.592268697141E+00
  0.608280987066E+00  0.624619463182E+00  0.641283766500E+00  0.658272975130E+00  0.675585564872E+00
  0.693219368343E+00  0.711171532760E+00  0.729438476460E+00  0.748015843994E+00  0.766898460223E+00
  0.786080283166E+00  0.805554355956E+00  0.825312757873E+00  0.845346554717E+00  0.865645748553E+00
  0.886199227199E+00  0.906994713481E+00  0.928018714569E+00  0.949256471764E+00  0.970691910756E+00
  0.992307592992E+00  0.101408466822E+01  0.103600282874E+01  0.105804026575E+01  0.108017362808E+01
  0.110237798424E+01  0.112462678713E+01  0.114689184388E+01  0.116914328902E+01  0.119134956375E+01
  0.121347740014E+01  0.123549181215E+01  0.125735609349E+01  0.127903182287E+01  0.130047887793E+01
  0.132165545788E+01  0.134251811583E+01  0.136302180160E+01  0.138311991532E+01  0.140276437296E+01
  0.142190568388E+01  0.144049304141E+01  0.145847442690E+01  0.147579672761E+01  0.149240586923E+01
  0.150824696278E+01  0.152326446711E+01  0.153740236618E+01  0.155060436222E+01  0.156281408403E+01
  0.157397531056E+01  0.158403220993E+01  0.159292959261E+01  0.160061317952E+01  0.160702988274E+01
  0.161212810012E+01  0.161585802047E+01  0.161817194030E+01  0.161902458936E+01  0.161837346425E+01
  0.161617916811E+01  0.161240575471E+01  0.160702107518E+01  0.159999712442E+01  0.159131038587E+01
  0.158094217122E+01  0.156887895305E+01  0.155511268664E+01  0.153964111890E+01  0.152246807990E+01
  0.150360375447E+01  0.148306492917E+01  0.146087521132E+01  0.143706521499E+01  0.141167270986E+01
  0.138474272752E+01  0.135632762026E+01  0.132648706675E+01  0.129528801880E+01  0.126280458368E+01
  0.122911783646E+01  0.119431555701E+01  0.115849189037E+01  0.112174691873E+01  0.108418615856E+01
  0.104591997176E+01  0.100706290117E+01  0.967732936843E+00  0.928050724170E+00  0.888138727772E+00
  0.848120367069E+00  0.808119140424E+00  0.768257753649E+00  0.728657265739E+00  0.689436259747E+00
  0.650710040515E+00  0.612589854620E+00  0.575182123713E+00  0.538587683571E+00  0.502901032958E+00
  0.468209626830E+00  0.434593309482E+00  0.402124088484E+00  0.370866598216E+00  0.340879723178E+00
  0.312219699062E+00  0.284944061530E+00  0.259113532887E+00  0.234786198535E+00  0.212000442242E+00
  0.190757169462E+00  0.171022104115E+00  0.152745644127E+00  0.135877203333E+00  0.120367553103E+00
  0.106166574270E+00  0.932213246170E-01  0.814752826725E-01  0.708684018015E-01  0.613375884358E-01
  0.528173776739E-01  0.452406881503E-01  0.385395940976E-01  0.326460797938E-01  0.274927552727E-01
  0.230135194445E-01  0.191441608831E-01  0.158228890290E-01  0.129907903186E-01  0.105922054125E-01
  0.857502522204E-02  0.689090534214E-02  0.549540041697E-02  0.434802199705E-02  0.341222536320E-02
  0.265533247551E-02  0.204839937819E-02  0.156603711471E-02  0.118619545332E-02  0.889918509209E-03
  0.661081017767E-03  0.486113456430E-03  0.353723637417E-03  0.254621687734E-03  0.181254505674E-03
  0.127554808199E-03  0.887087827150E-04  0.609451865219E-04
 pseudo wavefunction
 -0.115973512057E-03 -0.119744681324E-03 -0.123638479605E-03 -0.127658894490E-03 -0.131810043233E-03
 -0.136096176975E-03 -0.140521685089E-03 -0.145091099682E-03 -0.149809100234E-03 -0.154680518388E-03
 -0.159710342903E-03 -0.164903724756E-03 -0.170265982425E-03 -0.175802607328E-03 -0.181519269452E-03
 -0.187421823158E-03 -0.193516313175E-03 -0.199808980792E-03 -0.206306270249E-03 -0.213014835338E-03
 -0.219941546212E-03 -0.227093496427E-03 -0.234478010203E-03 -0.242102649925E-03 -0.249975223887E-03
 -0.258103794291E-03 -0.266496685499E-03 -0.275162492563E-03 -0.284110090021E-03 -0.293348640991E-03
 -0.302887606552E-03 -0.312736755433E-03 -0.322906174018E-03 -0.333406276673E-03 -0.344247816414E-03
 -0.355441895918E-03 -0.366999978892E-03 -0.378933901814E-03 -0.391255886053E-03 -0.403978550386E-03
 -0.417114923923E-03 -0.430678459442E-03 -0.444683047176E-03 -0.459143029029E-03 -0.474073213268E-03
 -0.489488889687E-03 -0.505405845263E-03 -0.521840380327E-03 -0.538809325250E-03 -0.556330057687E-03
 -0.574420520367E-03 -0.593099239468E-03 -0.612385343592E-03 -0.632298583353E-03 -0.652859351600E-03
 -0.674088704306E-03 -0.696008382125E-03 -0.718640832660E-03 -0.742009233448E-03 -0.766137515698E-03
 -0.791050388796E-03 -0.816773365608E-03 -0.843332788608E-03 -0.870755856854E-03 -0.899070653842E-03
 -0.928306176261E-03 -0.958492363693E-03 -0.989660129267E-03 -0.102184139132E-02 -0.105506910607E-02
 -0.108937730139E-02 -0.112480111162E-02 -0.116137681358E-02 -0.119914186368E-02 -0.123813493633E-02
 -0.127839596347E-02 -0.131996617553E-02 -0.136288814360E-02 -0.140720582307E-02 -0.145296459859E-02
 -0.150021133056E-02 -0.154899440315E-02 -0.159936377378E-02 -0.165137102433E-02 -0.170506941394E-02
 -0.176051393350E-02 -0.181776136205E-02 -0.187687032483E-02 -0.193790135335E-02 -0.200091694735E-02
 -0.206598163881E-02 -0.213316205802E-02 -0.220252700179E-02 -0.227414750389E-02 -0.234809690776E-02
 -0.242445094166E-02 -0.250328779611E-02 -0.258468820402E-02 -0.266873552330E-02 -0.275551582219E-02
 -0.284511796740E-02 -0.293763371507E-02 -0.303315780465E-02 -0.313178805597E-02 -0.323362546928E-02
 -0.333877432868E-02 -0.344734230884E-02 -0.355944058522E-02 -0.367518394782E-02 -0.379469091870E-02
 -0.391808387323E-02 -0.404548916536E-02 -0.417703725687E-02 -0.431286285091E-02 -0.445310502977E-02
 -0.459790739721E-02 -0.474741822537E-02 -0.490179060643E-02 -0.506118260919E-02 -0.522575744081E-02
 -0.539568361365E-02 -0.557113511763E-02 -0.575229159814E-02 -0.593933853972E-02 -0.613246745567E-02
 -0.633187608381E-02 -0.653776858862E-02 -0.675035576984E-02 -0.696985527791E-02 -0.719649183628E-02
 -0.743049747103E-02 -0.767211174778E-02 -0.792158201635E-02 -0.817916366330E-02 -0.844512037260E-02
 -0.871972439471E-02 -0.900325682438E-02 -0.929600788734E-02 -0.959827723629E-02 -0.991037425639E-02
 -0.102326183805E-01 -0.105653394149E-01 -0.109088778746E-01 -0.112635853307E-01 -0.116298247680E-01
 -0.120079709539E-01 -0.123984108199E-01 -0.128015438548E-01 -0.132177825103E-01 -0.136475526200E-01
 -0.140912938316E-01 -0.145494600525E-01 -0.150225199099E-01 -0.155109572255E-01 -0.160152715050E-01
 -0.165359784435E-01 -0.170736104462E-01 -0.176287171661E-01 -0.182018660580E-01 -0.187936429507E-01
 -0.194046526361E-01 -0.200355194773E-01 -0.206868880355E-01 -0.213594237162E-01 -0.220538134352E-01
 -0.227707663057E-01 -0.235110143454E-01 -0.242753132067E-01 -0.250644429273E-01 -0.258792087050E-01
 -0.267204416949E-01 -0.275889998309E-01 -0.284857686713E-01 -0.294116622699E-01 -0.303676240716E-01
 -0.313546278357E-01 -0.323736785842E-01 -0.334258135782E-01 -0.345121033218E-01 -0.356336525943E-01
 -0.367916015106E-01 -0.379871266109E-01 -0.392214419802E-01 -0.404958003969E-01 -0.418114945125E-01
 -0.431698580607E-01 -0.445722670976E-01 -0.460201412729E-01 -0.475149451310E-01 -0.490581894433E-01
 -0.506514325713E-01 -0.522962818589E-01 -0.539943950554E-01 -0.557474817675E-01 -0.575573049391E-01
 -0.594256823591E-01 -0.613544881954E-01 -0.633456545535E-01 -0.654011730585E-01 -0.675230964580E-01
 -0.697135402438E-01 -0.719746842899E-01 -0.743087745027E-01 -0.767181244817E-01 -0.792051171842E-01
 -0.817722065907E-01 -0.844219193663E-01 -0.871568565097E-01 -0.899796949860E-01 -0.928931893326E-01
 -0.959001732323E-01 -0.990035610419E-01 -0.102206349266E+00 -0.105511617967E+00 -0.108922532087E+00
 -0.112442342686E+00 -0.116074388058E+00 -0.119822094723E+00 -0.123688978261E+00 -0.127678643982E+00
 -0.131794787381E+00 -0.136041194382E+00 -0.140421741309E+00 -0.144940394570E+00 -0.149601210011E+00
 -0.154408331887E+00 -0.159365991423E+00 -0.164478504900E+00 -0.169750271207E+00 -0.175185768819E+00
 -0.180789552099E+00 -0.186566246882E+00 -0.192520545240E+00 -0.198657199339E+00 -0.204981014303E+00
 -0.211496839955E+00 -0.218209561344E+00 -0.225124087898E+00 -0.232245341096E+00 -0.239578240471E+00
 -0.247127687808E+00 -0.254898549331E+00 -0.262895635690E+00 -0.271123679541E+00 -0.279587310468E+00
 -0.288291027011E+00 -0.297239165514E+00 -0.306435865508E+00 -0.315885031310E+00 -0.325590289487E+00
 -0.335554941836E+00 -0.345781913476E+00 -0.356273695635E+00 -0.367032282696E+00 -0.378059103026E+00
 -0.389354943091E+00 -0.400919864341E+00 -0.412753112304E+00 -0.424853017352E+00 -0.437216886512E+00
 -0.449840885767E+00 -0.462719912208E+00 -0.475847455441E+00 -0.489215447651E+00 -0.502814101746E+00
 -0.516631737030E+00 -0.530654591914E+00 -0.544866623248E+00 -0.559249291953E+00 -0.573781334744E+00
 -0.588438521928E+00 -0.603193401431E+00 -0.618015029478E+00 -0.632868688659E+00 -0.647715594464E+00
 -0.662512591832E+00 -0.677211843775E+00 -0.691760514762E+00 -0.706100452264E+00 -0.720167870707E+00
 -0.733893043046E+00 -0.747200006265E+00 -0.760006288380E+00 -0.772222665920E+00 -0.783752962419E+00
 -0.794493900201E+00 -0.804335019612E+00 -0.813158681891E+00 -0.820840174015E+00 -0.827247936081E+00
 -0.832243934061E+00 -0.835684202966E+00 -0.837419587525E+00 -0.837296709290E+00 -0.835159190387E+00
 -0.830849164869E+00 -0.824209108348E+00 -0.815084015176E+00 -0.803323949381E+00 -0.788786990482E+00
 -0.771342587770E+00 -0.750875325976E+00 -0.727289091064E+00 -0.700511606391E+00 -0.670499286327E+00
 -0.637242325932E+00 -0.600769911280E+00 -0.561155395308E+00 -0.518521239051E+00 -0.473043468534E+00
 -0.424955345199E+00 -0.374549894924E+00 -0.322180891427E+00 -0.268261849317E+00 -0.213262557442E+00
 -0.157702683422E+00 -0.102142016491E+00 -0.471670010240E-01  0.662663810986E-02  0.586551497189E-01
  0.108371540755E+00  0.155293116999E+00  0.199030472004E+00  0.239315979457E+00  0.276029126843E+00
  0.309215276236E+00  0.339093727317E+00  0.366050401908E+00  0.390610224765E+00  0.413384542669E+00
  0.434989941713E+00  0.455936851081E+00  0.476485913655E+00  0.496695753094E+00  0.516577581311E+00
  0.536104103936E+00  0.555179886690E+00  0.573672484067E+00  0.591450329860E+00  0.608396587962E+00
  0.624407360681E+00  0.639386824839E+00  0.653243753491E+00  0.665889755640E+00  0.677238690342E+00
  0.687206805869E+00  0.695713324804E+00  0.702681321627E+00  0.708038789272E+00  0.711719841012E+00
  0.713665998193E+00  0.713827536331E+00  0.712164893598E+00  0.708650097873E+00  0.703268247759E+00
  0.696018960474E+00  0.686917798502E+00  0.675997521635E+00  0.663309093916E+00  0.648922261767E+00
  0.632925547632E+00  0.615425567766E+00  0.596545584736E+00  0.576423317611E+00  0.555208205218E+00
  0.533058194229E+00  0.510136405213E+00  0.486607796983E+00  0.462636104493E+00  0.438381141852E+00
  0.413996596500E+00  0.389628346965E+00  0.365413303983E+00
 ae wavefunction
 -0.945662110635E-04 -0.976400800926E-04 -0.100813851562E-03 -0.104090771481E-03 -0.107474191268E-03
 -0.110967571170E-03 -0.114574483793E-03 -0.118298617742E-03 -0.122143781389E-03 -0.126113906752E-03
 -0.130213053503E-03 -0.134445413113E-03 -0.138815313116E-03 -0.143327221527E-03 -0.147985751392E-03
 -0.152795665487E-03 -0.157761881173E-03 -0.162889475403E-03 -0.168183689891E-03 -0.173649936454E-03
 -0.179293802518E-03 -0.185121056810E-03 -0.191137655217E-03 -0.197349746865E-03 -0.203763680361E-03
 -0.210386010253E-03 -0.217223503698E-03 -0.224283147342E-03 -0.231572154425E-03 -0.239097972098E-03
 -0.246868289009E-03 -0.254891043097E-03 -0.263174429668E-03 -0.271726909694E-03 -0.280557218426E-03
 -0.289674374238E-03 -0.299087687788E-03 -0.308806771454E-03 -0.318841549078E-03 -0.329202266034E-03
 -0.339899499590E-03 -0.350944169640E-03 -0.362347549750E-03 -0.374121278573E-03 -0.386277371617E-03
 -0.398828233404E-03 -0.411786670013E-03 -0.425165902013E-03 -0.438979577819E-03 -0.453241787481E-03
 -0.467967076896E-03 -0.483170462486E-03 -0.498867446332E-03 -0.515074031808E-03 -0.531806739693E-03
 -0.549082624806E-03 -0.566919293167E-03 -0.585334919690E-03 -0.604348266481E-03 -0.623978701647E-03
 -0.644246218767E-03 -0.665171456921E-03 -0.686775721410E-03 -0.709081005081E-03 -0.732110010346E-03
 -0.755886171899E-03 -0.780433680155E-03 -0.805777505374E-03 -0.831943422614E-03 -0.858958037432E-03
 -0.886848812375E-03 -0.915644094335E-03 -0.945373142723E-03 -0.976066158563E-03 -0.100775431445E-02
 -0.104046978546E-02 -0.107424578105E-02 -0.110911657788E-02 -0.114511755370E-02 -0.118228522229E-02
 -0.122065726945E-02 -0.126027259011E-02 -0.130117132659E-02 -0.134339490804E-02 -0.138698609102E-02
 -0.143198900147E-02 -0.147844917775E-02 -0.152641361523E-02 -0.157593081200E-02 -0.162705081614E-02
 -0.167982527434E-02 -0.173430748200E-02 -0.179055243480E-02 -0.184861688188E-02 -0.190855938058E-02
 -0.197044035283E-02 -0.203432214310E-02 -0.210026907828E-02 -0.216834752909E-02 -0.223862597353E-02
 -0.231117506197E-02 -0.238606768427E-02 -0.246337903878E-02 -0.254318670349E-02 -0.262557070895E-02
 -0.271061361357E-02 -0.279840058084E-02 -0.288901945893E-02 -0.298256086240E-02 -0.307911825626E-02
 -0.317878804240E-02 -0.328166964837E-02 -0.338786561864E-02 -0.349748170835E-02 -0.361062697965E-02
 -0.372741390053E-02 -0.384795844651E-02 -0.397238020483E-02 -0.410080248144E-02 -0.423335241093E-02
 -0.437016106905E-02 -0.451136358854E-02 -0.465709927722E-02 -0.480751173998E-02 -0.496274900279E-02
 -0.512296364064E-02 -0.528831290803E-02 -0.545895887280E-02 -0.563506855299E-02 -0.581681405715E-02
 -0.600437272762E-02 -0.619792728684E-02 -0.639766598757E-02 -0.660378276561E-02 -0.681647739618E-02
 -0.703595565356E-02 -0.726242947351E-02 -0.749611711972E-02 -0.773724335242E-02 -0.798603960102E-02
 -0.824274413930E-02 -0.850760226392E-02 -0.878086647554E-02 -0.906279666343E-02 -0.935366029209E-02
 -0.965373259119E-02 -0.996329674778E-02 -0.102826441006E-01 -0.106120743376E-01 -0.109518956937E-01
 -0.113024251531E-01 -0.116639886498E-01 -0.120369212729E-01 -0.124215674704E-01 -0.128182812550E-01
 -0.132274264099E-01 -0.136493766954E-01 -0.140845160536E-01 -0.145332388137E-01 -0.149959498960E-01
 -0.154730650124E-01 -0.159650108673E-01 -0.164722253522E-01 -0.169951577400E-01 -0.175342688714E-01
 -0.180900313394E-01 -0.186629296655E-01 -0.192534604693E-01 -0.198621326308E-01 -0.204894674446E-01
 -0.211359987582E-01 -0.218022731109E-01 -0.224888498437E-01 -0.231963012111E-01 -0.239252124655E-01
 -0.246761819307E-01 -0.254498210536E-01 -0.262467544391E-01 -0.270676198542E-01 -0.279130682163E-01
 -0.287837635498E-01 -0.296803829128E-01 -0.306036162949E-01 -0.315541664762E-01 -0.325327488540E-01
 -0.335400912239E-01 -0.345769335221E-01 -0.356440275158E-01 -0.367421364491E-01 -0.378720346267E-01
 -0.390345069480E-01 -0.402303483728E-01 -0.414603633212E-01 -0.427253650042E-01 -0.440261746748E-01
 -0.453636208011E-01 -0.467385381488E-01 -0.481517667733E-01 -0.496041509140E-01 -0.510965377804E-01
 -0.526297762327E-01 -0.542047153379E-01 -0.558222028064E-01 -0.574830832988E-01 -0.591881965711E-01
 -0.609383755192E-01 -0.627344440124E-01 -0.645772145941E-01 -0.664674860170E-01 -0.684060405745E-01
 -0.703936412394E-01 -0.724310286442E-01 -0.745189177816E-01 -0.766579945686E-01 -0.788489120971E-01
 -0.810922867151E-01 -0.833886938206E-01 -0.857386634014E-01 -0.881426753153E-01 -0.906011542883E-01
 -0.931144646105E-01 -0.956829045636E-01 -0.983067005010E-01 -0.100986000646E+00 -0.103720868555E+00
 -0.106511276222E+00 -0.109357096902E+00 -0.112258097521E+00 -0.115213930783E+00 -0.118224126909E+00
 -0.121288085003E+00 -0.124405064078E+00 -0.127574173723E+00 -0.130794364387E+00 -0.134064417352E+00
 -0.137382934314E+00 -0.140748326668E+00 -0.144158804431E+00 -0.147612364880E+00 -0.151106780875E+00
 -0.154639588924E+00 -0.158208076991E+00 -0.161809272076E+00 -0.165439927626E+00 -0.169096510776E+00
 -0.172775189493E+00 -0.176471819649E+00 -0.180181932087E+00 -0.183900719734E+00 -0.187623024813E+00
 -0.191343326278E+00 -0.195055727379E+00 -0.198753943749E+00 -0.202431291699E+00 -0.206080677198E+00
 -0.209694585333E+00 -0.213265070553E+00 -0.216783747710E+00 -0.220241784009E+00 -0.223629892061E+00
 -0.226938324074E+00 -0.230156867356E+00 -0.233274841281E+00 -0.236281095806E+00 -0.239164011728E+00
 -0.241911502772E+00 -0.244511019694E+00 -0.246949556537E+00 -0.249213659145E+00 -0.251289436158E+00
 -0.253162572508E+00 -0.254818345696E+00 -0.256241644854E+00 -0.257416992828E+00 -0.258328571337E+00
 -0.258960249337E+00 -0.259295614784E+00 -0.259318009729E+00 -0.259010569099E+00 -0.258356262917E+00
 -0.257337942449E+00 -0.255938389930E+00 -0.254140372267E+00 -0.251926698563E+00 -0.249280281594E+00
 -0.246184203200E+00 -0.242621783647E+00 -0.238576654934E+00 -0.234032837938E+00 -0.228974823449E+00
 -0.223387656875E+00 -0.217257026612E+00 -0.210569355734E+00 -0.203311896966E+00 -0.195472830438E+00
 -0.187041364031E+00 -0.178007835721E+00 -0.168363817493E+00 -0.158102220091E+00 -0.147217397952E+00
 -0.135705253423E+00 -0.123563339415E+00 -0.110790959487E+00 -0.973892644143E-01 -0.833613442944E-01
 -0.687123154176E-01 -0.534494013012E-01 -0.375820076374E-01 -0.211217913338E-01 -0.408272429106E-02
  0.135188468588E-01  0.316641433837E-01  0.503318974317E-01  0.694982932861E-01  0.891369051642E-01
  0.109218630640E+00  0.129711620078E+00  0.150581204096E+00  0.171789822761E+00  0.193296961416E+00
  0.215059098122E+00  0.237029666125E+00  0.259159031339E+00  0.281394481022E+00  0.303680220014E+00
  0.325957386594E+00  0.348164156046E+00  0.370236142997E+00  0.392107610177E+00  0.413714468675E+00
  0.435000474623E+00  0.455927381871E+00  0.476485913655E+00  0.496695753094E+00  0.516577581311E+00
  0.536104103936E+00  0.555179886690E+00  0.573672484067E+00  0.591450329860E+00  0.608396587962E+00
  0.624407360681E+00  0.639386824839E+00  0.653243753491E+00  0.665889755640E+00  0.677238690342E+00
  0.687206805869E+00  0.695713324804E+00  0.702681321627E+00  0.708038789272E+00  0.711719841012E+00
  0.713665998193E+00  0.713827536331E+00  0.712164893598E+00  0.708650097873E+00  0.703268247759E+00
  0.696018960474E+00  0.686917798502E+00  0.675997521635E+00  0.663309093916E+00  0.648922261767E+00
  0.632925547632E+00  0.615425567766E+00  0.596545584736E+00  0.576423317611E+00  0.555208205218E+00
  0.533058194229E+00  0.510136405213E+00  0.486607796983E+00  0.462636104493E+00  0.438381141852E+00
  0.413996596500E+00  0.389628346965E+00  0.365413303983E+00
 pseudo wavefunction
  0.265030245965E-08  0.282546730643E-08  0.301220921809E-08  0.321129335060E-08  0.342353543095E-08
  0.364980509947E-08  0.389102947309E-08  0.414819694415E-08  0.442236123019E-08  0.471464569148E-08
  0.502624793386E-08  0.535844471579E-08  0.571259717980E-08  0.609015642957E-08  0.649266947568E-08
  0.692178557439E-08  0.737926298523E-08  0.786697617534E-08  0.838692349985E-08  0.894123539001E-08
  0.953218308236E-08  0.101621879249E-07  0.108338312983E-07  0.115498651930E-07  0.123132234848E-07
  0.131270339567E-07  0.139946311142E-07  0.149195698483E-07  0.159056400012E-07  0.169568818949E-07
  0.180776028859E-07  0.192723950144E-07  0.205461538193E-07  0.219040983975E-07  0.233517927885E-07
  0.248951687724E-07  0.265405501749E-07  0.282946787787E-07  0.301647419466E-07  0.321584020717E-07
  0.342838279730E-07  0.365497283661E-07  0.389653875466E-07  0.415407034313E-07  0.442862281139E-07
  0.472132111014E-07  0.503336454074E-07  0.536603166925E-07  0.572068556519E-07  0.609877938664E-07
  0.650186233432E-07  0.693158599934E-07  0.738971113040E-07  0.787811484828E-07  0.839879833712E-07
  0.895389504413E-07  0.954567942106E-07  0.101765762436E-06  0.108491705467E-06  0.115662182163E-06
  0.123306572815E-06  0.131456199525E-06  0.140144454549E-06  0.149406937116E-06  0.159281599292E-06
  0.169808901483E-06  0.181031978221E-06  0.192996814901E-06  0.205752436200E-06  0.219351106950E-06
  0.233848546292E-06  0.249304155972E-06  0.265781263739E-06  0.283347382821E-06  0.302074488552E-06
  0.322039313284E-06  0.343323660787E-06  0.366014741435E-06  0.390205529536E-06  0.415995144285E-06
  0.443489255893E-06  0.472800518558E-06  0.504049032053E-06  0.537362833819E-06  0.572878423582E-06
  0.610741322647E-06  0.651106670149E-06  0.694139858720E-06  0.740017212159E-06  0.788926707902E-06
  0.841068747228E-06  0.896656976382E-06  0.955919161956E-06  0.101909812414E-05  0.108645273162E-05
  0.115825896229E-05  0.123481103401E-05  0.131642261012E-05  0.140342808462E-05  0.149618395232E-05
  0.159507026949E-05  0.170049221112E-05  0.181288173101E-05  0.193269933166E-05  0.206043595107E-05
  0.219661497429E-05  0.234179437790E-05  0.249656901616E-05  0.266157305838E-05  0.283748258724E-05
  0.302501836891E-05  0.322494880625E-05  0.343809308713E-05  0.366532454091E-05  0.390757421664E-05
  0.416583469780E-05  0.444116416919E-05  0.473469075252E-05  0.504761712856E-05  0.538122546476E-05
  0.573688266857E-05  0.611604598785E-05  0.652026898145E-05  0.695120788438E-05  0.741062839361E-05
  0.790041290231E-05  0.842256821217E-05  0.897923375544E-05  0.957269036023E-05  0.102053695951E-04
  0.108798637314E-04  0.115989363633E-04  0.123655337305E-04  0.131827967885E-04  0.140540740768E-04
  0.149829354373E-04  0.159731866391E-04  0.170288849704E-04  0.181543558594E-04  0.193542105947E-04
  0.206333652161E-04  0.219970606530E-04  0.234508841949E-04  0.250007923789E-04  0.266531353905E-04
  0.284146830761E-04  0.302926526742E-04  0.322947383786E-04  0.344291428550E-04  0.367046108393E-04
  0.391304649559E-04  0.417166439013E-04  0.444737431516E-04  0.474130583565E-04  0.505466316025E-04
  0.538873007288E-04  0.574487519029E-04  0.612455756669E-04  0.652933266854E-04  0.696085874398E-04
  0.742090361275E-04  0.791135190451E-04  0.843421277504E-04  0.899162813193E-04  0.958588140318E-04
  0.102194068848E-03  0.108947997052E-03  0.116148264475E-03  0.123824364725E-03  0.132007739891E-03
  0.140731909213E-03  0.150032606232E-03  0.159947925001E-03  0.170518475927E-03  0.181787551898E-03
  0.193801305359E-03  0.206608937070E-03  0.220262897297E-03  0.234819100267E-03  0.250337152760E-03
  0.266880597748E-03  0.284517174093E-03  0.303319093342E-03  0.323363334743E-03  0.344731959681E-03
  0.367512446807E-03  0.391798049204E-03  0.417688175046E-03  0.445288793281E-03  0.474712865972E-03
  0.506080809035E-03  0.539520983239E-03  0.575170217421E-03  0.613174366039E-03  0.653688903270E-03
  0.696879556058E-03  0.742922978614E-03  0.792007471079E-03  0.844333745194E-03  0.900115740031E-03
  0.959581491003E-03  0.102297405561E-02  0.109055249956E-02  0.116259294714E-02  0.123938969996E-02
  0.132125642850E-02  0.140852744099E-02  0.150155903470E-02  0.160073093474E-02  0.170644782604E-02
  0.181914098427E-02  0.193927001211E-02  0.206732468728E-02  0.220382692945E-02  0.234933289352E-02
  0.250443519684E-02  0.266976528897E-02  0.284599597252E-02  0.303384408443E-02  0.323407334737E-02
  0.344749740166E-02  0.367498302845E-02  0.391745357559E-02  0.417589259828E-02  0.445134772699E-02
  0.474493477594E-02  0.505784210601E-02  0.539133525657E-02  0.574676186132E-02  0.612555686410E-02
  0.652924805091E-02  0.695946191547E-02  0.741792987576E-02  0.790649486010E-02  0.842711828148E-02
  0.898188741949E-02  0.957302322989E-02  0.102028886017E-01  0.108739970824E-01  0.115890220922E-01
  0.123508066474E-01  0.131623736137E-01  0.140269365096E-01  0.149479108792E-01  0.159289262531E-01
  0.169738387149E-01  0.180867440888E-01  0.192719917627E-01  0.205341991569E-01  0.218782668481E-01
  0.233093943504E-01  0.248330965565E-01  0.264552208292E-01  0.281819647348E-01  0.300198943954E-01
  0.319759634339E-01  0.340575324713E-01  0.362723891255E-01  0.386287684495E-01  0.411353737259E-01
  0.438013975235E-01  0.466365428963E-01  0.496510445860E-01  0.528556900619E-01  0.562618402052E-01
  0.598814494104E-01  0.637270848443E-01  0.678119445620E-01  0.721498741373E-01  0.767553814183E-01
  0.816436489681E-01  0.868305436960E-01  0.923326231260E-01  0.981671376872E-01  0.104352028348E+00
  0.110905918845E+00  0.117848101694E+00  0.125198517099E+00  0.132977723809E+00  0.141206860921E+00
  0.149907599556E+00  0.159102083309E+00  0.168812856336E+00  0.179062777952E+00  0.189874922611E+00
  0.201272464226E+00  0.213278543865E+00  0.225916120052E+00  0.239207801077E+00  0.253175659095E+00
  0.267841026127E+00  0.283224272651E+00  0.299344570075E+00  0.316219639193E+00  0.333865487656E+00
  0.352296140632E+00  0.371523370113E+00  0.391556429812E+00  0.412401804287E+00  0.434062982699E+00
  0.456540269591E+00  0.479830647025E+00  0.503927704377E+00  0.528821653790E+00  0.554499450712E+00
  0.580945039608E+00  0.608139744770E+00  0.636062824508E+00  0.664692203553E+00  0.694005392565E+00
  0.723980594505E+00  0.754597984580E+00  0.785841132557E+00  0.817698512736E+00  0.850165016811E+00
  0.883243347760E+00  0.916945128372E+00  0.951291506323E+00  0.986312979901E+00  0.102204810676E+01
  0.105854069626E+01  0.109583502963E+01  0.113396861026E+01  0.117296192902E+01  0.121280475262E+01
  0.125343852286E+01  0.129473837950E+01  0.133658706467E+01  0.137892705530E+01  0.142171210789E+01
  0.146492355079E+01  0.150860176834E+01  0.155287876181E+01  0.159797397802E+01  0.164410162783E+01
  0.169131572912E+01  0.000000000000E+00  0.000000000000E+00  0.000000000000E+00  0.000000000000E+00
  0.000000000000E+00  0.000000000000E+00  0.000000000000E+00  0.000000000000E+00  0.000000000000E+00
  0.000000000000E+00  0.000000000000E+00  0.000000000000E+00  0.000000000000E+00  0.000000000000E+00
  0.000000000000E+00  0.000000000000E+00  0.000000000000E+00  0.000000000000E+00  0.000000000000E+00
  0.000000000000E+00  0.000000000000E+00  0.000000000000E+00  0.000000000000E+00  0.000000000000E+00
  0.000000000000E+00  0.000000000000E+00  0.000000000000E+00  0.000000000000E+00  0.000000000000E+00
  0.000000000000E+00  0.000000000000E+00  0.000000000000E+00  0.000000000000E+00  0.000000000000E+00
  0.000000000000E+00  0.000000000000E+00  0.000000000000E+00
 ae wavefunction
  0.628295114041E-08  0.671813077440E-08  0.717648476420E-08  0.765957926955E-08  0.816907090280E-08
  0.870671298086E-08  0.927436200571E-08  0.987398471727E-08  0.105076655209E-07  0.111776142795E-07
  0.118861747371E-07  0.126358334220E-07  0.134292292188E-07  0.142691631701E-07  0.151586095168E-07
  0.161007268232E-07  0.170988703698E-07  0.181566049039E-07  0.192777183614E-07  0.204662368039E-07
  0.217264394705E-07  0.230628756803E-07  0.244803835126E-07  0.259841062478E-07  0.275795144609E-07
  0.292724275039E-07  0.310690345981E-07  0.329759204709E-07  0.350000900375E-07  0.371489984359E-07
  0.394305765112E-07  0.418532658001E-07  0.444260486531E-07  0.471584868136E-07  0.500607564449E-07
  0.531436903571E-07  0.564188197475E-07  0.598984203273E-07  0.635955619745E-07  0.675241581942E-07
  0.716990250689E-07  0.761359375731E-07  0.808516927458E-07  0.858641776240E-07  0.911924403978E-07
  0.968567662529E-07  0.102878758273E-06  0.109281424499E-06  0.116089270305E-06  0.123328395268E-06
  0.131026598973E-06  0.139213491953E-06  0.147920616163E-06  0.157181569025E-06  0.167032140226E-06
  0.177510455022E-06  0.188657128270E-06  0.200515429928E-06  0.213131451372E-06  0.226554302832E-06
  0.240836299179E-06  0.256033183403E-06  0.272204341131E-06  0.289413044779E-06  0.307726710139E-06
  0.327217166810E-06  0.347960944773E-06  0.370039592738E-06  0.393540000243E-06  0.418554752181E-06
  0.445182501195E-06  0.473528369461E-06  0.503704373145E-06  0.535829874900E-06  0.570032069253E-06
  0.606446491723E-06  0.645217578567E-06  0.686499242067E-06  0.730455497639E-06  0.777261129764E-06
  0.827102399421E-06  0.880177797222E-06  0.936698853677E-06  0.996890987661E-06  0.106099443015E-05
  0.112926519143E-05  0.120197610441E-05  0.127941792645E-05  0.136190052395E-05  0.144975412468E-05
  0.154333065961E-05  0.164300518735E-05  0.174917742199E-05  0.186227335053E-05  0.198274696126E-05
  0.211108208234E-05  0.224779435305E-05  0.239343330568E-05  0.254858460426E-05  0.271387240872E-05
  0.288996191241E-05  0.307756204341E-05  0.327742833831E-05  0.349036599382E-05  0.371723314795E-05
  0.395894434505E-05  0.421647425773E-05  0.449086161919E-05  0.478321344231E-05  0.509470951147E-05
  0.542660714252E-05  0.578024629264E-05  0.615705497924E-05  0.655855505897E-05  0.698636838951E-05
  0.744222339784E-05  0.792796206051E-05  0.844554736522E-05  0.899707124232E-05  0.958476301839E-05
  0.102109984382E-04  0.108783092417E-04  0.115893934082E-04  0.123471260301E-04  0.131545709344E-04
  0.140149930306E-04  0.149318714730E-04  0.159089136986E-04  0.169500703610E-04  0.180595512248E-04
  0.192418421382E-04  0.205017230630E-04  0.218442873172E-04  0.232749620185E-04  0.247995299272E-04
  0.264241526254E-04  0.281553952773E-04  0.300002529413E-04  0.319661785991E-04  0.340611130374E-04
  0.362935166098E-04  0.386724030814E-04  0.412073756668E-04  0.439086653868E-04  0.467871719092E-04
  0.498545069947E-04  0.531230407920E-04  0.566059510901E-04  0.603172757091E-04  0.642719683228E-04
  0.684859578130E-04  0.729762114673E-04  0.777608022036E-04  0.828589801207E-04  0.882912486060E-04
  0.940794453409E-04  0.100246828419E-03  0.106818168041E-03  0.113819843958E-03  0.121279949186E-03
  0.129228400268E-03  0.137697054550E-03  0.146719834875E-03  0.156332862188E-03  0.166574596490E-03
  0.177485986720E-03  0.189110630029E-03  0.201494941112E-03  0.214688332170E-03  0.228743404095E-03
  0.243716149694E-03  0.259666169545E-03  0.276656901298E-03  0.294755863290E-03  0.314034913236E-03
  0.334570522957E-03  0.356444070030E-03  0.379742147555E-03  0.404556892775E-03  0.430986336028E-03
  0.459134770948E-03  0.489113147317E-03  0.521039487741E-03  0.555039329708E-03  0.591246194328E-03
  0.629802083328E-03  0.670858005977E-03  0.714574537522E-03  0.761122411023E-03  0.810683144309E-03
  0.863449704210E-03  0.919627209879E-03  0.979433677554E-03  0.104310080888E-02  0.111087482517E-02
  0.118301735018E-02  0.125980634370E-02  0.134153708892E-02  0.142852323626E-02  0.152109790645E-02
  0.161961485614E-02  0.172444970888E-02  0.183600125510E-02  0.195469282428E-02  0.208097373224E-02
  0.221532080914E-02  0.235824000891E-02  0.251026810669E-02  0.267197448722E-02  0.284396302790E-02
  0.302687408072E-02  0.322138655943E-02  0.342822013193E-02  0.364813752850E-02  0.388194696343E-02
  0.413050468133E-02  0.439471762812E-02  0.467554625317E-02  0.497400744769E-02  0.529117762356E-02
  0.562819593652E-02  0.598626766098E-02  0.636666771697E-02  0.677074435816E-02  0.719992302236E-02
  0.765571034842E-02  0.813969836756E-02  0.865356886638E-02  0.919909793117E-02  0.977816067309E-02
  0.103927361376E-01  0.110449124009E-01  0.117368918555E-01  0.124709966840E-01  0.132496745248E-01
  0.140755043265E-01  0.149512023926E-01  0.158796286126E-01  0.168637928783E-01  0.179068616806E-01
  0.190121648829E-01  0.201832026641E-01  0.214236526234E-01  0.227373770418E-01  0.241284302838E-01
  0.256010663347E-01  0.271597464541E-01  0.288091469351E-01  0.305541669491E-01  0.323999364583E-01
  0.343518241831E-01  0.364154455726E-01  0.385966708092E-01  0.409016327459E-01  0.433367348217E-01
  0.459086588606E-01  0.486243727626E-01  0.514911380311E-01  0.545165170910E-01  0.577083803778E-01
  0.610749131302E-01  0.646246218471E-01  0.683663403652E-01  0.723092354901E-01  0.764628121400E-01
  0.808369179240E-01  0.854417471090E-01  0.902878439034E-01  0.953861049800E-01  0.100747781190E+00
  0.106384478349E+00  0.112308157070E+00  0.118531131506E+00  0.125066066960E+00  0.131925976245E+00
  0.139124214696E+00  0.146674473778E+00  0.154590773110E+00  0.162887450921E+00  0.171579152664E+00
  0.180680817907E+00  0.190207665137E+00  0.200175174608E+00  0.210599068976E+00  0.221495291704E+00
  0.232879983122E+00  0.244769454091E+00  0.257180157237E+00  0.270128655661E+00  0.283631589220E+00
  0.297705638330E+00  0.312367485478E+00  0.327633774398E+00  0.343521067337E+00  0.360045800351E+00
  0.377224237206E+00  0.395072421947E+00  0.413606130731E+00  0.432840823067E+00  0.452791592990E+00
  0.473473120220E+00  0.494899621515E+00  0.517084801946E+00  0.540041805521E+00  0.563783164052E+00
  0.588320742569E+00  0.613665678692E+00  0.639828312602E+00  0.666818103477E+00  0.694643527220E+00
  0.723311950260E+00  0.752829473900E+00  0.783200744560E+00  0.814428726813E+00  0.846514438668E+00
  0.879456651926E+00  0.913251564381E+00  0.947892454262E+00  0.983369329711E+00  0.101966858571E+01
  0.105677267631E+01  0.109465980077E+01  0.113330358887E+01  0.117267276042E+01  0.121273074224E+01
  0.125343529180E+01  0.129473837950E+01  0.133658706467E+01  0.137892705530E+01  0.142171210789E+01
  0.146492355079E+01  0.150860176834E+01  0.155287876181E+01  0.159797397802E+01  0.164410162783E+01
  0.169131572912E+01  0.000000000000E+00  0.000000000000E+00  0.000000000000E+00  0.000000000000E+00
  0.000000000000E+00  0.000000000000E+00  0.000000000000E+00  0.000000000000E+00  0.000000000000E+00
  0.000000000000E+00  0.000000000000E+00  0.000000000000E+00  0.000000000000E+00  0.000000000000E+00
  0.000000000000E+00  0.000000000000E+00  0.000000000000E+00  0.000000000000E+00  0.000000000000E+00
  0.000000000000E+00  0.000000000000E+00  0.000000000000E+00  0.000000000000E+00  0.000000000000E+00
  0.000000000000E+00  0.000000000000E+00  0.000000000000E+00  0.000000000000E+00  0.000000000000E+00
  0.000000000000E+00  0.000000000000E+00  0.000000000000E+00  0.000000000000E+00  0.000000000000E+00
  0.000000000000E+00  0.000000000000E+00  0.000000000000E+00
 End of Dataset
  PAW_PBE Ni_pv 06Sep2000                
   16.0000000000000     
 parameters from PSCTR are:
   VRHFIN =Ni:
   LEXCH  = PE
   EATOM  =  3501.1230 eV,  257.3253 Ry

   TITEL  = PAW_PBE Ni_pv 06Sep2000
   LULTRA =        F    use ultrasoft PP ?
   IUNSCR =        1    unscreen: 0-lin 1-nonlin 2-no
   RPACOR =    1.500    partial core radius
   POMASS =   58.690; ZVAL   =   16.000    mass and valenz
   RCORE  =    2.000    outmost cutoff radius
   RWIGS  =    2.000; RWIGS  =    1.058    wigner-seitz radius (au A)
   ENMAX  =  367.986; ENMIN  =  275.989 eV
   RCLOC  =    1.301    cutoff for local pot
   LCOR   =        T    correct aug charges
   LPAW   =        T    paw PP
   EAUG   =  703.443
   DEXC   =    0.000
   RMAX   =    2.041    core radius for proj-oper
   RAUG   =    1.300    factor for augmentation sphere
   RDEP   =    2.103    radius for radial grids
   RDEPT  =    1.618    core radius for aug-charge
 
   Atomic configuration
    8 entries
     n  l   j            E        occ.
     1  0  0.50     -8206.4253   2.0000
     2  0  0.50      -976.1748   2.0000
     2  1  1.50      -839.0571   6.0000
     3  0  0.50      -105.9991   2.0000
     3  1  1.50       -66.4603   6.0000
     3  2  2.50        -4.6458   9.0000
     4  0  0.50        -4.4926   1.0000
     4  3  2.50        -1.3606   0.0000
   Description
     l       E           TYP  RCUT    TYP  RCUT
     1    -66.4602962     23  1.700
     1     -1.3605826     23  1.700
     2     -4.6457867     23  2.000
     2     -6.0063693     23  2.000
     0     -4.4925576     23  1.900
     0     16.3626226     23  1.900
   Error from kinetic energy argument (eV)
   NDATA  =      100
   STEP   =   20.000   1.050
  324.      322.      321.      319.      318.      315.      312.      311.
  308.      304.      302.      299.      294.      290.      286.      281.
  276.      271.      265.      257.      251.      245.      235.      229.
  222.      212.      202.      195.      185.      175.      165.      154.
  144.      134.      125.      115.      103.      94.9      84.0      76.4
  66.8      57.9      49.9      42.6      36.1      30.3      25.2      19.7
  16.0      12.2      9.07      7.06      5.07      3.55      2.24      1.48
 0.955     0.548     0.312     0.187     0.129     0.106     0.991E-01 0.959E-01
 0.914E-01 0.818E-01 0.686E-01 0.541E-01 0.386E-01 0.276E-01 0.187E-01 0.134E-01
 0.107E-01 0.947E-02 0.875E-02 0.810E-02 0.709E-02 0.585E-02 0.447E-02 0.343E-02
 0.259E-02 0.206E-02 0.175E-02 0.152E-02 0.133E-02 0.115E-02 0.962E-03 0.777E-03
 0.619E-03 0.494E-03 0.398E-03 0.343E-03 0.304E-03 0.272E-03 0.228E-03 0.177E-03
 0.134E-03 0.113E-03 0.105E-03 0.979E-04
END of PSCTR-controll parameters
 local part
   94.4862994289462     
  0.10531022E+03  0.10529627E+03  0.10525448E+03  0.10518488E+03  0.10508753E+03
  0.10496251E+03  0.10480994E+03  0.10462996E+03  0.10442272E+03  0.10418841E+03
  0.10392724E+03  0.10363943E+03  0.10332524E+03  0.10298492E+03  0.10261877E+03
  0.10222710E+03  0.10181023E+03  0.10136851E+03  0.10090231E+03  0.10041201E+03
  0.99898019E+02  0.99360747E+02  0.98800637E+02  0.98218143E+02  0.97613737E+02
  0.96987908E+02  0.96341160E+02  0.95674013E+02  0.94987003E+02  0.94280678E+02
  0.93555600E+02  0.92812344E+02  0.92051497E+02  0.91273656E+02  0.90479429E+02
  0.89669433E+02  0.88844292E+02  0.88004641E+02  0.87151118E+02  0.86284370E+02
  0.85405048E+02  0.84513809E+02  0.83611313E+02  0.82698223E+02  0.81775208E+02
  0.80842934E+02  0.79902072E+02  0.78953293E+02  0.77997267E+02  0.77034664E+02
  0.76066151E+02  0.75092395E+02  0.74114059E+02  0.73131799E+02  0.72146272E+02
  0.71158125E+02  0.70168002E+02  0.69176537E+02  0.68184360E+02  0.67192090E+02
  0.66200340E+02  0.65209711E+02  0.64220797E+02  0.63234180E+02  0.62250431E+02
  0.61270109E+02  0.60293763E+02  0.59321929E+02  0.58355128E+02  0.57393870E+02
  0.56438652E+02  0.55489952E+02  0.54548239E+02  0.53613962E+02  0.52687558E+02
  0.51769446E+02  0.50860030E+02  0.49959695E+02  0.49068813E+02  0.48187735E+02
  0.47316797E+02  0.46456316E+02  0.45606594E+02  0.44767911E+02  0.43940534E+02
  0.43124707E+02  0.42320660E+02  0.41528603E+02  0.40748728E+02  0.39981210E+02
  0.39226205E+02  0.38483851E+02  0.37754270E+02  0.37037564E+02  0.36333819E+02
  0.35643102E+02  0.34965465E+02  0.34300941E+02  0.33649548E+02  0.33011288E+02
  0.32386144E+02  0.31774088E+02  0.31175072E+02  0.30589037E+02  0.30015908E+02
  0.29455597E+02  0.28908000E+02  0.28373005E+02  0.27850482E+02  0.27340294E+02
  0.26842290E+02  0.26356309E+02  0.25882181E+02  0.25419723E+02  0.24968748E+02
  0.24529057E+02  0.24100443E+02  0.23682696E+02  0.23275594E+02  0.22878914E+02
  0.22492426E+02  0.22115893E+02  0.21749079E+02  0.21391741E+02  0.21043635E+02
  0.20704515E+02  0.20374133E+02  0.20052241E+02  0.19738591E+02  0.19432934E+02
  0.19135023E+02  0.18844614E+02  0.18561462E+02  0.18285326E+02  0.18015970E+02
  0.17753157E+02  0.17496658E+02  0.17246247E+02  0.17001701E+02  0.16762804E+02
  0.16529345E+02  0.16301119E+02  0.16077926E+02  0.15859572E+02  0.15645870E+02
  0.15436642E+02  0.15231712E+02  0.15030915E+02  0.14834090E+02  0.14641086E+02
  0.14451757E+02  0.14265965E+02  0.14083579E+02  0.13904474E+02  0.13728533E+02
  0.13555647E+02  0.13385710E+02  0.13218628E+02  0.13054308E+02  0.12892668E+02
  0.12733628E+02  0.12577116E+02  0.12423067E+02  0.12271418E+02  0.12122114E+02
  0.11975104E+02  0.11830341E+02  0.11687783E+02  0.11547391E+02  0.11409132E+02
  0.11272974E+02  0.11138890E+02  0.11006853E+02  0.10876842E+02  0.10748836E+02
  0.10622817E+02  0.10498766E+02  0.10376670E+02  0.10256513E+02  0.10138281E+02
  0.10021962E+02  0.99075417E+01  0.97950085E+01  0.96843491E+01  0.95755504E+01
  0.94685989E+01  0.93634802E+01  0.92601793E+01  0.91586803E+01  0.90589662E+01
  0.89610188E+01  0.88648186E+01  0.87703451E+01  0.86775761E+01  0.85864882E+01
  0.84970566E+01  0.84092549E+01  0.83230555E+01  0.82384294E+01  0.81553463E+01
  0.80737746E+01  0.79936816E+01  0.79150332E+01  0.78377948E+01  0.77619304E+01
  0.76874036E+01  0.76141770E+01  0.75422127E+01  0.74714726E+01  0.74019179E+01
  0.73335099E+01  0.72662098E+01  0.71999787E+01  0.71347782E+01  0.70705699E+01
  0.70073163E+01  0.69449803E+01  0.68835254E+01  0.68229164E+01  0.67631186E+01
  0.67040988E+01  0.66458248E+01  0.65882658E+01  0.65313925E+01  0.64751768E+01
  0.64195925E+01  0.63646146E+01  0.63102202E+01  0.62563878E+01  0.62030976E+01
  0.61503317E+01  0.60980739E+01  0.60463096E+01  0.59950260E+01  0.59442121E+01
  0.58938585E+01  0.58439573E+01  0.57945023E+01  0.57454888E+01  0.56969135E+01
  0.56487747E+01  0.56010716E+01  0.55538050E+01  0.55069766E+01  0.54605892E+01
  0.54146464E+01  0.53691529E+01  0.53241136E+01  0.52795345E+01  0.52354218E+01
  0.51917820E+01  0.51486219E+01  0.51059485E+01  0.50637688E+01  0.50220896E+01
  0.49809175E+01  0.49402590E+01  0.49001199E+01  0.48605058E+01  0.48214216E+01
  0.47828717E+01  0.47448595E+01  0.47073878E+01  0.46704587E+01  0.46340733E+01
  0.45982315E+01  0.45629327E+01  0.45281750E+01  0.44939556E+01  0.44602705E+01
  0.44271148E+01  0.43944826E+01  0.43623669E+01  0.43307597E+01  0.42996520E+01
  0.42690339E+01  0.42388947E+01  0.42092226E+01  0.41800053E+01  0.41512295E+01
  0.41228815E+01  0.40949468E+01  0.40674104E+01  0.40402569E+01  0.40134707E+01
  0.39870355E+01  0.39609352E+01  0.39351533E+01  0.39096735E+01  0.38844792E+01
  0.38595542E+01  0.38348825E+01  0.38104482E+01  0.37862359E+01  0.37622306E+01
  0.37384179E+01  0.37147837E+01  0.36913149E+01  0.36679990E+01  0.36448241E+01
  0.36217794E+01  0.35988546E+01  0.35760406E+01  0.35533292E+01  0.35307130E+01
  0.35081857E+01  0.34857419E+01  0.34633773E+01  0.34410885E+01  0.34188731E+01
  0.33967297E+01  0.33746578E+01  0.33526580E+01  0.33307315E+01  0.33088807E+01
  0.32871086E+01  0.32654191E+01  0.32438168E+01  0.32223070E+01  0.32008957E+01
  0.31795893E+01  0.31583950E+01  0.31373202E+01  0.31163728E+01  0.30955609E+01
  0.30748930E+01  0.30543776E+01  0.30340234E+01  0.30138392E+01  0.29938335E+01
  0.29740149E+01  0.29543919E+01  0.29349724E+01  0.29157644E+01  0.28967752E+01
  0.28780119E+01  0.28594811E+01  0.28411888E+01  0.28231404E+01  0.28053408E+01
  0.27877943E+01  0.27705044E+01  0.27534740E+01  0.27367051E+01  0.27201992E+01
  0.27039569E+01  0.26879780E+01  0.26722616E+01  0.26568061E+01  0.26416089E+01
  0.26266670E+01  0.26119764E+01  0.25975324E+01  0.25833298E+01  0.25693626E+01
  0.25556243E+01  0.25421076E+01  0.25288050E+01  0.25157082E+01  0.25028086E+01
  0.24900972E+01  0.24775647E+01  0.24652014E+01  0.24529974E+01  0.24409427E+01
  0.24290271E+01  0.24172402E+01  0.24055719E+01  0.23940118E+01  0.23825497E+01
  0.23711757E+01  0.23598800E+01  0.23486528E+01  0.23374850E+01  0.23263677E+01
  0.23152922E+01  0.23042505E+01  0.22932349E+01  0.22822383E+01  0.22712542E+01
  0.22602764E+01  0.22492996E+01  0.22383189E+01  0.22273301E+01  0.22163297E+01
  0.22053147E+01  0.21942829E+01  0.21832327E+01  0.21721631E+01  0.21610737E+01
  0.21499649E+01  0.21388376E+01  0.21276934E+01  0.21165342E+01  0.21053629E+01
  0.20941826E+01  0.20829970E+01  0.20718102E+01  0.20606270E+01  0.20494523E+01
  0.20382914E+01  0.20271502E+01  0.20160344E+01  0.20049504E+01  0.19939045E+01
  0.19829033E+01  0.19719534E+01  0.19610614E+01  0.19502341E+01  0.19394780E+01
  0.19287999E+01  0.19182061E+01  0.19077029E+01  0.18972965E+01  0.18869926E+01
  0.18767969E+01  0.18667147E+01  0.18567509E+01  0.18469101E+01  0.18371965E+01
  0.18276139E+01  0.18181656E+01  0.18088544E+01  0.17996829E+01  0.17906529E+01
  0.17817658E+01  0.17730225E+01  0.17644235E+01  0.17559687E+01  0.17476574E+01
  0.17394885E+01  0.17314606E+01  0.17235714E+01  0.17158186E+01  0.17081990E+01
  0.17007094E+01  0.16933460E+01  0.16861046E+01  0.16789806E+01  0.16719692E+01
  0.16650653E+01  0.16582635E+01  0.16515582E+01  0.16449434E+01  0.16384132E+01
  0.16319614E+01  0.16255819E+01  0.16192681E+01  0.16130139E+01  0.16068129E+01
  0.16006588E+01  0.15945453E+01  0.15884664E+01  0.15824160E+01  0.15763884E+01
  0.15703780E+01  0.15643794E+01  0.15583876E+01  0.15523977E+01  0.15464052E+01
  0.15404059E+01  0.15343959E+01  0.15283719E+01  0.15223307E+01  0.15162695E+01
  0.15101861E+01  0.15040786E+01  0.14979454E+01  0.14917853E+01  0.14855979E+01
  0.14793827E+01  0.14731398E+01  0.14668699E+01  0.14605738E+01  0.14542528E+01
  0.14479086E+01  0.14415432E+01  0.14351590E+01  0.14287585E+01  0.14223448E+01
  0.14159210E+01  0.14094906E+01  0.14030574E+01  0.13966251E+01  0.13901977E+01
  0.13837796E+01  0.13773749E+01  0.13709880E+01  0.13646233E+01  0.13582852E+01
  0.13519783E+01  0.13457069E+01  0.13394753E+01  0.13332878E+01  0.13271487E+01
  0.13210618E+01  0.13150311E+01  0.13090603E+01  0.13031528E+01  0.12973118E+01
  0.12915404E+01  0.12858413E+01  0.12802170E+01  0.12746696E+01  0.12692010E+01
  0.12638128E+01  0.12585061E+01  0.12532819E+01  0.12481407E+01  0.12430828E+01
  0.12381081E+01  0.12332162E+01  0.12284063E+01  0.12236774E+01  0.12190281E+01
  0.12144567E+01  0.12099614E+01  0.12055399E+01  0.12011896E+01  0.11969080E+01
  0.11926920E+01  0.11885385E+01  0.11844441E+01  0.11804053E+01  0.11764186E+01
  0.11724800E+01  0.11685858E+01  0.11647319E+01  0.11609143E+01  0.11571292E+01
  0.11533723E+01  0.11496397E+01  0.11459274E+01  0.11422315E+01  0.11385483E+01
  0.11348740E+01  0.11312051E+01  0.11275381E+01  0.11238698E+01  0.11201971E+01
  0.11165172E+01  0.11128275E+01  0.11091255E+01  0.11054091E+01  0.11016763E+01
  0.10979254E+01  0.10941552E+01  0.10903644E+01  0.10865522E+01  0.10827181E+01
  0.10788618E+01  0.10749832E+01  0.10710826E+01  0.10671606E+01  0.10632179E+01
  0.10592556E+01  0.10552749E+01  0.10512775E+01  0.10472650E+01  0.10432394E+01
  0.10392028E+01  0.10351575E+01  0.10311060E+01  0.10270509E+01  0.10229949E+01
  0.10189407E+01  0.10148914E+01  0.10108498E+01  0.10068190E+01  0.10028019E+01
  0.99880166E+00  0.99482122E+00  0.99086356E+00  0.98693159E+00  0.98302815E+00
  0.97915599E+00  0.97531773E+00  0.97151587E+00  0.96775279E+00  0.96403066E+00
  0.96035152E+00  0.95671721E+00  0.95312937E+00  0.94958943E+00  0.94609863E+00
  0.94265797E+00  0.93926822E+00  0.93592995E+00  0.93264348E+00  0.92940889E+00
  0.92622606E+00  0.92309463E+00  0.92001402E+00  0.91698341E+00  0.91400180E+00
  0.91106797E+00  0.90818051E+00  0.90533781E+00  0.90253810E+00  0.89977944E+00
  0.89705975E+00  0.89437679E+00  0.89172822E+00  0.88911160E+00  0.88652438E+00
  0.88396395E+00  0.88142765E+00  0.87891278E+00  0.87641662E+00  0.87393643E+00
  0.87146952E+00  0.86901321E+00  0.86656486E+00  0.86412192E+00  0.86168190E+00
  0.85924240E+00  0.85680114E+00  0.85435595E+00  0.85190481E+00  0.84944582E+00
  0.84697724E+00  0.84449750E+00  0.84200520E+00  0.83949912E+00  0.83697823E+00
  0.83444167E+00  0.83188878E+00  0.82931913E+00  0.82673243E+00  0.82412864E+00
  0.82150787E+00  0.81887046E+00  0.81621691E+00  0.81354791E+00  0.81086434E+00
  0.80816721E+00  0.80545771E+00  0.80273720E+00  0.80000713E+00  0.79726910E+00
  0.79452484E+00  0.79177614E+00  0.78902492E+00  0.78627314E+00  0.78352285E+00
  0.78077613E+00  0.77803509E+00  0.77530188E+00  0.77257863E+00  0.76986749E+00
  0.76717054E+00  0.76448986E+00  0.76182748E+00  0.75918533E+00  0.75656529E+00
  0.75396915E+00  0.75139857E+00  0.74885514E+00  0.74634029E+00  0.74385533E+00
  0.74140144E+00  0.73897964E+00  0.73659081E+00  0.73423568E+00  0.73191479E+00
  0.72962855E+00  0.72737720E+00  0.72516080E+00  0.72297927E+00  0.72083235E+00
  0.71871964E+00  0.71664056E+00  0.71459440E+00  0.71258030E+00  0.71059725E+00
  0.70864412E+00  0.70671965E+00  0.70482246E+00  0.70295107E+00  0.70110391E+00
  0.69927929E+00  0.69747549E+00  0.69569071E+00  0.69392310E+00  0.69217076E+00
  0.69043178E+00  0.68870424E+00  0.68698621E+00  0.68527577E+00  0.68357104E+00
  0.68187014E+00  0.68017128E+00  0.67847269E+00  0.67677270E+00  0.67506969E+00
  0.67336213E+00  0.67164860E+00  0.66992776E+00  0.66819841E+00  0.66645943E+00
  0.66470986E+00  0.66294885E+00  0.66117566E+00  0.65938974E+00  0.65759063E+00
  0.65577802E+00  0.65395177E+00  0.65211185E+00  0.65025837E+00  0.64839160E+00
  0.64651191E+00  0.64461983E+00  0.64271600E+00  0.64080119E+00  0.63887625E+00
  0.63694218E+00  0.63500005E+00  0.63305103E+00  0.63109636E+00  0.62913736E+00
  0.62717543E+00  0.62521199E+00  0.62324854E+00  0.62128660E+00  0.61932770E+00
  0.61737342E+00  0.61542531E+00  0.61348494E+00  0.61155384E+00  0.60963353E+00
  0.60772550E+00  0.60583119E+00  0.60395197E+00  0.60208915E+00  0.60024400E+00
  0.59841767E+00  0.59661124E+00  0.59482570E+00  0.59306194E+00  0.59132075E+00
  0.58960280E+00  0.58790866E+00  0.58623878E+00  0.58459351E+00  0.58297306E+00
  0.58137753E+00  0.57980692E+00  0.57826109E+00  0.57673980E+00  0.57524269E+00
  0.57376929E+00  0.57231902E+00  0.57089121E+00  0.56948507E+00  0.56809974E+00
  0.56673426E+00  0.56538759E+00  0.56405861E+00  0.56274614E+00  0.56144895E+00
  0.56016576E+00  0.55889523E+00  0.55763600E+00  0.55638668E+00  0.55514589E+00
  0.55391220E+00  0.55268422E+00  0.55146055E+00  0.55023981E+00  0.54902067E+00
  0.54780180E+00  0.54658193E+00  0.54535985E+00  0.54413439E+00  0.54290445E+00
  0.54166899E+00  0.54042706E+00  0.53917778E+00  0.53792036E+00  0.53665410E+00
  0.53537838E+00  0.53409271E+00  0.53279667E+00  0.53148994E+00  0.53017233E+00
  0.52884371E+00  0.52750410E+00  0.52615358E+00  0.52479235E+00  0.52342071E+00
  0.52203904E+00  0.52064782E+00  0.51924761E+00  0.51783907E+00  0.51642292E+00
  0.51499994E+00  0.51357101E+00  0.51213706E+00  0.51069905E+00  0.50925802E+00
  0.50781503E+00  0.50637119E+00  0.50492763E+00  0.50348551E+00  0.50204598E+00
  0.50061022E+00  0.49917939E+00  0.49775466E+00  0.49633716E+00  0.49492801E+00
  0.49352829E+00  0.49213905E+00  0.49076129E+00  0.48939596E+00  0.48804394E+00
  0.48670608E+00  0.48538313E+00  0.48407578E+00  0.48278466E+00  0.48151029E+00
  0.48025315E+00  0.47901360E+00  0.47779194E+00  0.47658837E+00  0.47540301E+00
  0.47423589E+00  0.47308695E+00  0.47195605E+00  0.47084296E+00  0.46974737E+00
  0.46866887E+00  0.46760701E+00  0.46656122E+00  0.46553089E+00  0.46451533E+00
  0.46351379E+00  0.46252547E+00  0.46154949E+00  0.46058496E+00  0.45963093E+00
  0.45868642E+00  0.45775043E+00  0.45682191E+00  0.45589984E+00  0.45498316E+00
  0.45407082E+00  0.45316176E+00  0.45225496E+00  0.45134939E+00  0.45044405E+00
  0.44953797E+00  0.44863022E+00  0.44771991E+00  0.44680617E+00  0.44588822E+00
  0.44496531E+00  0.44403674E+00  0.44310191E+00  0.44216025E+00  0.44121128E+00
  0.44025459E+00  0.43928983E+00  0.43831675E+00  0.43733516E+00  0.43634495E+00
  0.43534609E+00  0.43433864E+00  0.43332270E+00  0.43229848E+00  0.43126625E+00
  0.43022634E+00  0.42917917E+00  0.42812519E+00  0.42706493E+00  0.42599899E+00
  0.42492801E+00  0.42385266E+00  0.42277368E+00  0.42169184E+00  0.42060794E+00
  0.41952281E+00  0.41843731E+00  0.41735232E+00  0.41626871E+00  0.41518736E+00
  0.41410918E+00  0.41303504E+00  0.41196581E+00  0.41090234E+00  0.40984546E+00
  0.40879597E+00  0.40775462E+00  0.40672215E+00  0.40569924E+00  0.40468653E+00
  0.40368460E+00  0.40269398E+00  0.40171515E+00  0.40074853E+00  0.39979446E+00
  0.39885325E+00  0.39792512E+00  0.39701022E+00  0.39610865E+00  0.39522045E+00
  0.39434556E+00  0.39348387E+00  0.39263522E+00  0.39179937E+00  0.39097602E+00
  0.39016480E+00  0.38936531E+00  0.38857705E+00  0.38779953E+00  0.38703215E+00
  0.38627431E+00  0.38552536E+00  0.38478461E+00  0.38405135E+00  0.38332483E+00
  0.38260431E+00  0.38188900E+00  0.38117812E+00  0.38047088E+00  0.37976651E+00
  0.37906421E+00  0.37836320E+00  0.37766275E+00  0.37696209E+00  0.37626053E+00
  0.37555737E+00  0.37485195E+00  0.37414366E+00  0.37343193E+00  0.37271621E+00
  0.37199602E+00  0.37127093E+00  0.37054054E+00  0.36980454E+00  0.36906265E+00
  0.36831465E+00  0.36756038E+00  0.36679976E+00  0.36603273E+00  0.36525932E+00
  0.36447961E+00  0.36369372E+00  0.36290184E+00  0.36210422E+00  0.36130115E+00
  0.36049297E+00  0.35968005E+00  0.35886284E+00  0.35804181E+00  0.35721745E+00
  0.35639031E+00  0.35556096E+00  0.35473000E+00  0.35389804E+00  0.35306572E+00
  0.35223367E+00  0.35140257E+00  0.35057306E+00  0.34974581E+00  0.34892146E+00
  0.34810066E+00  0.34728403E+00  0.34647219E+00  0.34566572E+00  0.34486517E+00
  0.34407109E+00  0.34328396E+00  0.34250426E+00  0.34173239E+00  0.34096875E+00
  0.34021367E+00  0.33946745E+00  0.33873034E+00  0.33800253E+00  0.33728417E+00
  0.33657538E+00  0.33587619E+00  0.33518661E+00  0.33450660E+00  0.33383604E+00
  0.33317480E+00  0.33252268E+00  0.33187944E+00  0.33124479E+00  0.33061841E+00
  0.32999994E+00  0.32938897E+00  0.32878506E+00  0.32818776E+00  0.32759656E+00
  0.32701097E+00  0.32643044E+00  0.32585442E+00  0.32528236E+00  0.32471369E+00
 gradient corrections used for XC
           5
 core charge-density (partial)
  0.94650637E+00  0.94618697E+00  0.94522941E+00  0.94363557E+00  0.94140860E+00
  0.93855287E+00  0.93507401E+00  0.93097882E+00  0.92627531E+00  0.92097264E+00
  0.91508111E+00  0.90861210E+00  0.90157804E+00  0.89399240E+00  0.88586961E+00
  0.87722502E+00  0.86807486E+00  0.85843618E+00  0.84832682E+00  0.83776533E+00
  0.82677089E+00  0.81536331E+00  0.80356294E+00  0.79139060E+00  0.77886753E+00
  0.76601533E+00  0.75285590E+00  0.73941135E+00  0.72570401E+00  0.71175629E+00
  0.69759065E+00  0.68322958E+00  0.66869547E+00  0.65401062E+00  0.63919715E+00
  0.62427696E+00  0.60927167E+00  0.59420261E+00  0.57909069E+00  0.56395647E+00
  0.54882002E+00  0.53370093E+00  0.51861827E+00  0.50359056E+00  0.48863572E+00
  0.47377106E+00  0.45901325E+00  0.44437829E+00  0.42988150E+00  0.41553751E+00
  0.40136022E+00  0.38736282E+00  0.37355775E+00  0.35995672E+00  0.34657070E+00
  0.33340989E+00  0.32048376E+00  0.30780103E+00  0.29536969E+00  0.28319697E+00
  0.27128942E+00  0.25965283E+00  0.24829230E+00  0.23721227E+00  0.22641646E+00
  0.21590797E+00  0.20568923E+00  0.19576207E+00  0.18612772E+00  0.17678680E+00
  0.16773941E+00  0.15898506E+00  0.15052280E+00  0.14235115E+00  0.13446818E+00
  0.12687149E+00  0.11955830E+00  0.11252538E+00  0.10576917E+00  0.99285743E-01
  0.93070847E-01  0.87119930E-01  0.81428163E-01  0.75990461E-01  0.70801508E-01
  0.65855778E-01  0.61147560E-01  0.56670973E-01  0.52419995E-01  0.48388477E-01
  0.44570168E-01  0.40958729E-01  0.37547754E-01  0.34330788E-01  0.31301345E-01
  0.28452919E-01  0.25779007E-01  0.23273119E-01  0.20928791E-01  0.18739605E-01
  0.16699192E-01  0.14801251E-01  0.13039559E-01  0.11407978E-01  0.99004653E-02
  0.85110865E-02  0.72340186E-02  0.60635594E-02  0.49941343E-02  0.40203018E-02
  0.31367589E-02  0.23383461E-02  0.16200512E-02  0.97701290E-03  0.40452357E-03
 -0.10196824E-03 -0.54685606E-03 -0.93437419E-03 -0.12685969E-02 -0.15534380E-02
 -0.17926510E-02 -0.19898298E-02 -0.21484090E-02 -0.22716658E-02 -0.23627214E-02
 -0.24245429E-02 -0.24599453E-02 -0.24715945E-02 -0.24620099E-02 -0.24335671E-02
 -0.23885015E-02 -0.23289117E-02 -0.22567627E-02 -0.21738900E-02 -0.20820036E-02
 -0.19826916E-02 -0.18774244E-02 -0.17675590E-02 -0.16543432E-02 -0.15389198E-02
 -0.14223309E-02 -0.13055224E-02 -0.11893481E-02 -0.10745742E-02 -0.96188364E-03
 -0.85188016E-03 -0.74509275E-03 -0.64197975E-03 -0.54293296E-03 -0.44828173E-03
 -0.35829690E-03 -0.27319471E-03 -0.19314058E-03 -0.11825282E-03 -0.48606209E-04
  0.15764506E-04  0.74861246E-04  0.12871934E-03  0.17740441E-03  0.22100931E-03
  0.25965128E-03  0.29346918E-03  0.32262080E-03  0.34728044E-03  0.36763643E-03
  0.38388894E-03  0.39624783E-03  0.40493064E-03  0.41016072E-03  0.41216546E-03
  0.41117469E-03  0.40741910E-03  0.40112889E-03  0.39253248E-03  0.38185529E-03
  0.36931871E-03  0.35513912E-03  0.33952702E-03  0.32268626E-03  0.30481336E-03
  0.28609695E-03  0.26671722E-03  0.24684554E-03  0.22664411E-03  0.20626567E-03
  0.18585334E-03  0.16554044E-03  0.14545044E-03  0.12569696E-03  0.10638377E-03
  0.87604931E-04  0.69444870E-04  0.51978598E-04  0.35271904E-04  0.19381608E-04
  0.43558401E-05 -0.97656528E-05 -0.22951179E-04 -0.35176749E-04 -0.46425705E-04
 -0.56688342E-04 -0.65961504E-04 -0.74248187E-04 -0.81557122E-04 -0.87902361E-04
 -0.93302859E-04 -0.97782057E-04 -0.10136747E-03 -0.10409026E-03 -0.10598487E-03
 -0.10708857E-03 -0.10744114E-03 -0.10708442E-03 -0.10606199E-03 -0.10441882E-03
 -0.10220090E-03 -0.99454966E-04 -0.96228128E-04 -0.92567633E-04 -0.88520566E-04
 -0.84133594E-04 -0.79452730E-04 -0.74523106E-04 -0.69388772E-04 -0.64092502E-04
 -0.58675632E-04 -0.53177901E-04 -0.47637320E-04 -0.42090052E-04 -0.36570310E-04
 -0.31110276E-04 -0.25740023E-04 -0.20487470E-04 -0.15378336E-04 -0.10436118E-04
 -0.56820737E-05 -0.11352295E-05  0.31876131E-05  0.72718510E-05  0.11105045E-04
  0.14676878E-04  0.17979096E-04  0.21005452E-04  0.23751634E-04  0.26215189E-04
  0.28395439E-04  0.30293398E-04  0.31911676E-04  0.33254380E-04  0.34327024E-04
  0.35136417E-04  0.35690564E-04  0.35998563E-04  0.36070494E-04  0.35917317E-04
  0.35550768E-04  0.34983250E-04  0.34227735E-04  0.33297660E-04  0.32206832E-04
  0.30969331E-04  0.29599415E-04  0.28111435E-04  0.26519751E-04  0.24838644E-04
  0.23082248E-04  0.21264471E-04  0.19398932E-04  0.17498893E-04  0.15577208E-04
  0.13646264E-04  0.11717935E-04  0.98035387E-05  0.79138001E-05  0.60588161E-05
  0.42480289E-05  0.24902021E-05  0.79340229E-06 -0.83501479E-06 -0.23884137E-05
 -0.38608843E-05 -0.52472427E-05 -0.65430284E-05 -0.77444969E-05 -0.88486095E-05
 -0.98530198E-05 -0.10756056E-04 -0.11556701E-04 -0.12254570E-04 -0.12849887E-04
 -0.13343454E-04 -0.13736624E-04 -0.14031270E-04 -0.14229752E-04 -0.14334883E-04
 -0.14349893E-04 -0.14278397E-04 -0.14124355E-04 -0.13892038E-04 -0.13585988E-04
 -0.13210985E-04 -0.12772008E-04 -0.12274200E-04 -0.11722833E-04 -0.11123271E-04
 -0.10480939E-04 -0.98012886E-05 -0.90897665E-05 -0.83517849E-05 -0.75926922E-05
 -0.68177454E-05 -0.60320851E-05 -0.52407105E-05 -0.44484577E-05 -0.36599788E-05
 -0.28797233E-05 -0.21119208E-05 -0.13605664E-05 -0.62940723E-06  0.78068835E-07
  0.75864265E-06  0.14093714E-05  0.20275946E-05  0.26109378E-05  0.31573155E-05
  0.36649312E-05  0.41322771E-05  0.45581311E-05  0.49415532E-05  0.52818802E-05
  0.55787188E-05  0.58319379E-05  0.60416598E-05  0.62082497E-05  0.63323050E-05
  0.64146435E-05  0.64562904E-05  0.64584654E-05  0.64225686E-05  0.63501661E-05
  0.62429754E-05  0.61028502E-05  0.59317653E-05  0.57318012E-05  0.55051286E-05
  0.52539931E-05  0.49807004E-05  0.46876005E-05  0.43770739E-05  0.40515167E-05
  0.37133268E-05  0.33648907E-05  0.30085700E-05  0.26466899E-05  0.22815270E-05
  0.19152980E-05  0.15501503E-05  0.11881514E-05  0.83128096E-06  0.48142213E-06
  0.14035468E-06 -0.19025150E-06 -0.50884200E-06 -0.81398266E-06 -0.11043635E-05
 -0.13788019E-05 -0.16362447E-05 -0.18757703E-05 -0.20965887E-05 -0.22980422E-05
 -0.24796041E-05 -0.26408778E-05 -0.27815945E-05 -0.29016104E-05 -0.30009038E-05
 -0.30795708E-05 -0.31378212E-05 -0.31759734E-05 -0.31944495E-05 -0.31937693E-05
 -0.31745442E-05 -0.31374712E-05 -0.30833260E-05 -0.30129562E-05 -0.29272743E-05
 -0.28272507E-05 -0.27139062E-05 -0.25883050E-05 -0.24515473E-05 -0.23047619E-05
 -0.21490991E-05 -0.19857238E-05 -0.18158083E-05 -0.16405258E-05 -0.14610435E-05
 -0.12785167E-05 -0.10940821E-05 -0.90885294E-06 -0.72391270E-06 -0.54031042E-06
 -0.35905574E-06 -0.18111456E-06 -0.74049164E-08  0.16120663E-06  0.32390831E-06
  0.47994598E-06  0.62862561E-06  0.76931535E-06  0.90144721E-06  0.10245183E-05
  0.11380916E-05  0.12417967E-05  0.13353296E-05  0.14184528E-05  0.14909941E-05
  0.15528462E-05  0.16039652E-05  0.16443690E-05  0.16741354E-05  0.16933996E-05
  0.17023526E-05  0.17012377E-05  0.16903480E-05  0.16700233E-05  0.16406470E-05
  0.16026425E-05  0.15564697E-05  0.15026216E-05  0.14416205E-05  0.13740142E-05
  0.13003724E-05  0.12212827E-05  0.11373470E-05  0.10491776E-05  0.95739374E-06
  0.86261769E-06  0.76547133E-06  0.66657271E-06  0.56653266E-06  0.46595165E-06
  0.36541668E-06  0.26549844E-06  0.16674851E-06  0.69696881E-07 -0.25150435E-07
 -0.11731357E-06 -0.20634076E-06 -0.29181008E-06 -0.37333099E-06 -0.45054569E-06
 -0.52313018E-06 -0.59079519E-06 -0.65328686E-06 -0.71038716E-06 -0.76191421E-06
 -0.80772228E-06 -0.84770167E-06 -0.88177835E-06 -0.90991342E-06 -0.93210243E-06
 -0.94837445E-06 -0.95879109E-06 -0.96344525E-06 -0.96245980E-06 -0.95598612E-06
 -0.94420252E-06 -0.92731254E-06 -0.90554314E-06 -0.87914289E-06 -0.84837998E-06
 -0.81354022E-06 -0.77492504E-06 -0.73284936E-06 -0.68763953E-06 -0.63963122E-06
 -0.58916728E-06 -0.53659569E-06 -0.48226748E-06 -0.42653470E-06 -0.36974841E-06
 -0.31225680E-06 -0.25440329E-06 -0.19652475E-06 -0.13894978E-06 -0.81997112E-07
 -0.25974056E-07  0.28824913E-07  0.82119476E-07  0.13364468E-06  0.18315203E-06
  0.23041047E-06  0.27520723E-06  0.31734858E-06  0.35666042E-06  0.39298877E-06
  0.42620016E-06  0.45618184E-06  0.48284193E-06  0.50610940E-06  0.52593399E-06
  0.54228597E-06  0.55515581E-06  0.56455374E-06  0.57050924E-06  0.57307041E-06
  0.57230323E-06  0.56829081E-06  0.56113248E-06  0.55094287E-06  0.53785092E-06
  0.52199880E-06  0.50354082E-06  0.48264229E-06  0.45947834E-06  0.43423269E-06
  0.40709647E-06  0.37826694E-06  0.34794629E-06  0.31634037E-06  0.28365747E-06
  0.25010710E-06  0.21589882E-06  0.18124103E-06  0.14633988E-06  0.11139814E-06
  0.76614173E-07  0.42180935E-07  0.82850029E-08 -0.24894302E-07 -0.57185749E-07
 -0.88426969E-07 -0.11846515E-06 -0.14715769E-06 -0.17437272E-06 -0.19998964E-06
 -0.22389951E-06 -0.24600541E-06 -0.26622268E-06 -0.28447916E-06 -0.30071527E-06
 -0.31488409E-06 -0.32695133E-06 -0.33689522E-06 -0.34470639E-06 -0.35038763E-06
 -0.35395360E-06 -0.35543048E-06 -0.35485561E-06 -0.35227699E-06 -0.34775280E-06
 -0.34135086E-06 -0.33314803E-06 -0.32322959E-06 -0.31168858E-06 -0.29862511E-06
 -0.28414568E-06 -0.26836240E-06 -0.25139227E-06 -0.23335644E-06 -0.21437942E-06
 -0.19458833E-06 -0.17411212E-06 -0.15308083E-06 -0.13162485E-06 -0.10987417E-06
 -0.87957666E-07 -0.66002410E-07 -0.44133010E-07 -0.22470961E-07 -0.11340331E-08
  0.19764301E-07  0.40115407E-07  0.59815996E-07  0.78768580E-07  0.96881900E-07
  0.11407130E-06  0.13025905E-06  0.14537466E-06  0.15935510E-06  0.17214500E-06
  0.18369680E-06  0.19397085E-06  0.20293548E-06  0.21056701E-06  0.21684969E-06
  0.22177565E-06  0.22534479E-06  0.22756461E-06  0.22844998E-06  0.22802298E-06
  0.22631257E-06  0.22335430E-06  0.21919000E-06  0.21386740E-06  0.20743975E-06
  0.19996543E-06  0.19150747E-06  0.18213319E-06  0.17191366E-06  0.16092325E-06
  0.14923920E-06  0.13694105E-06  0.12411023E-06  0.11082951E-06  0.97182556E-07
  0.83253410E-07  0.69126044E-07  0.54883881E-07  0.40609344E-07  0.26383416E-07
  0.12285218E-07 -0.16083929E-08 -0.15223208E-07 -0.28488029E-07 -0.41335003E-07
 -0.53699937E-07 -0.65522581E-07 -0.76746891E-07 -0.87321255E-07 -0.97198696E-07
 -0.10633704E-06 -0.11469907E-06 -0.12225263E-06 -0.12897068E-06 -0.13483141E-06
 -0.13981820E-06 -0.14391964E-06 -0.14712951E-06 -0.14944667E-06 -0.15087501E-06
 -0.15142332E-06 -0.15110515E-06 -0.14993863E-06 -0.14794631E-06 -0.14515491E-06
 -0.14159514E-06 -0.13730142E-06 -0.13231163E-06 -0.12666685E-06 -0.12041103E-06
 -0.11359073E-06 -0.10625480E-06 -0.98454064E-07 -0.90240997E-07 -0.81669411E-07
 -0.72794124E-07 -0.63670637E-07 -0.54354818E-07 -0.44902575E-07 -0.35369554E-07
 -0.25810826E-07 -0.16280596E-07 -0.68319174E-08  0.24835861E-08  0.11615978E-07
  0.20517256E-07  0.29141586E-07  0.37445517E-07  0.45388178E-07  0.52931461E-07
  0.60040178E-07  0.66682213E-07  0.72828634E-07  0.78453806E-07  0.83535468E-07
  0.88054800E-07  0.91996464E-07  0.95348626E-07  0.98102962E-07  0.10025464E-06
  0.10180228E-06  0.10274791E-06  0.10309688E-06  0.10285780E-06  0.10204239E-06
  0.10066540E-06  0.98744470E-07  0.96299948E-07  0.93354766E-07  0.89934246E-07
  0.86065927E-07  0.81779367E-07  0.77105945E-07  0.72078656E-07  0.66731897E-07
  0.61101251E-07  0.55223270E-07  0.49135254E-07  0.42875029E-07  0.36480730E-07
  0.29990580E-07  0.23442680E-07  0.16874795E-07  0.10324153E-07  0.38272425E-08
 -0.25803714E-08 -0.88642348E-08 -0.14991175E-07 -0.20929463E-07 -0.26648967E-07
 -0.32121293E-07 -0.37319908E-07 -0.42220265E-07 -0.46799898E-07 -0.51038516E-07
 -0.54918076E-07 -0.58422848E-07 -0.61539464E-07 -0.64256950E-07 -0.66566746E-07
 -0.68462717E-07 -0.69941144E-07 -0.71000704E-07 -0.71642437E-07 -0.71869702E-07
 -0.71688118E-07 -0.71105497E-07 -0.70131761E-07 -0.68778856E-07 -0.67060646E-07
 -0.64992811E-07 -0.62592722E-07 -0.59879324E-07 -0.56872998E-07 -0.53595429E-07
 -0.50069460E-07 -0.46318947E-07 -0.42368612E-07 -0.38243886E-07 -0.33970762E-07
 -0.29575637E-07 -0.25085157E-07 -0.20526071E-07 -0.15925074E-07 -0.11308663E-07
 -0.67029904E-08 -0.21337263E-08  0.23740785E-08  0.67961207E-08  0.11108969E-07
  0.15290178E-07  0.19318401E-07  0.23173487E-07  0.26836578E-07  0.30290189E-07
  0.33518286E-07  0.36506352E-07  0.39241441E-07  0.41712231E-07  0.43909052E-07
  0.45823922E-07  0.47450560E-07  0.48784397E-07  0.49822569E-07  0.50563913E-07
  0.51008942E-07  0.51159816E-07  0.51020306E-07  0.50595745E-07  0.49892977E-07
  0.48920293E-07  0.47687362E-07  0.46205157E-07  0.44485871E-07  0.42542833E-07
  0.40390417E-07  0.38043939E-07  0.35519566E-07  0.32834207E-07  0.30005407E-07
  0.27051244E-07  0.23990216E-07  0.20841133E-07  0.17623008E-07  0.14354947E-07
  0.11056041E-07  0.77452625E-08  0.44413577E-08  0.11627487E-08 -0.20725654E-08
 -0.52471022E-08 -0.83439849E-08 -0.11347028E-07 -0.14240815E-07 -0.17010775E-07
 -0.19643250E-07 -0.22125556E-07 -0.24446040E-07 -0.26594130E-07 -0.28560376E-07
 -0.30336486E-07 -0.31915355E-07 -0.33291087E-07 -0.34459011E-07 -0.35415684E-07
 -0.36158897E-07 -0.36687667E-07 -0.37002221E-07 -0.37103983E-07 -0.36995542E-07
 -0.36680625E-07 -0.36164056E-07 -0.35451714E-07 -0.34550486E-07 -0.33468211E-07
 -0.32213624E-07 -0.30796296E-07 -0.29226562E-07 -0.27515461E-07 -0.25674657E-07
 -0.23716368E-07 -0.21653288E-07 -0.19498514E-07 -0.17265460E-07 -0.14967783E-07
 -0.12619304E-07 -0.10233922E-07 -0.78255440E-08 -0.54080014E-08 -0.29949766E-08
 -0.59992844E-09  0.17639795E-08  0.40839479E-08  0.63476078E-08  0.85430831E-08
  0.10659050E-07  0.12684790E-07  0.14610247E-07  0.16426064E-07  0.18123634E-07
  0.19695133E-07  0.21133554E-07  0.22432732E-07  0.23587367E-07  0.24593046E-07
  0.25446247E-07  0.26144352E-07  0.26685644E-07  0.27069310E-07  0.27295427E-07
  0.27364950E-07  0.27279698E-07  0.27042328E-07  0.26656307E-07  0.26125887E-07
  0.25456065E-07  0.24652548E-07  0.23721708E-07  0.22670540E-07  0.21506613E-07
  0.20238022E-07  0.18873331E-07  0.17421524E-07  0.15891944E-07  0.14294241E-07
  0.12638310E-07  0.10934234E-07  0.91922278E-08  0.74225734E-08  0.56355668E-08
  0.38414589E-08  0.20503986E-08  0.27237824E-09 -0.14828203E-08 -0.32056768E-08
 -0.48869823E-08 -0.65178864E-08 -0.80899412E-08 -0.95951429E-08 -0.11025971E-07
 -0.12375422E-07 -0.13637043E-07 -0.14804960E-07 -0.15873901E-07 -0.16839220E-07
 -0.17696911E-07 -0.18443626E-07 -0.19076680E-07 -0.19594059E-07 -0.19994424E-07
 -0.20277107E-07 -0.20442106E-07 -0.20490077E-07 -0.20422320E-07 -0.20240764E-07
 -0.19947950E-07 -0.19547003E-07 -0.19041614E-07 -0.18436004E-07 -0.17734901E-07
 -0.16943502E-07 -0.16067438E-07 -0.15112742E-07 -0.14085801E-07 -0.12993324E-07
 -0.11842297E-07 -0.10639940E-07 -0.93936647E-08 -0.81110292E-08 -0.67996963E-08
 -0.54673875E-08 -0.41218402E-08 -0.27707639E-08 -0.14217978E-08 -0.82469236E-10
  0.12398470E-08  0.25379676E-08  0.38049382E-08  0.50340692E-08  0.62189696E-08
  0.73535787E-08  0.84321956E-08  0.94495061E-08  0.10400608E-07  0.11281031E-07
  0.12086759E-07  0.12814244E-07  0.13460422E-07  0.14022722E-07  0.14499075E-07
  0.14887918E-07  0.15188197E-07  0.15399367E-07  0.15521387E-07  0.15554716E-07
  0.15500300E-07  0.15359564E-07  0.15134399E-07  0.14827140E-07  0.14440553E-07
  0.13977812E-07  0.13442474E-07  0.12838459E-07  0.12170018E-07  0.11441711E-07
  0.10658373E-07  0.98250838E-08  0.89471406E-08  0.80300218E-08  0.70793557E-08
  0.61008873E-08  0.51004445E-08  0.40839046E-08  0.30571611E-08  0.20260905E-08
  0.99652017E-09 -0.25804207E-10 -0.10352490E-08 -0.20263230E-08 -0.29937061E-08
 -0.39322765E-08 -0.48371375E-08 -0.57036413E-08 -0.65274122E-08 -0.73043674E-08
 -0.80307360E-08 -0.87030767E-08 -0.93182923E-08 -0.98736429E-08 -0.10366757E-07
 -0.10795640E-07 -0.11158679E-07 -0.11454652E-07 -0.11682724E-07 -0.11842450E-07
 -0.11933773E-07 -0.11957017E-07 -0.11912885E-07 -0.11802445E-07 -0.11627125E-07
 -0.11388695E-07 -0.11089258E-07 -0.10731232E-07 -0.10317332E-07 -0.98505524E-08
 -0.93341476E-08 -0.87716085E-08 -0.81666420E-08 -0.75231470E-08 -0.68451905E-08
 -0.61369831E-08 -0.54028534E-08 -0.46472228E-08 -0.38745795E-08 -0.30894529E-08
 -0.22963877E-08 -0.14999184E-08 -0.70454432E-09  0.85295252E-10  0.86524499E-09
  0.16310568E-08  0.23786123E-08  0.31039440E-08  0.38032559E-08  0.44729424E-08
  0.51096063E-08  0.57100751E-08  0.62714160E-08  0.67909495E-08  0.72662615E-08
 kinetic energy density (partial)
  0.12057744E+03  0.12053648E+03  0.12041368E+03  0.12020928E+03  0.11992370E+03
  0.11955749E+03  0.11911138E+03  0.11858625E+03  0.11798313E+03  0.11730322E+03
  0.11654782E+03  0.11571842E+03  0.11481663E+03  0.11384416E+03  0.11280290E+03
  0.11169482E+03  0.11052202E+03  0.10928669E+03  0.10799114E+03  0.10663775E+03
  0.10522901E+03  0.10376747E+03  0.10225575E+03  0.10069653E+03  0.99092562E+02
  0.97446620E+02  0.95761527E+02  0.94040134E+02  0.92285315E+02  0.90499956E+02
  0.88686952E+02  0.86849194E+02  0.84989565E+02  0.83110934E+02  0.81216145E+02
  0.79308015E+02  0.77389324E+02  0.75462807E+02  0.73531157E+02  0.71597008E+02
  0.69662937E+02  0.67731459E+02  0.65805017E+02  0.63885985E+02  0.61976658E+02
  0.60079250E+02  0.58195895E+02  0.56328638E+02  0.54479436E+02  0.52650156E+02
  0.50842571E+02  0.49058360E+02  0.47299109E+02  0.45566304E+02  0.43861337E+02
  0.42185504E+02  0.40540003E+02  0.38925935E+02  0.37344306E+02  0.35796029E+02
  0.34281922E+02  0.32802710E+02  0.31359030E+02  0.29951427E+02  0.28580363E+02
  0.27246212E+02  0.25949268E+02  0.24689744E+02  0.23467777E+02  0.22283428E+02
  0.21136687E+02  0.20027477E+02  0.18955652E+02  0.17921004E+02  0.16923268E+02
  0.15962119E+02  0.15037180E+02  0.14148023E+02  0.13294174E+02  0.12475114E+02
  0.11690283E+02  0.10939082E+02  0.10220881E+02  0.95350129E+01  0.88807860E+01
  0.82574807E+01  0.76643546E+01  0.71006449E+01  0.65655715E+01  0.60583387E+01
  0.55781388E+01  0.51241537E+01  0.46955577E+01  0.42915197E+01  0.39112053E+01
  0.35537789E+01  0.32184055E+01  0.29042531E+01  0.26104938E+01  0.23363059E+01
  0.20808753E+01  0.18433972E+01  0.16230771E+01  0.14191325E+01  0.12307938E+01
  0.10573055E+01  0.89792696E+00  0.75193382E+00  0.61861831E+00  0.49729023E+00
  0.38727750E+00  0.28792680E+00  0.19860398E+00  0.11869450E+00  0.47603772E-01
 -0.15242608E-01 -0.70398636E-01 -0.11839778E+00 -0.15975293E+00 -0.19495635E+00
 -0.22447974E+00 -0.24877435E+00 -0.26827112E+00 -0.28338082E+00 -0.29449438E+00
 -0.30198308E+00 -0.30619890E+00 -0.30747486E+00 -0.30612540E+00 -0.30244677E+00
 -0.29671749E+00 -0.28919877E+00 -0.28013500E+00 -0.26975425E+00 -0.25826876E+00
 -0.24587549E+00 -0.23275659E+00 -0.21908002E+00 -0.20500005E+00 -0.19065780E+00
 -0.17618182E+00 -0.16168866E+00 -0.14728339E+00 -0.13306015E+00 -0.11910274E+00
 -0.10548513E+00 -0.92271994E-01 -0.79519270E-01 -0.67274652E-01 -0.55578112E-01
 -0.44462401E-01 -0.33953535E-01 -0.24071271E-01 -0.14829573E-01 -0.62370576E-02
  0.17025690E-02  0.89900904E-02  0.15630376E-01  0.21631991E-01  0.27006822E-01
  0.31769721E-01  0.35938159E-01  0.39531907E-01  0.42572719E-01  0.45084046E-01
  0.47090752E-01  0.48618858E-01  0.49695294E-01  0.50347668E-01  0.50604053E-01
  0.50492789E-01  0.50042294E-01  0.49280898E-01  0.48236685E-01  0.46937347E-01
  0.45410063E-01  0.43681372E-01  0.41777078E-01  0.39722152E-01  0.37540654E-01
  0.35255660E-01  0.32889207E-01  0.30462238E-01  0.27994569E-01  0.25504850E-01
  0.23010547E-01  0.20527927E-01  0.18072049E-01  0.15656766E-01  0.13294726E-01
  0.10997391E-01  0.87750482E-02  0.66368351E-02  0.45907667E-02  0.26437657E-02
  0.80169750E-03 -0.93059185E-03 -0.25492350E-02 -0.40512999E-02 -0.54347445E-02
 -0.66983701E-02 -0.78417721E-02 -0.88652917E-02 -0.97699645E-02 -0.10557471E-01
 -0.11230085E-01 -0.11790625E-01 -0.12242398E-01 -0.12589159E-01 -0.12835053E-01
 -0.12984574E-01 -0.13042514E-01 -0.13013918E-01 -0.12904042E-01 -0.12718307E-01
 -0.12462264E-01 -0.12141549E-01 -0.11761849E-01 -0.11328866E-01 -0.10848286E-01
 -0.10325743E-01 -0.97667981E-02 -0.91769036E-02 -0.85613852E-02 -0.79254163E-02
 -0.72739984E-02 -0.66119427E-02 -0.59438538E-02 -0.52741155E-02 -0.46068788E-02
 -0.39460511E-02 -0.32952884E-02 -0.26579884E-02 -0.20372855E-02 -0.14360481E-02
 -0.85687681E-03 -0.30210421E-03  0.22620339E-03  0.72624336E-03  0.11964727E-02
  0.16356030E-02  0.20425938E-02  0.24166456E-02  0.27571916E-02  0.30638887E-02
  0.33366078E-02  0.35754233E-02  0.37806022E-02  0.39525930E-02  0.40920135E-02
  0.41996391E-02  0.42763901E-02  0.43233196E-02  0.43416007E-02  0.43325142E-02
  0.42974358E-02  0.42378239E-02  0.41552075E-02  0.40511737E-02  0.39273567E-02
  0.37854259E-02  0.36270749E-02  0.34540113E-02  0.32679460E-02  0.30705838E-02
  0.28636143E-02  0.26487027E-02  0.24274824E-02  0.22015468E-02  0.19724425E-02
  0.17416632E-02  0.15106431E-02  0.12807526E-02  0.10532929E-02  0.82949210E-03
  0.61050207E-03  0.39739509E-03  0.19116169E-03 -0.72911567E-05 -0.19714137E-03
 -0.37765248E-03 -0.54817391E-03 -0.70814078E-03 -0.85707322E-03 -0.99457533E-03
 -0.11203336E-02 -0.12341152E-02 -0.13357655E-02 -0.14252058E-02 -0.15024303E-02
 -0.15675031E-02 -0.16205547E-02 -0.16617785E-02 -0.16914273E-02 -0.17098089E-02
 -0.17172823E-02 -0.17142536E-02 -0.17011718E-02 -0.16785244E-02 -0.16468330E-02
 -0.16066493E-02 -0.15585504E-02 -0.15031350E-02 -0.14410189E-02 -0.13728307E-02
 -0.12992083E-02 -0.12207948E-02 -0.11382344E-02 -0.10521692E-02 -0.96323550E-03
 -0.87206066E-03 -0.77925983E-03 -0.68543314E-03 -0.59116293E-03 -0.49701122E-03
 -0.40351742E-03 -0.31119623E-03 -0.22053575E-03 -0.13199583E-03 -0.46006574E-04
  0.37032810E-04  0.11675509E-03  0.19282578E-03  0.26494377E-03  0.33284165E-03
  0.39628598E-03  0.45507727E-03  0.50904976E-03  0.55807111E-03  0.60204188E-03
  0.64089480E-03  0.67459399E-03  0.70313397E-03  0.72653856E-03  0.74485969E-03
  0.75817603E-03  0.76659162E-03  0.77023434E-03  0.76925436E-03  0.76382246E-03
  0.75412836E-03  0.74037901E-03  0.72279676E-03  0.70161768E-03  0.67708964E-03
  0.64947065E-03  0.61902695E-03  0.58603134E-03  0.55076141E-03  0.51349780E-03
  0.47452262E-03  0.43411778E-03  0.39256343E-03  0.35013654E-03  0.30710943E-03
  0.26374842E-03  0.22031261E-03  0.17705265E-03  0.13420968E-03  0.92014300E-04
  0.50685679E-04  0.10430711E-04 -0.28556700E-04 -0.66096276E-04 -0.10202190E-03
 -0.13618205E-03 -0.16844016E-03 -0.19867487E-03 -0.22678020E-03 -0.25266559E-03
 -0.27625593E-03 -0.29749145E-03 -0.31632753E-03 -0.33273448E-03 -0.34669719E-03
 -0.35821474E-03 -0.36729997E-03 -0.37397893E-03 -0.37829031E-03 -0.38028487E-03
 -0.38002469E-03 -0.37758254E-03 -0.37304108E-03 -0.36649214E-03 -0.35803586E-03
 -0.34777995E-03 -0.33583879E-03 -0.32233260E-03 -0.30738665E-03 -0.29113032E-03
 -0.27369634E-03 -0.25521990E-03 -0.23583786E-03 -0.21568791E-03 -0.19490781E-03
 -0.17363464E-03 -0.15200402E-03 -0.13014945E-03 -0.10820161E-03 -0.86287746E-04
 -0.64531056E-04 -0.43050144E-04 -0.21958497E-04 -0.13640215E-05  0.18631392E-04
  0.37932243E-04  0.56449763E-04  0.74102198E-04  0.90815055E-04  0.10652130E-03
  0.12116148E-03  0.13468389E-03  0.14704455E-03  0.15820728E-03  0.16814364E-03
  0.17683288E-03  0.18426181E-03  0.19042467E-03  0.19532295E-03  0.19896513E-03
  0.20136649E-03  0.20254880E-03  0.20254000E-03  0.20137390E-03  0.19908980E-03
  0.19573214E-03  0.19135008E-03  0.18599713E-03  0.17973070E-03  0.17261168E-03
  0.16470403E-03  0.15607430E-03  0.14679124E-03  0.13692532E-03  0.12654829E-03
  0.11573280E-03  0.10455191E-03  0.93078724E-04  0.81385953E-04  0.69545546E-04
  0.57628306E-04  0.45703531E-04  0.33838675E-04  0.22099024E-04  0.10547397E-04
 -0.75613318E-06 -0.11754500E-04 -0.22393872E-04 -0.32623868E-04 -0.42397735E-04
 -0.51672515E-04 -0.60409177E-04 -0.68572730E-04 -0.76132304E-04 -0.83061214E-04
 -0.89336996E-04 -0.94941419E-04 -0.99860471E-04 -0.10408433E-03 -0.10760730E-03
 -0.11042776E-03 -0.11254801E-03 -0.11397422E-03 -0.11471627E-03 -0.11478758E-03
 -0.11420496E-03 -0.11298845E-03 -0.11116109E-03 -0.10874874E-03 -0.10577985E-03
 -0.10228525E-03 -0.98297917E-04 -0.93852726E-04 -0.88986224E-04 -0.83736377E-04
 -0.78142330E-04 -0.72244157E-04 -0.66082622E-04 -0.59698930E-04 -0.53134495E-04
 -0.46430702E-04 -0.39628682E-04 -0.32769090E-04 -0.25891894E-04 -0.19036171E-04
 -0.12239914E-04 -0.55398474E-05  0.10287412E-05  0.74321625E-05  0.13638471E-04
  0.19617599E-04  0.25341476E-04  0.30784134E-04  0.35921803E-04  0.40732983E-04
  0.45198513E-04  0.49301617E-04  0.53027939E-04  0.56365565E-04  0.59305029E-04
  0.61839309E-04  0.63963802E-04  0.65676298E-04  0.66976930E-04  0.67868119E-04
  0.68354508E-04  0.68442883E-04  0.68142082E-04  0.67462904E-04  0.66417997E-04
  0.65021746E-04  0.63290159E-04  0.61240732E-04  0.58892323E-04  0.56265015E-04
  0.53379979E-04  0.50259326E-04  0.46925969E-04  0.43403478E-04  0.39715930E-04
  0.35887769E-04  0.31943661E-04  0.27908355E-04  0.23806540E-04  0.19662714E-04
  0.15501053E-04  0.11345283E-04  0.72185626E-05  0.31433633E-05 -0.85863458E-06
 -0.47666456E-05 -0.85608733E-05 -0.12222597E-04 -0.15734253E-04 -0.19079500E-04
 -0.22243289E-04 -0.25211914E-04 -0.27973057E-04 -0.30515825E-04 -0.32830782E-04
 -0.34909965E-04 -0.36746898E-04 -0.38336592E-04 -0.39675544E-04 -0.40761719E-04
 -0.41594534E-04 -0.42174825E-04 -0.42504814E-04 -0.42588067E-04 -0.42429442E-04
 -0.42035039E-04 -0.41412135E-04 -0.40569119E-04 -0.39515427E-04 -0.38261458E-04
 -0.36818507E-04 -0.35198672E-04 -0.33414781E-04 -0.31480297E-04 -0.29409235E-04
 -0.27216071E-04 -0.24915655E-04 -0.22523115E-04 -0.20053775E-04 -0.17523063E-04
 -0.14946422E-04 -0.12339227E-04 -0.97167015E-05 -0.70938342E-05 -0.44853043E-05
 -0.19054055E-05  0.63202521E-06  0.31136735E-05  0.55268109E-05  0.78593527E-05
  0.10099911E-04  0.12237845E-04  0.14263301E-04  0.16167252E-04  0.17941534E-04
  0.19578867E-04  0.21072882E-04  0.22418136E-04  0.23610122E-04  0.24645278E-04
  0.25520983E-04  0.26235557E-04  0.26788246E-04  0.27179214E-04  0.27409518E-04
  0.27481086E-04  0.27396689E-04  0.27159912E-04  0.26775109E-04  0.26247375E-04
  0.25582495E-04  0.24786900E-04  0.23867620E-04  0.22832235E-04  0.21688817E-04
  0.20445881E-04  0.19112325E-04  0.17697377E-04  0.16210534E-04  0.14661510E-04
  0.13060170E-04  0.11416480E-04  0.97404455E-05  0.80420569E-05  0.63312353E-05
  0.46177783E-05  0.29113085E-05  0.12212236E-05 -0.44335065E-06 -0.20736062E-05
 -0.36610949E-05 -0.51977679E-05 -0.66760131E-05 -0.80886883E-05 -0.94291517E-05
 -0.10691289E-04 -0.11869538E-04 -0.12958907E-04 -0.13954993E-04 -0.14853993E-04
 -0.15652718E-04 -0.16348594E-04 -0.16939665E-04 -0.17424598E-04 -0.17802670E-04
 -0.18073767E-04 -0.18238372E-04 -0.18297549E-04 -0.18252927E-04 -0.18106683E-04
 -0.17861516E-04 -0.17520624E-04 -0.17087680E-04 -0.16566797E-04 -0.15962502E-04
 -0.15279702E-04 -0.14523648E-04 -0.13699902E-04 -0.12814302E-04 -0.11872918E-04
 -0.10882024E-04 -0.98480493E-05 -0.87775493E-05 -0.76771608E-05 -0.65535667E-05
 -0.54134574E-05 -0.42634938E-05 -0.31102714E-05 -0.19602844E-05 -0.81989249E-06
  0.30471269E-06  0.14075381E-05  0.24828192E-05  0.35250474E-05  0.45289961E-05
  0.54897446E-05  0.64026997E-05  0.72636149E-05  0.80686085E-05  0.88141777E-05
  0.94972118E-05  0.10115002E-04  0.10665250E-04  0.11146073E-04  0.11556006E-04
  0.11894003E-04  0.12159438E-04  0.12352096E-04  0.12472171E-04  0.12520258E-04
  0.12497338E-04  0.12404771E-04  0.12244282E-04  0.12017940E-04  0.11728144E-04
  0.11377606E-04  0.10969327E-04  0.10506576E-04  0.99928705E-05  0.94319482E-05
  0.88277458E-05  0.81843728E-05  0.75060856E-05  0.67972621E-05  0.60623749E-05
  0.53059650E-05  0.45326161E-05  0.37469277E-05  0.29534902E-05  0.21568591E-05
  0.13615310E-05  0.57191906E-06 -0.20766937E-06 -0.97305512E-06 -0.17202080E-05
 -0.24452667E-05 -0.31445570E-05 -0.38146093E-05 -0.44521742E-05 -0.50542367E-05
 -0.56180292E-05 -0.61410425E-05 -0.66210352E-05 -0.70560422E-05 -0.74443803E-05
 -0.77846533E-05 -0.80757550E-05 -0.83168701E-05 -0.85074744E-05 -0.86473327E-05
 -0.87364951E-05 -0.87752927E-05 -0.87643306E-05 -0.87044801E-05 -0.85968698E-05
 -0.84428753E-05 -0.82441071E-05 -0.80023980E-05 -0.77197898E-05 -0.73985180E-05
 -0.70409970E-05 -0.66498031E-05 -0.62276583E-05 -0.57774124E-05 -0.53020257E-05
 -0.48045505E-05 -0.42881126E-05 -0.37558935E-05 -0.32111113E-05 -0.26570024E-05
 -0.20968036E-05 -0.15337342E-05 -0.97097799E-06 -0.41166683E-06  0.14113624E-06
  0.68445271E-06  0.12154037E-05  0.17312245E-05  0.22292777E-05  0.27070660E-05
  0.31622441E-05  0.35926285E-05  0.39962078E-05  0.43711508E-05  0.47158139E-05
  0.50287470E-05  0.53086989E-05  0.55546210E-05  0.57656696E-05  0.59412079E-05
  0.60808061E-05  0.61842404E-05  0.62514913E-05  0.62827405E-05  0.62783668E-05
  0.62389409E-05  0.61652192E-05  0.60581371E-05  0.59188008E-05  0.57484787E-05
  0.55485918E-05  0.53207036E-05  0.50665094E-05  0.47878246E-05  0.44865730E-05
  0.41647747E-05  0.38245331E-05  0.34680224E-05  0.30974742E-05  0.27151644E-05
  0.23234000E-05  0.19245057E-05  0.15208111E-05  0.11146372E-05  0.70828448E-06
  0.30401964E-06 -0.95935878E-07 -0.48941769E-06 -0.87432959E-06 -0.12486541E-05
 -0.16104625E-05 -0.19579240E-05 -0.22893149E-05 -0.26030258E-05 -0.28975696E-05
 -0.31715872E-05 -0.34238538E-05 -0.36532831E-05 -0.38589317E-05 -0.40400021E-05
 -0.41958447E-05 -0.43259598E-05 -0.44299976E-05 -0.45077582E-05 -0.45591907E-05
 -0.45843909E-05 -0.45835989E-05 -0.45571958E-05 -0.45056991E-05 -0.44297583E-05
 -0.43301492E-05 -0.42077678E-05 -0.40636237E-05 -0.38988327E-05 -0.37146092E-05
 -0.35122581E-05 -0.32931662E-05 -0.30587934E-05 -0.28106636E-05 -0.25503553E-05
 -0.22794921E-05 -0.19997330E-05 -0.17127630E-05 -0.14202829E-05 -0.11240002E-05
 -0.82561913E-06 -0.52683166E-06 -0.22930795E-06  0.65312410E-07  0.35542905E-06
  0.63948916E-06  0.91599537E-06  0.11835133E-05  0.14406786E-05  0.16862035E-05
  0.19188830E-05  0.21376000E-05  0.23413307E-05  0.25291489E-05  0.27002294E-05
  0.28538516E-05  0.29894017E-05  0.31063748E-05  0.32043763E-05  0.32831223E-05
  0.33424396E-05  0.33822655E-05  0.34026463E-05  0.34037357E-05  0.33857923E-05
  0.33491769E-05  0.32943491E-05  0.32218633E-05  0.31323643E-05  0.30265827E-05
  0.29053295E-05  0.27694905E-05  0.26200205E-05  0.24579372E-05  0.22843142E-05
  0.21002748E-05  0.19069851E-05  0.17056464E-05  0.14974889E-05  0.12837638E-05
  0.10657366E-05  0.84467934E-06  0.62186408E-06  0.39855545E-06  0.17600389E-06
 -0.44561103E-07 -0.26193750E-06 -0.47495704E-06 -0.68249125E-06 -0.88345713E-06
 -0.10768226E-05 -0.12616114E-05 -0.14369081E-05 -0.16018618E-05 -0.17556907E-05
 -0.18976846E-05 -0.20272090E-05 -0.21437066E-05 -0.22466999E-05 -0.23357928E-05
 -0.24106715E-05 -0.24711052E-05 -0.25169466E-05 -0.25481311E-05 -0.25646766E-05
 -0.25666818E-05 -0.25543251E-05 -0.25278622E-05 -0.24876240E-05 -0.24340134E-05
 -0.23675024E-05 -0.22886287E-05 -0.21979914E-05 -0.20962475E-05 -0.19841070E-05
 -0.18623284E-05 -0.17317143E-05 -0.15931058E-05 -0.14473775E-05 -0.12954325E-05
 -0.11381967E-05 -0.97661375E-06 -0.81163909E-06 -0.64423495E-06 -0.47536471E-06
 -0.30598762E-06 -0.13705352E-06  0.30502295E-07  0.19576407E-06  0.35784044E-06
  0.51586901E-06  0.66902080E-06  0.81650443E-06  0.95756998E-06  0.10915127E-05
  0.12176761E-05  0.13354555E-05  0.14443002E-05  0.15437160E-05  0.16332673E-05
  0.17125789E-05  0.17813372E-05  0.18392908E-05  0.18862518E-05  0.19220957E-05
  0.19467612E-05  0.19602498E-05  0.19626252E-05  0.19540120E-05  0.19345944E-05
  0.19046142E-05  0.18643689E-05  0.18142095E-05  0.17545376E-05  0.16858026E-05
  0.16084991E-05  0.15231628E-05  0.14303676E-05  0.13307219E-05  0.12248647E-05
  0.11134614E-05  0.99720035E-06  0.87678844E-06  0.75294691E-06  0.62640733E-06
  0.49790731E-06  0.36818639E-06  0.23798193E-06  0.10802500E-06 -0.20963558E-07
 -0.14827701E-06 -0.27322647E-06 -0.39514453E-06 -0.51338866E-06 -0.62734451E-06
 -0.73642893E-06 -0.84009288E-06 -0.93782400E-06 -0.10291491E-05 -0.11136362E-05
 -0.11908964E-05 -0.12605860E-05 -0.13224069E-05 -0.13761087E-05 -0.14214890E-05
 -0.14583940E-05 -0.14867188E-05 -0.15064075E-05 -0.15174529E-05 -0.15198957E-05
 -0.15138242E-05 -0.14993727E-05 -0.14767207E-05 -0.14460911E-05 -0.14077484E-05
 -0.13619969E-05 -0.13091785E-05 -0.12496705E-05 -0.11838827E-05 -0.11122550E-05
 -0.10352549E-05 -0.95337400E-06 -0.86712535E-06 -0.77704033E-06 -0.68366542E-06
 -0.58755900E-06 -0.48928816E-06 -0.38942542E-06 -0.28854548E-06 -0.18722206E-06
 -0.86024674E-07  0.14484442E-07  0.11375338E-06  0.21124351E-06  0.30643227E-06
  0.39881594E-06  0.48791218E-06  0.57326246E-06  0.65443434E-06  0.73102357E-06
 atomic pseudo charge-density
  0.16000000E+02  0.15986716E+02  0.15947066E+02  0.15881654E+02  0.15791450E+02
  0.15677748E+02  0.15542108E+02  0.15386288E+02  0.15212178E+02  0.15021731E+02
  0.14816907E+02  0.14599614E+02  0.14371673E+02  0.14134784E+02  0.13890504E+02
  0.13640240E+02  0.13385242E+02  0.13126608E+02  0.12865293E+02  0.12602118E+02
  0.12337784E+02  0.12072888E+02  0.11807932E+02  0.11543342E+02  0.11279476E+02
  0.11016636E+02  0.10755081E+02  0.10495031E+02  0.10236677E+02  0.99801836E+01
  0.97256996E+01  0.94733572E+01  0.92232768E+01  0.89755697E+01  0.87303400E+01
  0.84876860E+01  0.82477012E+01  0.80104753E+01  0.77760951E+01  0.75446441E+01
  0.73162033E+01  0.70908513E+01  0.68686639E+01  0.66497146E+01  0.64340740E+01
  0.62218099E+01  0.60129871E+01  0.58076674E+01  0.56059091E+01  0.54077671E+01
  0.52132926E+01  0.50225332E+01  0.48355325E+01  0.46523299E+01  0.44729611E+01
  0.42974572E+01  0.41258455E+01  0.39581486E+01  0.37943853E+01  0.36345697E+01
  0.34787118E+01  0.33268175E+01  0.31788882E+01  0.30349214E+01  0.28949104E+01
  0.27588447E+01  0.26267095E+01  0.24984865E+01  0.23741536E+01  0.22536851E+01
  0.21370517E+01  0.20242207E+01  0.19151563E+01  0.18098195E+01  0.17081682E+01
  0.16101574E+01  0.15157395E+01  0.14248642E+01  0.13374786E+01  0.12535278E+01
  0.11729543E+01  0.10956987E+01  0.10216996E+01  0.95089403E+00  0.88321705E+00
  0.81860233E+00  0.75698213E+00  0.69828745E+00  0.64244814E+00  0.58939306E+00
  0.53905018E+00  0.49134673E+00  0.44620931E+00  0.40356402E+00  0.36333657E+00
  0.32545240E+00  0.28983682E+00  0.25641507E+00  0.22511248E+00  0.19585457E+00
  0.16856711E+00  0.14317629E+00  0.11960874E+00  0.97791708E-01  0.77653081E-01
  0.59121515E-01  0.42126504E-01  0.26598466E-01  0.12468815E-01 -0.32995659E-03
 -0.11864215E-01 -0.22199113E-01 -0.31398533E-01 -0.39525021E-01 -0.46639739E-01
 -0.52802407E-01 -0.58071261E-01 -0.62503009E-01 -0.66152787E-01 -0.69074132E-01
 -0.71318941E-01 -0.72937453E-01 -0.73978219E-01 -0.74488083E-01 -0.74512173E-01
 -0.74093877E-01 -0.73274848E-01 -0.72094989E-01 -0.70592458E-01 -0.68803670E-01
 -0.66763299E-01 -0.64504294E-01 -0.62057889E-01 -0.59453615E-01 -0.56719325E-01
 -0.53881216E-01 -0.50963847E-01 -0.47990175E-01 -0.44981581E-01 -0.41957901E-01
 -0.38937465E-01 -0.35937133E-01 -0.32972331E-01 -0.30057097E-01 -0.27204119E-01
 -0.24424782E-01 -0.21729215E-01 -0.19126333E-01 -0.16623891E-01 -0.14228528E-01
 -0.11945821E-01 -0.97803320E-02 -0.77356603E-02 -0.58144940E-02 -0.40186610E-02
 -0.23491803E-02 -0.80631334E-03  0.61038493E-03  0.19020155E-02  0.30702851E-02
  0.41174569E-02  0.50463021E-02  0.58600515E-02  0.65623495E-02  0.71572080E-02
  0.76489620E-02  0.80422270E-02  0.83418565E-02  0.85529022E-02  0.86805752E-02
  0.87302089E-02  0.87072232E-02  0.86170913E-02  0.84653071E-02  0.82573555E-02
  0.79986834E-02  0.76946738E-02  0.73506204E-02  0.69717052E-02  0.65629772E-02
  0.61293332E-02  0.56755010E-02  0.52060229E-02  0.47252431E-02  0.42372947E-02
  0.37460901E-02  0.32553125E-02  0.27684083E-02  0.22885825E-02  0.18187947E-02
  0.13617565E-02  0.91993069E-03  0.49553203E-03  0.90528459E-04 -0.29335572E-03
 -0.65463591E-03 -0.99206209E-03 -0.13046128E-02 -0.15914880E-02 -0.18521016E-02
 -0.20860726E-02 -0.22932162E-02 -0.24735336E-02 -0.26272022E-02 -0.27545645E-02
 -0.28561170E-02 -0.29324993E-02 -0.29844818E-02 -0.30129546E-02 -0.30189154E-02
 -0.30034577E-02 -0.29677592E-02 -0.29130699E-02 -0.28407009E-02 -0.27520129E-02
 -0.26484055E-02 -0.25313064E-02 -0.24021609E-02 -0.22624224E-02 -0.21135427E-02
 -0.19569628E-02 -0.17941051E-02 -0.16263644E-02 -0.14551016E-02 -0.12816357E-02
 -0.11072384E-02 -0.93312785E-03 -0.76046358E-03 -0.59034206E-03 -0.42379267E-03
 -0.26177431E-03 -0.10517257E-03  0.45202472E-04  0.18861796E-03  0.32441938E-03
  0.45203121E-03  0.57095697E-03  0.68077891E-03  0.78115714E-03  0.87182838E-03
  0.95260422E-03  0.10233691E-02  0.10840780E-02  0.11347533E-02  0.11754822E-02
  0.12064132E-02  0.12277525E-02  0.12397602E-02  0.12427466E-02  0.12370680E-02
  0.12231223E-02  0.12013453E-02  0.11722056E-02  0.11362008E-02  0.10938532E-02
  0.10457049E-02  0.99231419E-03  0.93425078E-03  0.87209210E-03  0.80641912E-03
  0.73781254E-03  0.66684904E-03  0.59409785E-03  0.52011730E-03  0.44545176E-03
  0.37062867E-03  0.29615581E-03  0.22251886E-03  0.15017911E-03  0.79571477E-04
  0.11102716E-04 -0.54850099E-04 -0.11794086E-03 -0.17785544E-03 -0.23431254E-03
 -0.28706419E-03 -0.33589613E-03 -0.38062791E-03 -0.42111273E-03 -0.45723722E-03
 -0.48892081E-03 -0.51611514E-03 -0.53880308E-03 -0.55699778E-03 -0.57074139E-03
 -0.58010377E-03 -0.58518103E-03 -0.58609393E-03 -0.58298623E-03 -0.57602291E-03
 -0.56538838E-03 -0.55128453E-03 -0.53392887E-03 -0.51355251E-03 -0.49039823E-03
 -0.46471847E-03 -0.43677338E-03 -0.40682884E-03 -0.37515457E-03 -0.34202224E-03
 -0.30770364E-03 -0.27246895E-03 -0.23658502E-03 -0.20031374E-03 -0.16391060E-03
 -0.12762316E-03 -0.91689788E-04 -0.56338408E-04 -0.21785383E-04  0.11765488E-04
  0.44123866E-04  0.75113649E-04  0.10457363E-03  0.13235804E-03  0.15833698E-03
  0.18239673E-03  0.20443994E-03  0.22438573E-03  0.24216966E-03  0.25774360E-03
  0.27107552E-03  0.28214918E-03  0.29096368E-03  0.29753300E-03  0.30188540E-03
  0.30406281E-03  0.30412010E-03  0.30212428E-03  0.29815372E-03  0.29229727E-03
  0.28465332E-03  0.27532889E-03  0.26443865E-03  0.25210395E-03  0.23845180E-03
  0.22361389E-03  0.20772557E-03  0.19092490E-03  0.17335161E-03  0.15514620E-03
  0.13644897E-03  0.11739914E-03  0.98133961E-04  0.78787919E-04  0.59491914E-04
  0.40372544E-04  0.21551408E-04  0.31444760E-05 -0.14738494E-04 -0.31994477E-04
 -0.48527646E-04 -0.64249773E-04 -0.79080574E-04 -0.92947991E-04 -0.10578841E-03
 -0.11754683E-03 -0.12817695E-03 -0.13764122E-03 -0.14591082E-03 -0.15296561E-03
 -0.15879396E-03 -0.16339263E-03 -0.16676651E-03 -0.16892837E-03 -0.16989853E-03
 -0.16970454E-03 -0.16838075E-03 -0.16596795E-03 -0.16251287E-03 -0.15806772E-03
 -0.15268971E-03 -0.14644056E-03 -0.13938590E-03 -0.13159480E-03 -0.12313922E-03
 -0.11409343E-03 -0.10453351E-03 -0.94536752E-04 -0.84181190E-04 -0.73545031E-04
 -0.62706161E-04 -0.51741653E-04 -0.40727284E-04 -0.29737090E-04 -0.18842930E-04
 -0.81140843E-05  0.23831227E-05  0.12585669E-04  0.22434155E-04  0.31873084E-04
  0.40851118E-04  0.49321297E-04  0.57241224E-04  0.64573216E-04  0.71284420E-04
  0.77346898E-04  0.82737677E-04  0.87438765E-04  0.91437136E-04  0.94724682E-04
  0.97298137E-04  0.99158974E-04  0.10031327E-03  0.10077154E-03  0.10054857E-03
  0.99663190E-04  0.98138080E-04  0.95999489E-04  0.93276998E-04  0.90003235E-04
  0.86213590E-04  0.81945919E-04  0.77240232E-04  0.72138387E-04  0.66683769E-04
  0.60920975E-04  0.54895498E-04  0.48653407E-04  0.42241042E-04  0.35704704E-04
  0.29090360E-04  0.22443356E-04  0.15808141E-04  0.92280003E-05  0.27448072E-05
 -0.36012115E-05 -0.97716953E-05 -0.15730351E-04 -0.21443136E-04 -0.26878423E-04
 -0.32007147E-04 -0.36802928E-04 -0.41242179E-04 -0.45304189E-04 -0.48971190E-04
 -0.52228400E-04 -0.55064048E-04 -0.57469379E-04 -0.59438637E-04 -0.60969037E-04
 -0.62060708E-04 -0.62716628E-04 -0.62942536E-04 -0.62746832E-04 -0.62140465E-04
 -0.61136796E-04 -0.59751464E-04 -0.58002231E-04 -0.55908818E-04 -0.53492733E-04
 -0.50777095E-04 -0.47786447E-04 -0.44546566E-04 -0.41084268E-04 -0.37427215E-04
 -0.33603716E-04 -0.29642532E-04 -0.25572678E-04 -0.21423234E-04 -0.17223154E-04
 -0.13001084E-04 -0.87851819E-05 -0.46029508E-05 -0.48107300E-06  0.35547428E-05
  0.74799056E-05  0.11271077E-04  0.14906292E-04  0.18365076E-04  0.21628538E-04
  0.24679464E-04  0.27502389E-04  0.30083658E-04  0.32411481E-04  0.34475964E-04
  0.36269133E-04  0.37784951E-04  0.39019306E-04  0.39970008E-04  0.40636754E-04
  0.41021095E-04  0.41126389E-04  0.40957735E-04  0.40521914E-04  0.39827300E-04
  0.38883783E-04  0.37702665E-04  0.36296566E-04  0.34679310E-04  0.32865815E-04
  0.30871971E-04  0.28714521E-04  0.26410933E-04  0.23979276E-04  0.21438086E-04
  0.18806242E-04  0.16102834E-04  0.13347037E-04  0.10557985E-04  0.77546457E-05
  0.49557060E-05  0.21794528E-05 -0.55633598E-06 -0.32344967E-05 -0.58385787E-05
 -0.83529372E-05 -0.10762818E-04 -0.13054438E-04 -0.15215052E-04 -0.17233019E-04
 -0.19097851E-04 -0.20800265E-04 -0.22332217E-04 -0.23686928E-04 -0.24858909E-04
 -0.25843967E-04 -0.26639209E-04 -0.27243040E-04 -0.27655142E-04 -0.27876456E-04
 -0.27909152E-04 -0.27756591E-04 -0.27423281E-04 -0.26914826E-04 -0.26237870E-04
 -0.25400034E-04 -0.24409845E-04 -0.23276671E-04 -0.22010639E-04 -0.20622555E-04
 -0.19123825E-04 -0.17526366E-04 -0.15842522E-04 -0.14084974E-04 -0.12266651E-04
 -0.10400643E-04 -0.85001136E-05 -0.65782095E-05 -0.46479783E-05 -0.27222843E-05
 -0.81372780E-06  0.10654315E-05  0.29033488E-05  0.46886638E-05  0.64105657E-05
  0.80588543E-05  0.96239952E-05  0.11097170E-04  0.12470322E-04  0.13736193E-04
  0.14888360E-04  0.15921259E-04  0.16830206E-04  0.17611417E-04  0.18262009E-04
  0.18780010E-04  0.19164352E-04  0.19414864E-04  0.19532255E-04  0.19518098E-04
  0.19374800E-04  0.19105575E-04  0.18714407E-04  0.18206013E-04  0.17585797E-04
  0.16859804E-04  0.16034668E-04  0.15117562E-04  0.14116137E-04  0.13038467E-04
  0.11892988E-04  0.10688436E-04  0.94337860E-05  0.81381874E-05  0.68109023E-05
  0.54612430E-05  0.40985093E-05  0.27319285E-05  0.13705957E-05  0.23416797E-07
 -0.13009469E-05 -0.25941314E-05 -0.38481195E-05 -0.50552878E-05 -0.62084502E-05
 -0.73008973E-05 -0.83264326E-05 -0.92794046E-05 -0.10154735E-04 -0.10947941E-04
 -0.11655158E-04 -0.12273151E-04 -0.12799327E-04 -0.13231741E-04 -0.13569101E-04
 -0.13810758E-04 -0.13956710E-04 -0.14007582E-04 -0.13964616E-04 -0.13829653E-04
 -0.13605110E-04 -0.13293954E-04 -0.12899674E-04 -0.12426250E-04 -0.11878119E-04
 -0.11260137E-04 -0.10577539E-04 -0.98359046E-05 -0.90411078E-05 -0.81992786E-05
 -0.73167569E-05 -0.64000476E-05 -0.54557748E-05 -0.44906370E-05 -0.35113610E-05
 -0.25246579E-05 -0.15371789E-05 -0.55547233E-06  0.41405733E-06  0.13651896E-05
  0.22919260E-05  0.31885256E-05  0.40495388E-05  0.48698389E-05  0.56446500E-05
  0.63695733E-05  0.70406096E-05  0.76541796E-05  0.82071405E-05  0.86967999E-05
  0.91209260E-05  0.94777553E-05  0.97659966E-05  0.99848317E-05  0.10133914E-04
  0.10213362E-04  0.10223754E-04  0.10166111E-04  0.10041891E-04  0.98529667E-05
  0.96016077E-05  0.92904608E-05  0.89225253E-05  0.85011282E-05  0.80298971E-05
  0.75127314E-05  0.69537725E-05  0.63573727E-05  0.57280633E-05  0.50705219E-05
  0.43895392E-05  0.36899859E-05  0.29767794E-05  0.22548505E-05  0.15291108E-05
  0.80442077E-06  0.85558527E-07 -0.62281041E-06 -0.13161620E-05 -0.19901413E-05
 -0.26405884E-05 -0.32635631E-05 -0.38553668E-05 -0.44125638E-05 -0.49319995E-05
 -0.54108168E-05 -0.58464702E-05 -0.62367382E-05 -0.65797324E-05 -0.68739052E-05
 -0.71180544E-05 -0.73113261E-05 -0.74532148E-05 -0.75435616E-05 -0.75825495E-05
 -0.75706975E-05 -0.75088519E-05 -0.73981753E-05 -0.72401350E-05 -0.70364878E-05
 -0.67892648E-05 -0.65007534E-05 -0.61734785E-05 -0.58101826E-05 -0.54138040E-05
 -0.49874550E-05 -0.45343984E-05 -0.40580242E-05 -0.35618251E-05 -0.30493721E-05
 -0.25242902E-05 -0.19902331E-05 -0.14508594E-05 -0.90980822E-06 -0.37067569E-06
  0.16300810E-06  0.68780123E-06  0.12003712E-05  0.16975153E-05  0.21761794E-05
  0.26334762E-05  0.30667015E-05  0.34733490E-05  0.38511243E-05  0.41979563E-05
  0.45120079E-05  0.47916843E-05  0.50356403E-05  0.52427849E-05  0.54122851E-05
  0.55435675E-05  0.56363181E-05  0.56904811E-05  0.57062546E-05  0.56840864E-05
  0.56246670E-05  0.55289219E-05  0.53980015E-05  0.52332712E-05  0.50362984E-05
  0.48088401E-05  0.45528282E-05  0.42703544E-05  0.39636543E-05  0.36350909E-05
  0.32871367E-05  0.29223566E-05  0.25433893E-05  0.21529295E-05  0.17537089E-05
  0.13484781E-05  0.93998859E-06  0.53097417E-06  0.12413375E-06 -0.27788594E-06
 -0.67250688E-06 -0.10572357E-05 -0.14296787E-05 -0.17875563E-05 -0.21287160E-05
 -0.24511448E-05 -0.27529808E-05 -0.30325226E-05 -0.32882384E-05 -0.35187741E-05
 -0.37229590E-05 -0.38998112E-05 -0.40485417E-05 -0.41685563E-05 -0.42594571E-05
 -0.43210426E-05 -0.43533059E-05 -0.43564323E-05 -0.43307954E-05 -0.42769523E-05
 -0.41956369E-05 -0.40877536E-05 -0.39543680E-05 -0.37966987E-05 -0.36161068E-05
 -0.34140851E-05 -0.31922466E-05 -0.29523127E-05 -0.26961000E-05 -0.24255075E-05
 -0.21425030E-05 -0.18491094E-05 -0.15473907E-05 -0.12394381E-05 -0.92735578E-06
 -0.61324737E-06 -0.29920192E-06  0.12719388E-07  0.32049633E-06  0.62216227E-06
  0.91581629E-06  0.11996347E-05  0.14718819E-05  0.17309206E-05  0.19752212E-05
  0.22033703E-05  0.24140784E-05  0.26061867E-05  0.27786732E-05  0.29306571E-05
  0.30614033E-05  0.31703248E-05  0.32569850E-05  0.33210983E-05  0.33625306E-05
  0.33812973E-05  0.33775623E-05  0.33516343E-05  0.33039635E-05  0.32351364E-05
  0.31458706E-05  0.30370084E-05  0.29095096E-05  0.27644440E-05  0.26029827E-05
  0.24263898E-05  0.22360122E-05  0.20332707E-05  0.18196490E-05  0.15966837E-05
  0.13659536E-05  0.11290688E-05  0.88765991E-06  0.64336702E-06  0.39782904E-06
  0.15267297E-06 -0.90496550E-07 -0.33010744E-06 -0.56462999E-06 -0.79258640E-06
 -0.10125597E-05 -0.12232023E-05 -0.14232439E-05 -0.16114989E-05 -0.17868732E-05
 -0.19483700E-05 -0.20950952E-05 -0.22262623E-05 -0.23411959E-05 -0.24393349E-05
 -0.25202348E-05 -0.25835693E-05 -0.26291310E-05 -0.26568312E-05 -0.26666993E-05
 -0.26588811E-05 -0.26336366E-05 -0.25913366E-05 -0.25324597E-05 -0.24575871E-05
 -0.23673981E-05 -0.22626646E-05 -0.21442446E-05 -0.20130758E-05 -0.18701688E-05
 -0.17165991E-05 -0.15535000E-05 -0.13820538E-05 -0.12034843E-05 -0.10190475E-05
 -0.83002384E-06 -0.63770891E-06 -0.44340516E-06 -0.24841317E-06 -0.54023208E-07
  0.13849308E-06  0.32789079E-06  0.51295962E-06  0.69253137E-06  0.86548710E-06
  0.10307639E-05  0.11873614E-05  0.13343472E-05  0.14708626E-05  0.15961273E-05
  0.17094435E-05  0.18101997E-05  0.18978738E-05  0.19720353E-05  0.20323473E-05
  0.20785675E-05  0.21105490E-05  0.21282400E-05  0.21316833E-05  0.21210146E-05
  0.20964610E-05  0.20583384E-05  0.20070483E-05  0.19430742E-05  0.18669781E-05
  0.17793952E-05  0.16810294E-05  0.15726477E-05  0.14550747E-05  0.13291865E-05
  0.11959043E-05  0.10561879E-05  0.91102889E-06  0.76144418E-06  0.60846859E-06
  0.45314807E-06  0.29653273E-06  0.13966980E-06 -0.16403126E-07 -0.17066487E-06
 -0.32211718E-06 -0.46979105E-06 -0.61275279E-06 -0.75010978E-06 -0.88101589E-06
 -0.10046766E-05 -0.11203536E-05 -0.12273691E-05 -0.13251097E-05 -0.14130296E-05
 -0.14906537E-05 -0.15575797E-05 -0.16134802E-05 -0.16581040E-05 -0.16912769E-05
 -0.17129021E-05 -0.17229600E-05 -0.17215075E-05 -0.17086769E-05 -0.16846741E-05
 -0.16497766E-05 -0.16043308E-05 -0.15487491E-05 -0.14835066E-05 -0.14091370E-05
 -0.13262285E-05 -0.12354198E-05 -0.11373949E-05 -0.10328783E-05 -0.92262963E-06
 -0.80743858E-06 -0.68811914E-06 -0.56550404E-06 -0.44043906E-06 -0.31377732E-06
 -0.18637358E-06 -0.59078540E-07  0.67266671E-07  0.19183600E-06  0.31382374E-06
  0.43244966E-06  0.54696387E-06  0.65665148E-06  0.76083696E-06  0.85888817E-06
  0.95022011E-06  0.10342983E-05  0.11106418E-05  0.11788258E-05  0.12384838E-05
  0.12893097E-05  0.13310587E-05  0.13635489E-05  0.13866613E-05  0.14003404E-05
  0.14045934E-05  0.13994900E-05  0.13851611E-05  0.13617972E-05  0.13296468E-05
  0.12890137E-05  0.12402551E-05  0.11837778E-05  0.11200360E-05  0.10495269E-05
  0.97278760E-06  0.89039089E-06  0.80294105E-06  0.71106961E-06  0.61543087E-06
  0.51669736E-06  0.41555515E-06  0.31269922E-06  0.20882876E-06  0.10464246E-06
  0.83395835E-09 -0.10191276E-06 -0.20292775E-06 -0.30155943E-06 -0.39717866E-06
 -0.48918273E-06 -0.57699904E-06 -0.66008859E-06 -0.73794921E-06 -0.81011851E-06
 -0.87617652E-06 -0.93574803E-06 -0.98850466E-06 -0.10341665E-05 -0.10725035E-05
 -0.11033364E-05 -0.11265375E-05 -0.11420311E-05 -0.11497932E-05 -0.11498510E-05
 -0.11422829E-05 -0.11272167E-05 -0.11048286E-05 -0.10753415E-05 -0.10390231E-05
 -0.99618343E-06 -0.94717274E-06 -0.89237848E-06 -0.83222243E-06 -0.76715763E-06
 -0.69766497E-06 -0.62424977E-06 -0.54743820E-06 -0.46777354E-06 -0.38581246E-06
   18.8972598857892      T
 Non local Part
           1           2   1.07991489651719     
  -8.20498800077556       -13.3152567466562       -13.3152567466562     
   12.0930452589439     
 Reciprocal Space Part
  0.00000000E+00  0.13416230E+00  0.26828774E+00  0.40233053E+00  0.53622735E+00
  0.66988909E+00  0.80319333E+00  0.93597764E+00  0.10680340E+01  0.11991043E+01
  0.13288775E+01  0.14569876E+01  0.15830140E+01  0.17064823E+01  0.18268681E+01
  0.19436007E+01  0.20560694E+01  0.21636310E+01  0.22656179E+01  0.23613477E+01
  0.24501340E+01  0.25312972E+01  0.26041762E+01  0.26681402E+01  0.27226004E+01
  0.27670216E+01  0.28009332E+01  0.28239394E+01  0.28357288E+01  0.28360825E+01
  0.28248806E+01  0.28021083E+01  0.27678590E+01  0.27223369E+01  0.26658569E+01
  0.25988435E+01  0.25218273E+01  0.24354400E+01  0.23404077E+01  0.22375428E+01
  0.21277343E+01  0.20119365E+01  0.18911576E+01  0.17664462E+01  0.16388782E+01
  0.15095426E+01  0.13795275E+01  0.12499060E+01  0.11217225E+01  0.99597961E+00
  0.87362543E+00  0.75554248E+00  0.64253719E+00  0.53533103E+00  0.43455292E+00
  0.34073338E+00  0.25430013E+00  0.17557551E+00  0.10477553E+00  0.42010643E-01
 -0.12711923E-01 -0.59484200E-01 -0.98492115E-01 -0.13000879E+00 -0.15438668E+00
 -0.17204871E+00 -0.18347859E+00 -0.18921050E+00 -0.18981840E+00 -0.18590506E+00
 -0.17809110E+00 -0.16700425E+00 -0.15326887E+00 -0.13749615E+00 -0.12027491E+00
 -0.10216327E+00 -0.83681275E-01 -0.65304605E-01 -0.47459377E-01 -0.30518144E-01
 -0.14797102E-01 -0.55448663E-03  0.12009846E-01  0.22753706E-01  0.31590796E-01
  0.38487960E-01  0.43461555E-01  0.46573067E-01  0.47924088E-01  0.47650806E-01
  0.45918120E-01  0.42913554E-01  0.38841074E-01  0.33914967E-01  0.28353901E-01
  0.22375283E-01  0.16190014E-01  0.99977498E-02  0.39827310E-02 -0.16897560E-02
 Real Space Part
  0.00000000E+00  0.67791260E+00  0.13537643E+01  0.20254988E+01  0.26910693E+01
  0.33484434E+01  0.39956077E+01  0.46305730E+01  0.52513794E+01  0.58561018E+01
  0.64428552E+01  0.70098005E+01  0.75551504E+01  0.80771754E+01  0.85742104E+01
  0.90446608E+01  0.94870096E+01  0.98998237E+01  0.10281761E+02  0.10631579E+02
  0.10948137E+02  0.11230410E+02  0.11477490E+02  0.11688595E+02  0.11863077E+02
  0.12000425E+02  0.12100274E+02  0.12162410E+02  0.12186773E+02  0.12173465E+02
  0.12122752E+02  0.12035068E+02  0.11911015E+02  0.11751370E+02  0.11557079E+02
  0.11329263E+02  0.11069214E+02  0.10778392E+02  0.10458422E+02  0.10111093E+02
  0.97383445E+01  0.93422690E+01  0.89250975E+01  0.84891928E+01  0.80370389E+01
  0.75712295E+01  0.70944556E+01  0.66094922E+01  0.61191834E+01  0.56264276E+01
  0.51341612E+01  0.46453415E+01  0.41629298E+01  0.36898733E+01  0.32290864E+01
  0.27834331E+01  0.23557073E+01  0.19486153E+01  0.15647563E+01  0.12066050E+01
  0.87649373E+00  0.57659503E+00  0.30890302E+00  0.75184445E-01 -0.12388782E+00
 -0.30641995E+00 -0.47811807E+00 -0.63560604E+00 -0.77607520E+00 -0.89715103E+00
 -0.99687644E+00 -0.10736995E+01 -0.11264636E+01 -0.11543931E+01 -0.11570810E+01
 -0.11344733E+01 -0.10868522E+01 -0.10148195E+01 -0.91927771E+00 -0.80141242E+00
 -0.66267719E+00 -0.50470004E+00 -0.32876385E+00 -0.13968194E+00  0.11221601E-01
 -0.31520174E-03 -0.22523103E-03  0.17426144E-04  0.41268378E-05 -0.73821330E-06
 -0.37114569E-07  0.22182634E-07 -0.19732632E-08 -0.34334720E-09  0.10943717E-09
 -0.95886152E-11 -0.16069241E-11  0.61508323E-12 -0.74169693E-13  0.00000000E+00
 Reciprocal Space Part
  0.00000000E+00  0.47615790E+00  0.94556521E+00  0.14015742E+01  0.18377410E+01
  0.22479236E+01  0.26263743E+01  0.29678257E+01  0.32675690E+01  0.35215228E+01
  0.37262913E+01  0.38792116E+01  0.39783888E+01  0.40227184E+01  0.40118959E+01
  0.39464139E+01  0.38275464E+01  0.36573198E+01  0.34384738E+01  0.31744099E+01
  0.28691310E+01  0.25271715E+01  0.21535202E+01  0.17535370E+01  0.13328648E+01
  0.89733887E+00  0.45289397E+00  0.54720795E-02 -0.43906839E+00 -0.87504026E+00
 -0.12970106E+01 -0.16998779E+01 -0.20789421E+01 -0.24299665E+01 -0.27492309E+01
 -0.30335743E+01 -0.32804283E+01 -0.34878396E+01 -0.36544811E+01 -0.37796538E+01
 -0.38632772E+01 -0.39058700E+01 -0.39085221E+01 -0.38728570E+01 -0.38009878E+01
 -0.36954654E+01 -0.35592215E+01 -0.33955079E+01 -0.32078312E+01 -0.29998871E+01
 -0.27754930E+01 -0.25385215E+01 -0.22928351E+01 -0.20422247E+01 -0.17903508E+01
 -0.15406901E+01 -0.12964873E+01 -0.10607127E+01 -0.83602773E+00 -0.62475576E+00
 -0.42886163E+00 -0.24993787E+00 -0.89198333E-01  0.52521006E-01  0.17475448E+00
  0.27739286E+00  0.36066362E+00  0.42510612E+00  0.47154231E+00  0.50104373E+00
  0.51489570E+00  0.51455948E+00  0.50163316E+00  0.47781227E+00  0.44485077E+00
  0.40452320E+00  0.35858875E+00  0.30875777E+00  0.25666135E+00  0.20382436E+00
  0.15164240E+00  0.10136284E+00  0.54070103E-01  0.10675384E-01 -0.28089342E-01
 -0.61673100E-01 -0.89703679E-01 -0.11198166E+00 -0.12847104E+00 -0.13928693E+00
 -0.14468060E+00 -0.14502256E+00 -0.14078403E+00 -0.13251734E+00 -0.12083581E+00
 -0.10639357E+00 -0.89865755E-01 -0.71929578E-01 -0.53246619E-01 -0.34446706E-01
 Real Space Part
  0.00000000E+00 -0.12203260E+01 -0.24355660E+01 -0.36406515E+01 -0.48305487E+01
 -0.60002767E+01 -0.71449243E+01 -0.82596682E+01 -0.93397908E+01 -0.10380698E+02
 -0.11377936E+02 -0.12327211E+02 -0.13224408E+02 -0.14065605E+02 -0.14847097E+02
 -0.15565406E+02 -0.16217308E+02 -0.16799843E+02 -0.17310337E+02 -0.17746417E+02
 -0.18106026E+02 -0.18387443E+02 -0.18589292E+02 -0.18710562E+02 -0.18750615E+02
 -0.18709200E+02 -0.18586463E+02 -0.18382958E+02 -0.18099647E+02 -0.17737916E+02
 -0.17299570E+02 -0.16786835E+02 -0.16202364E+02 -0.15549224E+02 -0.14830898E+02
 -0.14051272E+02 -0.13214629E+02 -0.12325629E+02 -0.11389299E+02 -0.10411010E+02
 -0.93964568E+01 -0.83516345E+01 -0.72828101E+01 -0.61964938E+01 -0.50994070E+01
 -0.39984478E+01 -0.29006548E+01 -0.18131686E+01 -0.74319149E+00  0.30205392E+00
  0.13153684E+01  0.22896199E+01  0.32177885E+01  0.40930120E+01  0.49086314E+01
  0.56582364E+01  0.63357105E+01  0.69352747E+01  0.74515311E+01  0.78795040E+01
  0.82146796E+01  0.84530440E+01  0.85911259E+01  0.86261341E+01  0.85586876E+01
  0.84493152E+01  0.83202163E+01  0.81646323E+01  0.79772389E+01  0.77537257E+01
  0.74907459E+01  0.71858812E+01  0.68376159E+01  0.64452970E+01  0.60091022E+01
  0.55299976E+01  0.50096947E+01  0.44506075E+01  0.38558029E+01  0.32289573E+01
  0.25743236E+01  0.18964272E+01  0.11982980E+01  0.49483967E+00 -0.39433836E-01
  0.11076448E-02  0.79148034E-03 -0.61236901E-04 -0.14502047E-04  0.25941422E-05
  0.13042364E-06 -0.77951598E-07  0.69342093E-08  0.12065496E-08 -0.38457152E-09
  0.33695822E-10  0.56476763E-11 -0.21613489E-11  0.25957131E-12  0.00000000E+00
 Non local Part
           2           2   1.07991489651719     
   44.2173821836863        43.1331339555806        43.1331339555806     
   42.0723439567732     
 Reciprocal Space Part
  0.00000000E+00 -0.18462630E+00 -0.73384577E+00 -0.16337706E+01 -0.28615544E+01
 -0.43858370E+01 -0.61673559E+01 -0.81597142E+01 -0.10310292E+02 -0.12561283E+02
 -0.14850842E+02 -0.17114320E+02 -0.19285564E+02 -0.21298256E+02 -0.23087280E+02
 -0.24590069E+02 -0.25747925E+02 -0.26507279E+02 -0.26820870E+02 -0.26648811E+02
 -0.25959535E+02 -0.24730581E+02 -0.22949230E+02 -0.20612942E+02 -0.17729620E+02
 -0.14317657E+02 -0.10405795E+02 -0.60327703E+01 -0.12467646E+01  0.38953385E+01
  0.93288744E+01  0.14982483E+02  0.20779337E+02  0.26638497E+02  0.32476355E+02
  0.38208151E+02  0.43749527E+02  0.49018090E+02  0.53934948E+02  0.58426192E+02
  0.62424288E+02  0.65869362E+02  0.68710331E+02  0.70905876E+02  0.72425219E+02
  0.73248702E+02  0.73368138E+02  0.72786946E+02  0.71520051E+02  0.69593549E+02
  0.67044167E+02  0.63918495E+02  0.60272038E+02  0.56168086E+02  0.51676445E+02
  0.46872037E+02  0.41833418E+02  0.36641239E+02  0.31376674E+02  0.26119873E+02
  0.20948446E+02  0.15936035E+02  0.11150982E+02  0.66551438E+01  0.25028601E+01
 -0.12598989E+01 -0.45961853E+01 -0.74785201E+01 -0.98891263E+01 -0.11819947E+02
 -0.13272452E+02 -0.14257243E+02 -0.14793470E+02 -0.14908079E+02 -0.14634908E+02
 -0.14013662E+02 -0.13088791E+02 -0.11908302E+02 -0.10522527E+02 -0.89828991E+01
 -0.73407341E+01 -0.56460783E+01 -0.39466268E+01 -0.22867454E+01 -0.70661638E+00
  0.75847835E+00  0.20787206E+01  0.32301592E+01  0.41949489E+01  0.49614249E+01
  0.55240171E+01  0.58830147E+01  0.60441913E+01  0.60183078E+01  0.58205099E+01
  0.54696427E+01  0.49875031E+01  0.43980528E+01  0.37266156E+01  0.29990823E+01
 Real Space Part
  0.00000000E+00  0.51377658E+00  0.20518162E+01  0.46042641E+01  0.81547473E+01
  0.12680452E+02  0.18152234E+02  0.24534753E+02  0.31786652E+02  0.39860750E+02
  0.48704281E+02  0.58259152E+02  0.68462243E+02  0.79245723E+02  0.90537410E+02
  0.10226115E+03  0.11433723E+03  0.12668280E+03  0.13921236E+03  0.15183825E+03
  0.16447112E+03  0.17702049E+03  0.18939532E+03  0.20150453E+03  0.21325758E+03
  0.22456512E+03  0.23533948E+03  0.24549538E+03  0.25495040E+03  0.26362569E+03
  0.27144645E+03  0.27834254E+03  0.28424902E+03  0.28910665E+03  0.29286238E+03
  0.29546982E+03  0.29688964E+03  0.29708991E+03  0.29604648E+03  0.29374317E+03
  0.29017205E+03  0.28533351E+03  0.27923638E+03  0.27189793E+03  0.26334377E+03
  0.25360775E+03  0.24273174E+03  0.23076528E+03  0.21776530E+03  0.20379556E+03
  0.18892623E+03  0.17323320E+03  0.15679748E+03  0.13970442E+03  0.12204290E+03
  0.10390451E+03  0.85382588E+02  0.66571294E+02  0.47564592E+02  0.28455227E+02
  0.93336717E+01 -0.97129347E+01 -0.28601719E+02 -0.47253282E+02 -0.65545114E+02
 -0.82292662E+02 -0.96952039E+02 -0.10951231E+03 -0.11996929E+03 -0.12833294E+03
 -0.13462813E+03 -0.13889494E+03 -0.14118873E+03 -0.14158024E+03 -0.14015541E+03
 -0.13701529E+03 -0.13227571E+03 -0.12606688E+03 -0.11853296E+03 -0.10983138E+03
 -0.10013225E+03 -0.89617557E+02 -0.78480175E+02 -0.66923109E+02 -0.55158155E+02
 -0.43405074E+02 -0.31890132E+02 -0.20844908E+02 -0.10504959E+02 -0.11083930E+01
  0.71056260E+01  0.13898323E+02  0.19032839E+02  0.22275811E+02  0.23400334E+02
  0.22178426E+02  0.18391598E+02  0.12069164E+02  0.16288298E+01  0.00000000E+00
 Reciprocal Space Part
  0.00000000E+00  0.18825068E+00  0.74836576E+00  0.16665242E+01  0.29199888E+01
  0.44775474E+01  0.63001201E+01  0.83415211E+01  0.10549362E+02  0.12866082E+02
  0.15230084E+02  0.17576957E+02  0.19840766E+02  0.21955378E+02  0.23855813E+02
  0.25479578E+02  0.26767971E+02  0.27667326E+02  0.28130177E+02  0.28116311E+02
  0.27593697E+02  0.26539270E+02  0.24939543E+02  0.22791050E+02  0.20100597E+02
  0.16885314E+02  0.13172513E+02  0.89993411E+01  0.44122390E+01 -0.53378269E+00
 -0.57760488E+01 -0.11245281E+02 -0.16866800E+02 -0.22561849E+02 -0.28249001E+02
 -0.33845646E+02 -0.39269502E+02 -0.44440136E+02 -0.49280465E+02 -0.53718197E+02
 -0.57687188E+02 -0.61128685E+02 -0.63992432E+02 -0.66237613E+02 -0.67833606E+02
 -0.68760545E+02 -0.69009664E+02 -0.68583428E+02 -0.67495433E+02 -0.65770090E+02
 -0.63442098E+02 -0.60555708E+02 -0.57163805E+02 -0.53326821E+02 -0.49111508E+02
 -0.44589593E+02 -0.39836348E+02 -0.34929104E+02 -0.29945748E+02 -0.24963222E+02
 -0.20056074E+02 -0.15295076E+02 -0.10745953E+02 -0.64682338E+01 -0.25142655E+01
  0.10716084E+01  0.42536748E+01  0.70052810E+01  0.93090593E+01  0.11156945E+02
  0.12549993E+02  0.13498002E+02  0.14018953E+02  0.14138294E+02  0.13888075E+02
  0.13305968E+02  0.12434194E+02  0.11318386E+02  0.10006419E+02  0.85472327E+01
  0.69896729E+01  0.53813895E+01  0.37678038E+01  0.21911757E+01  0.68978759E+00
 -0.70273913E+00 -0.19579816E+01 -0.30531006E+01 -0.39710678E+01 -0.47007376E+01
 -0.52367654E+01 -0.55793834E+01 -0.57340434E+01 -0.57109436E+01 -0.55244555E+01
 -0.51924705E+01 -0.47356891E+01 -0.41768715E+01 -0.35400746E+01 -0.28498946E+01
 Real Space Part
  0.00000000E+00 -0.48227615E+00 -0.19259924E+01 -0.43218270E+01 -0.76542931E+01
 -0.11901813E+02 -0.17036822E+02 -0.23025901E+02 -0.29829943E+02 -0.37404339E+02
 -0.45699208E+02 -0.54659642E+02 -0.64225990E+02 -0.74334163E+02 -0.84915977E+02
 -0.95899509E+02 -0.10720949E+03 -0.11876773E+03 -0.13049355E+03 -0.14230424E+03
 -0.15411555E+03 -0.16584219E+03 -0.17739838E+03 -0.18869832E+03 -0.19965680E+03
 -0.21018973E+03 -0.22021468E+03 -0.22965150E+03 -0.23842280E+03 -0.24645459E+03
 -0.25367674E+03 -0.26002360E+03 -0.26543441E+03 -0.26985387E+03 -0.27323256E+03
 -0.27552736E+03 -0.27670183E+03 -0.27672659E+03 -0.27557958E+03 -0.27324630E+03
 -0.26972004E+03 -0.26500194E+03 -0.25910114E+03 -0.25203470E+03 -0.24382757E+03
 -0.23451246E+03 -0.22412959E+03 -0.21272644E+03 -0.20035739E+03 -0.18708325E+03
 -0.17297081E+03 -0.15809224E+03 -0.14252444E+03 -0.12634837E+03 -0.10964826E+03
 -0.92510798E+02 -0.75024281E+02 -0.57277678E+02 -0.39359703E+02 -0.21357832E+02
 -0.33573138E+01  0.14559833E+02  0.32315701E+02  0.49835732E+02  0.67004444E+02
  0.82697491E+02  0.96399960E+02  0.10810340E+03  0.11780572E+03  0.12551816E+03
  0.13126606E+03  0.13508912E+03  0.13704142E+03  0.13719156E+03  0.13562244E+03
  0.13243121E+03  0.12772889E+03  0.12164004E+03  0.11430234E+03  0.10586591E+03
  0.96492755E+02  0.86356045E+02  0.75639126E+02  0.64534816E+02  0.53244144E+02
  0.41975555E+02  0.30943542E+02  0.20367505E+02  0.10470495E+02  0.14778660E+01
 -0.63841387E+01 -0.12889751E+02 -0.17815121E+02 -0.20939802E+02 -0.22049557E+02
 -0.20929218E+02 -0.17372684E+02 -0.11408333E+02 -0.15401806E+01  0.00000000E+00
 Non local Part
           0           2   1.07991489651719     
   3.85469055678284        9.01330111108626        9.01330111108626     
   21.1533637116956     
 Reciprocal Space Part
 -0.12836504E+02 -0.13037497E+02 -0.13636592E+02 -0.14622218E+02 -0.15975346E+02
 -0.17669866E+02 -0.19673114E+02 -0.21946513E+02 -0.24446345E+02 -0.27124606E+02
 -0.29929954E+02 -0.32808713E+02 -0.35705910E+02 -0.38566340E+02 -0.41335617E+02
 -0.43961202E+02 -0.46393380E+02 -0.48586177E+02 -0.50498176E+02 -0.52093249E+02
 -0.53341161E+02 -0.54218051E+02 -0.54706780E+02 -0.54797140E+02 -0.54485915E+02
 -0.53776813E+02 -0.52680252E+02 -0.51213022E+02 -0.49397831E+02 -0.47262735E+02
 -0.44840487E+02 -0.42167800E+02 -0.39284555E+02 -0.36232972E+02 -0.33056747E+02
 -0.29800201E+02 -0.26507431E+02 -0.23221497E+02 -0.19983660E+02 -0.16832681E+02
 -0.13804194E+02 -0.10930172E+02 -0.82384765E+01 -0.57525253E+01 -0.34910490E+01
 -0.14679636E+01  0.30765535E+00  0.18314968E+01  0.31038432E+01  0.41293108E+01
  0.49165128E+01  0.54776546E+01  0.58280736E+01  0.59857369E+01  0.59707096E+01
  0.58046075E+01  0.55100468E+01  0.51101040E+01  0.46277984E+01  0.40856065E+01
  0.35050189E+01  0.29061483E+01  0.23073935E+01  0.17251650E+01  0.11736764E+01
  0.66480043E+00  0.20799121E+00 -0.18972992E+00 -0.52372860E+00 -0.79165635E+00
 -0.99330014E+00 -0.11303894E+01 -0.12063685E+01 -0.12261418E+01 -0.11958010E+01
 -0.11223419E+01 -0.10133789E+01 -0.87686603E+00 -0.72082981E+00 -0.55312196E+00
 -0.38119639E+00 -0.21191544E+00 -0.51388613E-01  0.95153913E-01  0.22345169E+00
  0.33026825E+00  0.41341014E+00  0.47171249E+00  0.50499393E+00  0.51398417E+00
  0.50022830E+00  0.46597227E+00  0.41403420E+00  0.34766651E+00  0.27041358E+00
  0.18596975E+00  0.98042023E-01  0.10221454E-01 -0.74133186E-01 -0.15199664E+00
 Real Space Part
 -0.22978971E+03 -0.22971876E+03 -0.22950570E+03 -0.22915004E+03 -0.22865090E+03
 -0.22800710E+03 -0.22721715E+03 -0.22627927E+03 -0.22519142E+03 -0.22395132E+03
 -0.22255651E+03 -0.22100437E+03 -0.21929214E+03 -0.21741704E+03 -0.21537622E+03
 -0.21316690E+03 -0.21078635E+03 -0.20823199E+03 -0.20550146E+03 -0.20259261E+03
 -0.19950362E+03 -0.19623303E+03 -0.19277982E+03 -0.18914343E+03 -0.18532385E+03
 -0.18132164E+03 -0.17713802E+03 -0.17277488E+03 -0.16823486E+03 -0.16352137E+03
 -0.15863862E+03 -0.15359168E+03 -0.14838650E+03 -0.14302993E+03 -0.13752973E+03
 -0.13189461E+03 -0.12613422E+03 -0.12025916E+03 -0.11428096E+03 -0.10821210E+03
 -0.10206598E+03 -0.95856901E+02 -0.89600026E+02 -0.83311367E+02 -0.77007734E+02
 -0.70706692E+02 -0.64426508E+02 -0.58186099E+02 -0.52004969E+02 -0.45903140E+02
 -0.39901082E+02 -0.34019636E+02 -0.28279937E+02 -0.22703327E+02 -0.17311269E+02
 -0.12125257E+02 -0.71667248E+01 -0.24569493E+01  0.19830430E+01  0.61325734E+01
  0.99714085E+01  0.13479858E+02  0.16638881E+02  0.19430326E+02  0.21840754E+02
  0.23947296E+02  0.25793037E+02  0.27382802E+02  0.28722176E+02  0.29816974E+02
  0.30673220E+02  0.31297144E+02  0.31695201E+02  0.31874064E+02  0.31840634E+02
  0.31602039E+02  0.31165628E+02  0.30538976E+02  0.29729872E+02  0.28746319E+02
  0.27596519E+02  0.26288861E+02  0.24831921E+02  0.23234433E+02  0.21505294E+02
  0.19653525E+02  0.17688266E+02  0.15618776E+02  0.13454382E+02  0.11204399E+02
  0.88783399E+01  0.64886262E+01  0.40278047E+01  0.14805551E+01 -0.14758106E+00
  0.12895891E-01  0.21435517E-02 -0.83125266E-03  0.12323563E-03  0.00000000E+00
 Reciprocal Space Part
  0.12938076E+02  0.13001141E+02  0.13188969E+02  0.13497481E+02  0.13919976E+02
  0.14447264E+02  0.15067860E+02  0.15768218E+02  0.16533006E+02  0.17345428E+02
  0.18187557E+02  0.19040705E+02  0.19885798E+02  0.20703761E+02  0.21475895E+02
  0.22184251E+02  0.22811975E+02  0.23343640E+02  0.23765536E+02  0.24065925E+02
  0.24235251E+02  0.24266311E+02  0.24154363E+02  0.23897195E+02  0.23495133E+02
  0.22951003E+02  0.22270040E+02  0.21459752E+02  0.20529740E+02  0.19491482E+02
  0.18358076E+02  0.17143967E+02  0.15864645E+02  0.14536334E+02  0.13175669E+02
  0.11799383E+02  0.10423989E+02  0.90654826E+01  0.77390660E+01  0.64588896E+01
  0.52378287E+01  0.40872924E+01  0.30170682E+01  0.20352060E+01  0.11479417E+01
  0.35966035E+00 -0.32710038E+00 -0.91160967E+00 -0.13948672E+01 -0.17794943E+01
 -0.20695967E+01 -0.22706025E+01 -0.23890804E+01 -0.24325430E+01 -0.24092403E+01
 -0.23279482E+01 -0.21977574E+01 -0.20278677E+01 -0.18273906E+01 -0.16051666E+01
 -0.13695991E+01 -0.11285078E+01 -0.88900527E+00 -0.65739711E+00 -0.43910706E+00
 -0.23862784E+00 -0.59497043E-01  0.95702681E-01  0.22532057E+00  0.32859380E+00
  0.40558493E+00  0.45710353E+00  0.48461490E+00  0.49013902E+00  0.47614293E+00
  0.44542985E+00  0.40102792E+00  0.34608178E+00  0.28374951E+00  0.21710734E+00
  0.14906432E+00  0.82288466E-01  0.19145730E-01 -0.38347430E-01 -0.88557415E-01
 -0.13025285E+00 -0.16261030E+00 -0.18520716E+00 -0.19800276E+00 -0.20130899E+00
 -0.19575219E+00 -0.18222782E+00 -0.16184990E+00 -0.13589710E+00 -0.10575729E+00
 -0.72872388E-01 -0.38685202E-01 -0.45898253E-02  0.28113125E-01  0.58255292E-01
 Real Space Part
  0.97338618E+02  0.97310297E+02  0.97225258E+02  0.97083280E+02  0.96883999E+02
  0.96626909E+02  0.96311375E+02  0.95936637E+02  0.95501824E+02  0.95005963E+02
  0.94447999E+02  0.93826803E+02  0.93141195E+02  0.92389962E+02  0.91571875E+02
  0.90685714E+02  0.89730282E+02  0.88704439E+02  0.87607114E+02  0.86437334E+02
  0.85194247E+02  0.83877145E+02  0.82485487E+02  0.81018924E+02  0.79477319E+02
  0.77860770E+02  0.76169633E+02  0.74404539E+02  0.72566414E+02  0.70656497E+02
  0.68676355E+02  0.66627897E+02  0.64513388E+02  0.62335458E+02  0.60097111E+02
  0.57801731E+02  0.55453085E+02  0.53055327E+02  0.50612996E+02  0.48131013E+02
  0.45614675E+02  0.43069648E+02  0.40501955E+02  0.37917964E+02  0.35324375E+02
  0.32728196E+02  0.30136730E+02  0.27557547E+02  0.24998462E+02  0.22467511E+02
  0.19972915E+02  0.17523057E+02  0.15126448E+02  0.12791691E+02  0.10527449E+02
  0.83424060E+01  0.62452332E+01  0.42445487E+01  0.23488801E+01  0.56662501E+00
 -0.10939880E+01 -0.26249388E+01 -0.40184583E+01 -0.52671174E+01 -0.63651804E+01
 -0.73392051E+01 -0.82046164E+01 -0.89634832E+01 -0.96181405E+01 -0.10171006E+02
 -0.10624574E+02 -0.10981415E+02 -0.11244184E+02 -0.11415619E+02 -0.11498545E+02
 -0.11495872E+02 -0.11410597E+02 -0.11245807E+02 -0.11004668E+02 -0.10690432E+02
 -0.10306428E+02 -0.98560598E+01 -0.93428046E+01 -0.87702016E+01 -0.81418550E+01
 -0.74614191E+01 -0.67325956E+01 -0.59591327E+01 -0.51448085E+01 -0.42933957E+01
 -0.34087463E+01 -0.24958374E+01 -0.15519630E+01 -0.57137671E+00  0.56982207E-01
 -0.49790792E-02 -0.82762125E-03  0.32094507E-03 -0.47581043E-04  0.00000000E+00
 PAW radial sets
         349  0.861424299591514     
(5E20.12)                                
 augmentation charges (non sperical)
  0.656117730759E+00 -0.290787293166E+00  0.596378668038E+00  0.588738898181E+00 -0.176633162410E+00
 -0.399963096349E+00 -0.290787293166E+00  0.818618592014E-01 -0.199622055274E+00 -0.198052763712E+00
  0.228954818055E-01  0.432819606161E-01  0.596378668038E+00 -0.199622055274E+00  0.629103061485E+00
  0.622984201922E+00 -0.102300016976E+00 -0.217567607534E+00  0.588738898181E+00 -0.198052763712E+00
  0.622984201922E+00  0.616909395030E+00 -0.102466034791E+00 -0.218174717909E+00 -0.176633162410E+00
  0.228954818055E-01 -0.102300016976E+00 -0.102466034791E+00 -0.108665950492E-01 -0.352271496003E-01
 -0.399963096349E+00  0.432819606161E-01 -0.217567607534E+00 -0.218174717909E+00 -0.352271496003E-01
 -0.106165744643E+00
 uccopancies in atom
  0.199999999960E+01  0.000000000000E+00  0.000000000000E+00  0.000000000000E+00  0.000000000000E+00
  0.000000000000E+00  0.000000000000E+00  0.000000000000E+00  0.000000000000E+00  0.000000000000E+00
  0.000000000000E+00  0.000000000000E+00  0.000000000000E+00  0.000000000000E+00  0.179999999649E+01
  0.000000000000E+00  0.000000000000E+00  0.000000000000E+00  0.000000000000E+00  0.000000000000E+00
  0.000000000000E+00  0.000000000000E+00  0.000000000000E+00  0.000000000000E+00  0.000000000000E+00
  0.000000000000E+00  0.000000000000E+00  0.000000000000E+00  0.100000000301E+01  0.000000000000E+00
  0.000000000000E+00  0.000000000000E+00  0.000000000000E+00  0.000000000000E+00  0.000000000000E+00
  0.000000000000E+00
 grid
  0.451659037616E-04  0.466345862767E-04  0.481510266834E-04  0.497167779490E-04  0.513334435397E-04
  0.530026790624E-04  0.547261939599E-04  0.565057532624E-04  0.583431793938E-04  0.602403540393E-04
  0.621992200714E-04  0.642217835400E-04  0.663101157270E-04  0.684663552669E-04  0.706927103375E-04
  0.729914609210E-04  0.753649611387E-04  0.778156416623E-04  0.803460122029E-04  0.829586640810E-04
  0.856562728803E-04  0.884416011881E-04  0.913175014239E-04  0.942869187609E-04  0.973528941420E-04
  0.100518567394E-03  0.103787180442E-03  0.107162080633E-03  0.110646724158E-03  0.114244679598E-03
  0.117959631573E-03  0.121795384518E-03  0.125755866581E-03  0.129845133639E-03  0.134067373461E-03
  0.138426909989E-03  0.142928207769E-03  0.147575876523E-03  0.152374675871E-03  0.157329520202E-03
  0.162445483710E-03  0.167727805588E-03  0.173181895396E-03  0.178813338599E-03  0.184627902285E-03
  0.190631541077E-03  0.196830403226E-03  0.203230836907E-03  0.209839396724E-03  0.216662850420E-03
  0.223708185808E-03  0.230982617927E-03  0.238493596431E-03  0.246248813218E-03  0.254256210308E-03
  0.262523987976E-03  0.271060613147E-03  0.279874828073E-03  0.288975659280E-03  0.298372426814E-03
  0.308074753786E-03  0.318092576226E-03  0.328436153261E-03  0.339116077617E-03  0.350143286470E-03
  0.361529072645E-03  0.373285096183E-03  0.385423396279E-03  0.397956403612E-03  0.410896953077E-03
  0.424258296929E-03  0.438054118350E-03  0.452298545468E-03  0.467006165819E-03  0.482192041294E-03
  0.497871723555E-03  0.514061269967E-03  0.530777260040E-03  0.548036812409E-03  0.565857602364E-03
  0.584257879951E-03  0.603256488662E-03  0.622872884732E-03  0.643127157066E-03  0.664040047808E-03
  0.685632973585E-03  0.707928047441E-03  0.730948101479E-03  0.754716710247E-03  0.779258214876E-03
  0.804597748012E-03  0.830761259552E-03  0.857775543217E-03  0.885668263994E-03  0.914467986467E-03
  0.944204204068E-03  0.974907369283E-03  0.100660892484E-02  0.103934133589E-02  0.107313812329E-02
  0.110803389791E-02  0.114406439606E-02  0.118126651613E-02  0.121967835634E-02  0.125933925376E-02
  0.130028982462E-02  0.134257200590E-02  0.138622909822E-02  0.143130581027E-02  0.147784830455E-02
  0.152590424464E-02  0.157552284401E-02  0.162675491645E-02  0.167965292807E-02  0.173427105107E-02
  0.179066521917E-02  0.184889318494E-02  0.190901457889E-02  0.197109097059E-02  0.203518593168E-02
  0.210136510101E-02  0.216969625183E-02  0.224024936121E-02  0.231309668170E-02  0.238831281531E-02
  0.246597478996E-02  0.254616213827E-02  0.262895697911E-02  0.271444410162E-02  0.280271105210E-02
  0.289384822360E-02  0.298794894857E-02  0.308510959435E-02  0.318542966196E-02  0.328901188789E-02
  0.339596234940E-02  0.350639057311E-02  0.362040964718E-02  0.373813633709E-02  0.385969120526E-02
  0.398519873450E-02  0.411478745549E-02  0.424859007841E-02  0.438674362882E-02  0.452938958804E-02
  0.467667403800E-02  0.482874781084E-02  0.498576664340E-02  0.514789133667E-02  0.531528792052E-02
  0.548812782368E-02  0.566658804930E-02  0.585085135625E-02  0.604110644627E-02  0.623754815719E-02
  0.644037766248E-02  0.664980267728E-02  0.686603767112E-02  0.708930408752E-02  0.731983057079E-02
  0.755785320021E-02  0.780361573174E-02  0.805736984770E-02  0.831937541447E-02  0.858990074864E-02
  0.886922289181E-02  0.915762789424E-02  0.945541110788E-02  0.976287748874E-02  0.100803419093E-01
  0.104081294808E-01  0.107465758864E-01  0.110960277248E-01  0.114568428652E-01  0.118293908138E-01
  0.122140530924E-01  0.126112236286E-01  0.130213091599E-01  0.134447296496E-01  0.138819187173E-01
  0.143333240828E-01  0.147994080247E-01  0.152806478537E-01  0.157775364013E-01  0.162905825249E-01
  0.168203116286E-01  0.173672662012E-01  0.179320063721E-01  0.185151104844E-01  0.191171756878E-01
  0.197388185496E-01  0.203806756865E-01  0.210434044163E-01  0.217276834310E-01  0.224342134923E-01
  0.231637181485E-01  0.239169444763E-01  0.246946638452E-01  0.254976727078E-01  0.263267934153E-01
  0.271828750599E-01  0.280667943439E-01  0.289794564778E-01  0.299217961076E-01  0.308947782713E-01
  0.318993993876E-01  0.329366882764E-01  0.340077072122E-01  0.351135530119E-01  0.362553581582E-01
  0.374342919595E-01  0.386515617468E-01  0.399084141110E-01  0.412061361786E-01  0.425460569304E-01
  0.439295485623E-01  0.453580278907E-01  0.468329578033E-01  0.483558487571E-01  0.499282603256E-01
  0.515518027956E-01  0.532281388165E-01  0.549589851029E-01  0.567461141925E-01  0.585913562618E-01
  0.604966009999E-01  0.624637995439E-01  0.644949664769E-01  0.665921818915E-01  0.687575935194E-01
  0.709934189314E-01  0.733019478082E-01  0.756855442849E-01  0.781466493727E-01  0.806877834583E-01
  0.833115488849E-01  0.860206326178E-01  0.888178089953E-01  0.917059425705E-01  0.946879910445E-01
  0.977670082956E-01  0.100946147507E+00  0.104228664394E+00  0.107617920541E+00  0.111117386843E+00
  0.114730647059E+00  0.118461401484E+00  0.122313470735E+00  0.126290799668E+00  0.130397461417E+00
  0.134637661560E+00  0.139015742434E+00  0.143536187576E+00  0.148203626317E+00  0.153022838522E+00
  0.157998759486E+00  0.163136484985E+00  0.168441276501E+00  0.173918566604E+00  0.179573964516E+00
  0.185413261859E+00  0.191442438586E+00  0.197667669098E+00  0.204095328577E+00  0.210731999506E+00
  0.217584478418E+00  0.224659782849E+00  0.231965158530E+00  0.239508086803E+00  0.247296292286E+00
  0.255337750783E+00  0.263640697448E+00  0.272213635226E+00  0.281065343554E+00  0.290204887354E+00
  0.299641626318E+00  0.309385224492E+00  0.319445660170E+00  0.329833236120E+00  0.340558590125E+00
  0.351632705886E+00  0.363066924265E+00  0.374872954901E+00  0.387062888201E+00  0.399649207721E+00
  0.412644802954E+00  0.426062982523E+00  0.439917487817E+00  0.454222507061E+00  0.468992689844E+00
  0.484243162124E+00  0.499989541718E+00  0.516247954293E+00  0.533035049885E+00  0.550368019948E+00
  0.568264614956E+00  0.586743162588E+00  0.605822586490E+00  0.625522425660E+00  0.645862854455E+00
  0.666864703251E+00  0.688549479777E+00  0.710939391139E+00  0.734057366561E+00  0.757927080873E+00
  0.782572978746E+00  0.808020299734E+00  0.834295104117E+00  0.861424299592E+00  0.889435668823E+00
  0.918357897903E+00  0.948220605720E+00  0.979054374297E+00  0.101089078011E+01  0.104376242641E+01
  0.107770297665E+01  0.111274718891E+01  0.114893095153E+01  0.118629131984E+01  0.122486655413E+01
  0.126469615880E+01  0.130582092285E+01  0.134828296164E+01  0.139212576000E+01  0.143739421678E+01
  0.148413469085E+01  0.153239504854E+01  0.158222471266E+01  0.163367471314E+01  0.168679773930E+01
  0.174164819373E+01  0.179828224811E+01  0.185675790065E+01  0.191713503554E+01  0.197947548423E+01
  0.204384308879E+01  0.211030376727E+01  0.217892558122E+01  0.224977880536E+01  0.232293599960E+01
  0.239847208329E+01  0.247646441199E+01  0.255699285664E+01  0.264013988542E+01  0.272599064815E+01
  0.281463306352E+01  0.290615790909E+01  0.300065891432E+01  0.309823285648E+01
 aepotential
  0.133417948985E+05  0.134852771002E+05  0.136071856986E+05  0.137065455752E+05  0.137825868972E+05
  0.138346745895E+05  0.138623376346E+05  0.138653052209E+05  0.138434668508E+05  0.137969141531E+05
  0.137259106513E+05  0.136309208120E+05  0.135125691853E+05  0.133716622127E+05  0.132091591903E+05
  0.130261674845E+05  0.128239173168E+05  0.126037634353E+05  0.123671401127E+05  0.121155692160E+05
  0.118506188857E+05  0.115738972266E+05  0.112870256691E+05  0.109916250734E+05  0.106892942198E+05
  0.103815961068E+05  0.100700426960E+05  0.975608178881E+04  0.944108579164E+04  0.912634423513E+04
  0.881305379146E+04  0.850231641755E+04  0.819513368960E+04  0.789240586825E+04  0.759493188768E+04
  0.730341084487E+04  0.701844427839E+04  0.674053998939E+04  0.647011645084E+04  0.620750807389E+04
  0.595297090953E+04  0.570668859285E+04  0.546877868412E+04  0.523929894542E+04  0.501825362688E+04
  0.480559960129E+04  0.460125228174E+04  0.440509125670E+04  0.421696559765E+04  0.403669880337E+04
  0.386409334853E+04  0.369893486224E+04  0.354099588516E+04  0.339003923239E+04  0.324582102736E+04
  0.310809329225E+04  0.297660626423E+04  0.285111041655E+04  0.273135803280E+04  0.261710478014E+04
  0.250811072826E+04  0.240414144901E+04  0.230496866496E+04  0.221037092523E+04  0.212013401688E+04
  0.203405129002E+04  0.195192385071E+04  0.187356069804E+04  0.179877869078E+04  0.172740259001E+04
  0.165926486355E+04  0.159420569114E+04  0.153207265711E+04  0.147272051798E+04  0.141601114079E+04
  0.136181314289E+04  0.131000163840E+04  0.126045797094E+04  0.121306955364E+04  0.116772948089E+04
  0.112433632396E+04  0.108279384763E+04  0.104301081143E+04  0.100490065692E+04  0.968381335892E+03
  0.933374982657E+03  0.899807853096E+03  0.867609900226E+03  0.836714794322E+03  0.807059542243E+03
  0.778584419777E+03  0.751232758949E+03  0.724950762177E+03  0.699687379760E+03  0.675394119493E+03
  0.652024949967E+03  0.629536127213E+03  0.607886089282E+03  0.587035323374E+03  0.566946256519E+03
  0.547583160597E+03  0.528912022910E+03  0.510900479836E+03  0.493517705944E+03  0.476734345027E+03
  0.460522400925E+03  0.444855214665E+03  0.429707334653E+03  0.415054476384E+03  0.400873472397E+03
  0.387142178003E+03  0.373839453945E+03  0.360945082885E+03  0.348439715390E+03  0.336304865982E+03
  0.324522816591E+03  0.313076604250E+03  0.301949970435E+03  0.291127328028E+03  0.280593724201E+03
  0.270334806777E+03  0.260336792436E+03  0.250586437073E+03  0.241071008253E+03  0.231778255838E+03
  0.222696394267E+03  0.213814067982E+03  0.205120339205E+03  0.196604661607E+03  0.188256859866E+03
  0.180067116334E+03  0.172025946486E+03  0.164124189144E+03  0.156352985062E+03  0.148703766421E+03
  0.141168241716E+03  0.133738382876E+03  0.126406412789E+03  0.119164796667E+03  0.112006227169E+03
  0.104923619552E+03  0.979100992709E+02  0.909589951267E+02  0.840638320051E+02  0.772183224328E+02
  0.704163621264E+02  0.636520230202E+02  0.569195485812E+02  0.502133493911E+02  0.435279992361E+02
  0.368582320126E+02  0.301989380738E+02  0.235451637284E+02  0.168921081429E+02  0.102351230546E+02
  0.356971271585E+01 -0.310846700709E+01 -0.980360623088E+01 -0.165197416191E+02 -0.232607527556E+02
 -0.300303599593E+02 -0.368321210492E+02 -0.436694277607E+02 -0.505455003321E+02 -0.574633822267E+02
 -0.644259340901E+02 -0.714358263926E+02 -0.784955320544E+02 -0.856073165378E+02 -0.927732288081E+02
 -0.999950900689E+02 -0.107274481016E+03 -0.114612729457E+03 -0.122010894137E+03 -0.129469749286E+03
 -0.136989765896E+03 -0.144571092180E+03 -0.152213531257E+03 -0.159916517464E+03 -0.167679089570E+03
 -0.175499862143E+03 -0.183376993999E+03 -0.191308154042E+03 -0.199290484564E+03 -0.207320561856E+03
 -0.215394354833E+03 -0.223507181675E+03 -0.231653666025E+03 -0.239827693324E+03 -0.248022369784E+03
 -0.256229985940E+03 -0.264441988442E+03 -0.272648964410E+03 -0.280840643274E+03 -0.289005922829E+03
 -0.297132926470E+03 -0.305209099587E+03 -0.313221352308E+03 -0.321156254975E+03 -0.329000288561E+03
 -0.336740146379E+03 -0.344363072598E+03 -0.351857207757E+03 -0.359211890151E+03 -0.366417834376E+03
 -0.373467078711E+03 -0.380352565116E+03 -0.387067204687E+03 -0.393602305126E+03 -0.399945324131E+03
 -0.406077087460E+03 -0.411968868962E+03 -0.417580087540E+03 -0.422857580768E+03 -0.427737508927E+03
 -0.432150544648E+03 -0.436030181708E+03 -0.439322953443E+03 -0.441998490666E+03 -0.444057119180E+03
 -0.445533203152E+03 -0.446493383214E+03 -0.447029856353E+03 -0.447249772590E+03 -0.447262781168E+03
 -0.447169511867E+03 -0.447053659663E+03 -0.446978991661E+03 -0.446990676139E+03 -0.447119012040E+03
 -0.447383559447E+03 -0.447796452635E+03 -0.448364600985E+03 -0.449091026815E+03 -0.449975720944E+03
 -0.451016288572E+03 -0.452208506167E+03 -0.453546799914E+03 -0.455024623168E+03 -0.456634706630E+03
 -0.458369173526E+03 -0.460219529264E+03 -0.462176541147E+03 -0.464230029067E+03 -0.466368588663E+03
 -0.468579269073E+03 -0.470847235469E+03 -0.473155456198E+03 -0.475484473810E+03 -0.477812344470E+03
 -0.480114853366E+03 -0.482366129531E+03 -0.484539762952E+03 -0.486610440278E+03 -0.488555912535E+03
 -0.490358733402E+03 -0.492006648915E+03 -0.493489884862E+03 -0.494793350700E+03 -0.495882869841E+03
 -0.496688381113E+03 -0.497093275852E+03 -0.496943639328E+03 -0.496088448908E+03 -0.494445074521E+03
 -0.492060025118E+03 -0.489114546422E+03 -0.485846542312E+03 -0.482438172789E+03 -0.478960796979E+03
 -0.475401038885E+03 -0.471715054451E+03 -0.467864495064E+03 -0.463827602224E+03 -0.459596723604E+03
 -0.455172061357E+03 -0.450556346994E+03 -0.445751842171E+03 -0.440759451713E+03 -0.435579142259E+03
 -0.430210872258E+03 -0.424655508480E+03 -0.418915484382E+03 -0.412995162196E+03 -0.406900939198E+03
 -0.400641172771E+03 -0.394225993968E+03 -0.387667052053E+03 -0.380977231025E+03 -0.374170357005E+03
 -0.367260910789E+03 -0.360263758110E+03 -0.353193901894E+03 -0.346066262285E+03 -0.338895489212E+03
 -0.331695811635E+03 -0.324480918477E+03 -0.317263881701E+03 -0.310057100037E+03 -0.302872289220E+03
 -0.295720474087E+03 -0.288612006633E+03 -0.281556582921E+03 -0.274563258250E+03 -0.267640453771E+03
 -0.260795953619E+03 -0.254036894946E+03 -0.247369757398E+03 -0.240800359851E+03 -0.234333872633E+03
 -0.227974848946E+03 -0.221727275579E+03 -0.215594635508E+03 -0.209579971909E+03 -0.203685941352E+03
 -0.197914846996E+03 -0.192268648085E+03 -0.186748950624E+03 -0.181356985848E+03 -0.176093588356E+03
 -0.170959183830E+03 -0.165953787877E+03 -0.161077019433E+03 -0.156328127024E+03 -0.151706015159E+03
 -0.147209276852E+03 -0.142836216559E+03 -0.138584869502E+03 -0.134453012590E+03 -0.130438172196E+03
 -0.126537632443E+03 -0.122748451063E+03 -0.119067488741E+03 -0.115491457282E+03 -0.112016983163E+03
 -0.108640694911E+03 -0.105359312026E+03 -0.102169733702E+03 -0.990691190093E+02 -0.960549444021E+02
 -0.931250354353E+02 -0.902775696201E+02 -0.875110507809E+02 -0.848242574403E+02 -0.822161693630E+02
 -0.796858777872E+02 -0.772324864916E+02 -0.748550125994E+02 -0.725522974763E+02
 core charge-density
  0.948607666885E-03  0.100977866935E-02  0.107488877881E-02  0.114419110185E-02  0.121795495402E-02
  0.129646689259E-02  0.138003181450E-02  0.146897412376E-02  0.156363897246E-02  0.166439358004E-02
  0.177162863581E-02  0.188575978957E-02  0.200722923622E-02  0.213650739976E-02  0.227409472317E-02
  0.242052357046E-02  0.257636024793E-02  0.274220715196E-02  0.291870505108E-02  0.310653551052E-02
  0.330642346804E-02  0.351913997020E-02  0.374550507890E-02  0.398639095851E-02  0.424272515455E-02
  0.451549407557E-02  0.480574669044E-02  0.511459845402E-02  0.544323547503E-02  0.579291894052E-02
  0.616498981240E-02  0.656087381209E-02  0.698208671061E-02  0.743023994201E-02  0.790704655941E-02
  0.841432755369E-02  0.895401855614E-02  0.952817694755E-02  0.101389893974E-01  0.107887798578E-01
  0.114800180394E-01  0.122153283953E-01  0.129974996436E-01  0.138294948592E-01  0.147144621653E-01
  0.156557460611E-01  0.166568994191E-01  0.177216961908E-01  0.188541448595E-01  0.200585026809E-01
  0.213392907562E-01  0.227013099807E-01  0.241496579174E-01  0.256897466434E-01  0.273273216216E-01
  0.290684816520E-01  0.309196999585E-01  0.328878464693E-01  0.349802113538E-01  0.372045298780E-01
  0.395690086451E-01  0.420823532904E-01  0.447537977000E-01  0.475931348296E-01  0.506107491960E-01
  0.538176511227E-01  0.572255128186E-01  0.608467063736E-01  0.646943437552E-01  0.687823188950E-01
  0.731253519520E-01  0.777390358445E-01  0.826398851416E-01  0.878453874078E-01  0.933740570934E-01
  0.992454920651E-01  0.105480432870E+00  0.112100824826E+00  0.119129883028E+00  0.126592160363E+00
  0.134513618619E+00  0.142921702766E+00  0.151845418496E+00  0.161315413083E+00  0.171364059639E+00
  0.182025544817E+00  0.193335960003E+00  0.205333396045E+00  0.218058041523E+00  0.231552284585E+00
  0.245860818317E+00  0.261030749633E+00  0.277111711613E+00  0.294155979227E+00  0.312218588309E+00
  0.331357457665E+00  0.351633514116E+00  0.373110820263E+00  0.395856704715E+00  0.419941894448E+00
  0.445440648954E+00  0.472430895718E+00  0.500994366552E+00  0.531216734217E+00  0.563187748664E+00
  0.597001372199E+00  0.632755912714E+00  0.670554154072E+00  0.710503482624E+00  0.752716008676E+00
  0.797308681661E+00  0.844403397579E+00  0.894127097159E+00  0.946611853027E+00  0.100199494401E+01
  0.106041891454E+01  0.112203161685E+01  0.118698623369E+01  0.125544127880E+01  0.132756057234E+01
  0.140351318829E+01  0.148347337045E+01  0.156762041363E+01  0.165613850618E+01  0.174921653001E+01
  0.184704781377E+01  0.194982983478E+01  0.205776386513E+01  0.217105455679E+01  0.228990946095E+01
  0.241453847599E+01  0.254515321876E+01  0.268196631356E+01  0.282519059292E+01  0.297503820462E+01
  0.313171961894E+01  0.329544253042E+01  0.346641064852E+01  0.364482237158E+01  0.383086933897E+01
  0.402473485658E+01  0.422659219123E+01  0.443660273045E+01  0.465491400457E+01  0.488165756912E+01
  0.511694674669E+01  0.536087422863E+01  0.561350953842E+01  0.587489636041E+01  0.614504973944E+01
  0.642395315921E+01  0.671155550965E+01  0.700776795629E+01  0.731246072771E+01  0.762545984057E+01
  0.794654378508E+01  0.827544019791E+01  0.861182255360E+01  0.895530690994E+01  0.930544874755E+01
  0.966173994855E+01  0.100236059644E+02  0.103904032277E+02  0.107614168690E+02  0.111358588023E+02
  0.115128662508E+02  0.118915007872E+02  0.122707479662E+02  0.126495176339E+02  0.130266449975E+02
  0.134008925439E+02  0.137709528944E+02  0.141354526851E+02  0.144929575564E+02  0.148419783358E+02
  0.151809784892E+02  0.155083829090E+02  0.158225880967E+02  0.161219737848E+02  0.164049160251E+02
  0.166698017529E+02  0.169150448133E+02  0.171391034098E+02  0.173404989051E+02  0.175178358753E+02
  0.176698232776E+02  0.177952965578E+02  0.178932404807E+02  0.179628124238E+02  0.180033658319E+02
  0.180144734833E+02  0.179959501774E+02  0.179478744075E+02  0.178706085462E+02  0.177648170351E+02
  0.176314820395E+02  0.174719160103E+02  0.172877705818E+02  0.170810412336E+02  0.168540671568E+02
  0.166095257921E+02  0.163504215500E+02  0.160800682818E+02  0.158020651513E+02  0.155202656497E+02
  0.152387396140E+02  0.149617282380E+02  0.146935922153E+02  0.144387533118E+02  0.142016298372E+02
  0.139865666630E+02  0.137977606111E+02  0.136391822305E+02  0.135144951464E+02  0.134269743230E+02
  0.133794248056E+02  0.133741026138E+02  0.134126396274E+02  0.134959744233E+02  0.136242910960E+02
  0.137969681268E+02  0.140125393230E+02  0.142686687450E+02  0.145621413460E+02  0.148888707734E+02
  0.152439254254E+02  0.156215734478E+02  0.160153469342E+02  0.164181251646E+02  0.168222363028E+02
  0.172195765145E+02  0.176017449885E+02  0.179601928219E+02  0.182863832054E+02  0.185719598514E+02
  0.188089201579E+02  0.189897892311E+02  0.191077906049E+02  0.191570093027E+02  0.191325428093E+02
  0.190306355496E+02  0.188487926340E+02  0.185858689142E+02  0.182421298227E+02  0.178192810259E+02
  0.173204646187E+02  0.167502204068E+02  0.161144117614E+02  0.154201165689E+02  0.146754849077E+02
  0.138895662482E+02  0.130721101398E+02  0.122333454804E+02  0.113837444888E+02  0.105337783525E+02
  0.969367210385E+01  0.887316650002E+01  0.808129446521E+01  0.732617894909E+01  0.661485809633E+01
  0.595314215206E+01  0.534550589677E+01  0.479502043489E+01  0.430332745878E+01  0.387066074032E+01
  0.349591680564E+01  0.317677298657E+01  0.290984454064E+01  0.269086702575E+01  0.251488997685E+01
  0.237647320022E+01  0.226988195698E+01  0.218927808240E+01  0.212890238357E+01  0.208324239589E+01
  0.204717965393E+01  0.201611165005E+01  0.198604510092E+01  0.195365874286E+01  0.191633547913E+01
  0.187216519181E+01  0.181992082738E+01  0.175901140181E+01  0.168941630098E+01  0.161160568215E+01
  0.152645190213E+01  0.143513674717E+01  0.133905886582E+01  0.123974524273E+01  0.113876987792E+01
  0.103768208919E+01  0.937946081306E+00  0.840892745781E+00  0.747683922844E+00  0.659288713004E+00
  0.576471165823E+00  0.499788067584E+00  0.429595398581E+00  0.366061851802E+00  0.309187742158E+00
  0.258827657397E+00  0.214715294706E+00  0.176489075054E+00  0.143717318214E+00  0.115921978962E+00
  0.926001758276E-01  0.732429748900E-01  0.573511109317E-01  0.444475272298E-01  0.340867861690E-01
  0.258615410840E-01  0.194063632640E-01  0.143992872760E-01  0.105614750393E-01  0.765540826479E-02
  0.548200472046E-02  0.387702157580E-02  0.270706410411E-02  0.186546543508E-02  0.126824744776E-02
  0.850318266502E-03  0.562011288308E-03  0.366026455544E-03  0.234797895613E-03  0.148283552128E-03
  0.921518144062E-04  0.563266888096E-04  0.338456938844E-04  0.199821882594E-04  0.115850183587E-04
  0.659204491501E-05  0.367926517471E-05  0.201307198064E-05  0.107906240108E-05  0.566299895712E-06
  0.290786578917E-06  0.145994616859E-06  0.716195411199E-07  0.343041322614E-07  0.160309522520E-07
  0.730359980425E-08  0.324141313156E-08  0.140021256548E-08  0.588226624447E-09  0.240105031470E-09
  0.951400957316E-10  0.365608315391E-10  0.136121668984E-10  0.490512006454E-11
 kinetic energy-density
  0.973755702715E+03  0.978966278631E+03  0.984396123675E+03  0.990052446982E+03  0.995942957514E+03
  0.100207543655E+04  0.100845826595E+04  0.101510002510E+04  0.102200975581E+04  0.102919686207E+04
  0.103667127020E+04  0.104444328332E+04  0.105252376440E+04  0.106092407201E+04  0.106965616623E+04
  0.107873250467E+04  0.108816630973E+04  0.109797132333E+04  0.110816207921E+04  0.111875380317E+04
  0.112976248954E+04  0.114120494243E+04  0.115309883127E+04  0.116546268643E+04  0.117831599260E+04
  0.119167918869E+04  0.120557376043E+04  0.122002223355E+04  0.123504828394E+04  0.125067673331E+04
  0.126693363975E+04  0.128384637307E+04  0.130144361655E+04  0.131975547874E+04  0.133881356291E+04
  0.135865102075E+04  0.137930264271E+04  0.140080492921E+04  0.142319619315E+04  0.144651664829E+04
  0.147080850043E+04  0.149611606005E+04  0.152248584963E+04  0.154996672213E+04  0.157860998582E+04
  0.160846953519E+04  0.163960199095E+04  0.167206684727E+04  0.170592662696E+04  0.174124704910E+04
  0.177809719806E+04  0.181654971230E+04  0.185668097589E+04  0.189857132180E+04  0.194230525321E+04
  0.198797166724E+04  0.203566409068E+04  0.208548094883E+04  0.213752581141E+04  0.219190769238E+04
  0.224874133284E+04  0.230814752206E+04  0.237025342196E+04  0.243519291016E+04  0.250310694749E+04
  0.257414395970E+04  0.264846022947E+04  0.272622035747E+04  0.280759761678E+04  0.289277457609E+04
  0.298194336810E+04  0.307530643293E+04  0.317307689506E+04  0.327547920591E+04  0.338274969682E+04
  0.349513722559E+04  0.361290382911E+04  0.373632535020E+04  0.386569222363E+04  0.400131015334E+04
  0.414350093975E+04  0.429260322026E+04  0.444897340124E+04  0.461298642946E+04  0.478503681172E+04
  0.496553947248E+04  0.515493080334E+04  0.535366965262E+04  0.556223839378E+04  0.578114402553E+04
  0.601091929655E+04  0.625212389049E+04  0.650534561144E+04  0.677120165861E+04  0.705033985682E+04
  0.734344000334E+04  0.765121517912E+04  0.797441313198E+04  0.831381765809E+04  0.867025000422E+04
  0.904457031793E+04  0.943767906507E+04  0.985051850276E+04  0.102840740981E+05  0.107393760115E+05
  0.112175004951E+05  0.117195712744E+05  0.122467610454E+05  0.128002926243E+05  0.133814403809E+05
  0.139915313381E+05  0.146319463435E+05  0.153041211062E+05  0.160095470081E+05  0.167497719282E+05
  0.175264008518E+05  0.183410961954E+05  0.191955780993E+05  0.200916242886E+05  0.210310698061E+05
  0.220158063740E+05  0.230477814321E+05  0.241289967821E+05  0.252615068434E+05  0.264474163944E+05
  0.276888778979E+05  0.289880881508E+05  0.303472844265E+05  0.317687399249E+05  0.332547584641E+05
  0.348076684759E+05  0.364298160921E+05  0.381235574006E+05  0.398912496757E+05  0.417352416455E+05
  0.436578626160E+05  0.456614104988E+05  0.477481385470E+05  0.499202408960E+05  0.521798366857E+05
  0.545289528257E+05  0.569695053087E+05  0.595032790006E+05  0.621319059279E+05  0.648568419666E+05
  0.676793419576E+05  0.706004332324E+05  0.736208875396E+05  0.767411914173E+05  0.799615150078E+05
  0.832816795283E+05  0.867011231881E+05  0.902188660200E+05  0.938334735806E+05  0.975430195818E+05
  0.101345048032E+06  0.105236534721E+06  0.109213848638E+06  0.113272713584E+06  0.117408170138E+06
  0.121614538935E+06  0.125885385038E+06  0.130213484594E+06  0.134590793802E+06  0.139008421276E+06
  0.143456604086E+06  0.147924688584E+06  0.152401116303E+06  0.156873416276E+06  0.161328204098E+06
  0.165751188921E+06  0.170127189088E+06  0.174440157275E+06  0.178673216018E+06  0.182808704462E+06
  0.186828236990E+06  0.190712774582E+06  0.194442709360E+06  0.197997962974E+06  0.201358098996E+06
  0.204502449774E+06  0.207410257467E+06  0.210060829303E+06  0.212433706474E+06  0.214508845961E+06
  0.216266814357E+06  0.217688992278E+06  0.218757787763E+06  0.219456856674E+06  0.219771327704E+06
  0.219688029360E+06  0.219195715836E+06  0.218285288441E+06  0.216950008865E+06  0.215185700421E+06
  0.212990933078E+06  0.210367187979E+06  0.207318997119E+06  0.203854053820E+06  0.199983289796E+06
  0.195720914838E+06  0.191084415534E+06  0.186094510001E+06  0.180775056183E+06  0.175152912182E+06
  0.169257747965E+06  0.163121808816E+06  0.156779632018E+06  0.150267719230E+06  0.143624168049E+06
  0.136888266909E+06  0.130100059245E+06  0.123299875100E+06  0.116527853207E+06  0.109823436302E+06
  0.103224864999E+06  0.967686726139E+05  0.904891940164E+05  0.844181022788E+05  0.785839875313E+05
  0.730119912532E+05  0.677235064133E+05  0.627359501977E+05  0.580626124100E+05  0.537125796012E+05
  0.496907328742E+05  0.459978161004E+05  0.426305708729E+05  0.395819345492E+05  0.368412975237E+05
  0.343948153983E+05  0.322257704854E+05  0.303149758698E+05  0.286412137505E+05  0.271816987387E+05
  0.259125559618E+05  0.248093033551E+05  0.238473276530E+05  0.230023437985E+05  0.222508283550E+05
  0.215704183003E+05  0.209402678895E+05  0.203413573660E+05  0.197567488428E+05  0.191717857908E+05
  0.185742341284E+05  0.179543639483E+05  0.173049722246E+05  0.166213478109E+05  0.159011810733E+05
  0.151444214148E+05  0.143530867618E+05  0.135310302530E+05  0.126836703750E+05  0.118176922886E+05
  0.109407298941E+05  0.100610399778E+05  0.918718157221E+04  0.832771452444E+04  0.749092697465E+04
  0.668460207908E+04  0.591581311735E+04  0.519074032574E+04  0.451449759124E+04  0.389096879785E+04
  0.332268765245E+04  0.281080233791E+04  0.235515552704E+04  0.195446048843E+04  0.160650867219E+04
  0.130835403853E+04  0.105646620347E+04  0.846870914356E+03  0.675291194752E+03  0.537289485206E+03
  0.428404504473E+03  0.344275950275E+03  0.280751897044E+03  0.233975770524E+03  0.200451468545E+03
  0.177086535430E+03  0.161214400214E+03  0.150597587071E+03  0.143414513072E+03  0.138232979855E+03
  0.133973690679E+03  0.129867130142E+03  0.125406947184E+03  0.120302586359E+03  0.114433496026E+03
  0.107806641184E+03  0.100518649248E+03  0.927230559787E+02  0.846036209961E+02  0.763527959666E+02
  0.681557053539E+02  0.601788436146E+02  0.525629138995E+02  0.454191168780E+02  0.388281988728E+02
  0.328415908117E+02  0.274840358519E+02  0.227571723151E+02  0.186436237496E+02  0.151112330003E+02
  0.121171605426E+02  0.961164500276E+01  0.754129347997E+01  0.585182928650E+01  0.449027423413E+01
  0.340658120473E+01  0.255476090374E+01  0.189356511448E+01  0.138679879669E+01  0.100333644189E+01
  0.716915842028E+00  0.505776335953E+00  0.352200075049E+00  0.242004991026E+00  0.164027935079E+00
  0.109626580860E+00  0.722196918235E-01  0.468776075202E-01  0.299684852559E-01  0.188609834301E-01
  0.116806180110E-01  0.711479024656E-02  0.426026951372E-02  0.250648832664E-02  0.144815129745E-02
  0.821181086178E-03  0.456760986816E-03  0.249059887997E-03  0.133049867745E-03  0.695895069326E-04
  0.356128077798E-04  0.178200116195E-04  0.871257897765E-05  0.415921399166E-05  0.193722926373E-05
  0.879681213516E-06  0.389136986030E-06  0.167555626093E-06  0.701662490675E-07  0.285515474724E-07
  0.112789214289E-07  0.432146009222E-08  0.160431758285E-08  0.576503400214E-09
 mkinetic energy-density pseudized
  0.227034072700E-05  0.242039299000E-05  0.258036256678E-05  0.275090491636E-05  0.293271881862E-05
  0.312654923749E-05  0.333319037331E-05  0.355348891705E-05  0.378834751951E-05  0.403872848982E-05
  0.430565773843E-05  0.459022898067E-05  0.489360821812E-05  0.521703851619E-05  0.556184509744E-05
  0.592944077156E-05  0.632133172421E-05  0.673912368844E-05  0.718452852401E-05  0.765937123160E-05
  0.816559743052E-05  0.870528133067E-05  0.928063423144E-05  0.989401358224E-05  0.105479326419E-04
  0.112450707766E-04  0.119882844379E-04  0.127806188675E-04  0.136253205738E-04  0.145258506349E-04
  0.154858988799E-04  0.165093990070E-04  0.176005447022E-04  0.187638068219E-04  0.200039517119E-04
  0.213260607371E-04  0.227355511017E-04  0.242381980457E-04  0.258401585081E-04  0.275479963544E-04
  0.293687092715E-04  0.313097574396E-04  0.333790940995E-04  0.355851981402E-04  0.379371088402E-04
  0.404444629047E-04  0.431175339508E-04  0.459672746030E-04  0.490053613694E-04  0.522442424854E-04
  0.556971889187E-04  0.593783487452E-04  0.633028051192E-04  0.674866380746E-04  0.719469904109E-04
  0.767021379332E-04  0.817715643353E-04  0.871760410315E-04  0.929377122641E-04  0.990801858371E-04
  0.105628629845E-03  0.112609875797E-03  0.120052528551E-03  0.127987083525E-03  0.136446051640E-03
  0.145464092533E-03  0.155078156566E-03  0.165327636228E-03  0.176254527535E-03  0.187903602104E-03
  0.200322590596E-03  0.213562378284E-03  0.227677213545E-03  0.242724930132E-03  0.258767184137E-03
  0.275869706615E-03  0.294102572900E-03  0.313540489726E-03  0.334263101320E-03  0.356355315723E-03
  0.379907652685E-03  0.405016614540E-03  0.431785081603E-03  0.460322733693E-03  0.490746499511E-03
  0.523181035726E-03  0.557759237710E-03  0.594622784040E-03  0.633922716969E-03  0.675820061276E-03
  0.720486483996E-03  0.768104997767E-03  0.818870710638E-03  0.872991625449E-03  0.930689492021E-03
  0.992200715672E-03  0.105777732577E-02  0.112768800828E-02  0.120221920657E-02  0.128167629493E-02
  0.136638482965E-02  0.145669188280E-02  0.155296746407E-02  0.165560603666E-02  0.176502813326E-02
  0.188168207884E-02  0.200604582728E-02  0.213862891935E-02  0.227997457002E-02  0.243066189381E-02
  0.259130827697E-02  0.276257190659E-02  0.294515446668E-02  0.313980401241E-02  0.334731803424E-02
  0.356854672445E-02  0.380439645951E-02  0.405583351245E-02  0.432388801044E-02  0.460965815388E-02
  0.491431471403E-02  0.523910582785E-02  0.558536210940E-02  0.595450209889E-02  0.634803807159E-02
  0.676758223027E-02  0.721485330659E-02  0.769168359844E-02  0.820002647179E-02  0.874196435792E-02
  0.931971727854E-02  0.993565193368E-02  0.105922913894E-01  0.112923254051E-01  0.120386214417E-01
  0.128342363973E-01  0.136824291161E-01  0.145866737232E-01  0.155506738388E-01  0.165783777298E-01
  0.176739944613E-01  0.188420111116E-01  0.200872111240E-01  0.214146938668E-01  0.228298954831E-01
  0.243386111144E-01  0.259470185878E-01  0.276617036642E-01  0.294896869481E-01  0.314384525698E-01
  0.335159787548E-01  0.357307704046E-01  0.380918938216E-01  0.406090137155E-01  0.432924326445E-01
  0.461531330467E-01  0.492028220328E-01  0.524539791205E-01  0.559199071006E-01  0.596147862411E-01
  0.635537320442E-01  0.677528567893E-01  0.722293351060E-01  0.770014738394E-01  0.820887864857E-01
  0.875120724935E-01  0.932935017442E-01  0.994567045476E-01  0.106026867505E+00  0.113030835620E+00
  0.120497221053E+00  0.128456518949E+00  0.136941230790E+00  0.145985995749E+00  0.155627730553E+00
  0.165905778399E+00  0.176862067490E+00  0.188541279804E+00  0.200991030724E+00  0.214262060226E+00
  0.228408436334E+00  0.243487771601E+00  0.259561453429E+00  0.276694889074E+00  0.294957766229E+00
  0.314424330139E+00  0.335173678240E+00  0.357290073379E+00  0.380863276714E+00  0.405988901464E+00
  0.432768788727E+00  0.461311406642E+00  0.491732274242E+00  0.524154411399E+00  0.558708816323E+00
  0.595534972137E+00  0.634781384123E+00  0.676606149274E+00  0.721177559867E+00  0.768674742800E+00
  0.819288336514E+00  0.873221207344E+00  0.930689207190E+00  0.991921974428E+00  0.105716378000E+01
  0.112667442063E+01  0.120073016104E+01  0.127962472722E+01  0.136367035235E+01  0.145319887743E+01
  0.154856290802E+01  0.165013702876E+01  0.175831907694E+01  0.187353147613E+01  0.199622263076E+01
  0.212686838198E+01  0.226597352473E+01  0.241407338550E+01  0.257173545958E+01  0.273956110577E+01
  0.291818729565E+01  0.310828841365E+01  0.331057810267E+01  0.352581114867E+01  0.375478539625E+01
  0.399834368489E+01  0.425737579377E+01  0.453282038035E+01  0.482566689515E+01  0.513695745171E+01
  0.546778862735E+01  0.581931316566E+01  0.619274154742E+01  0.658934339065E+01  0.701044863497E+01
  0.745744845822E+01  0.793179586586E+01  0.843500588493E+01  0.896865528506E+01  0.953438173823E+01
  0.101338823173E+02  0.107689112205E+02  0.114412765952E+02  0.121528363174E+02  0.129054925698E+02
  0.137011850378E+02  0.145418825298E+02  0.154295728015E+02  0.163662503456E+02  0.173539018839E+02
  0.183944892756E+02  0.194899295314E+02  0.206420715992E+02  0.218526695647E+02  0.231233518887E+02
  0.244555862843E+02  0.258506398236E+02  0.273095338555E+02  0.288329933150E+02  0.304213900160E+02
  0.320746795437E+02  0.337923314042E+02  0.355732521519E+02  0.374157013058E+02  0.393171999890E+02
  0.412744323870E+02  0.432831403300E+02  0.453380115694E+02  0.474325626446E+02  0.495590176444E+02
  0.517081846484E+02  0.538693322210E+02  0.560300690129E+02  0.581762303232E+02  0.602917763925E+02
  0.623587082270E+02  0.643570079062E+02  0.662646115738E+02  0.680574246403E+02  0.697093900875E+02
  0.711926221126E+02  0.724776185817E+02  0.735335667823E+02  0.743287576030E+02  0.748311233427E+02
  0.750089135968E+02  0.748315217950E+02  0.742704715944E+02  0.733005670387E+02  0.719012026996E+02
  0.700578193880E+02  0.677634769297E+02  0.650204974301E+02  0.618421100034E+02  0.582540008927E+02
  0.542956413853E+02  0.500212305416E+02  0.455000518611E+02  0.408160049426E+02  0.360660385995E+02
  0.313571860671E+02  0.268018931257E+02  0.225113456707E+02  0.185865563100E+02  0.151070740003E+02
  0.121173521546E+02  0.961164500276E+01  0.754129347997E+01  0.585182928650E+01  0.449027423413E+01
  0.340658120473E+01  0.255476090374E+01  0.189356511448E+01  0.138679879669E+01  0.100333644189E+01
  0.716915842028E+00  0.505776335953E+00  0.352200075049E+00  0.242004991026E+00  0.164027935079E+00
  0.109626580860E+00  0.722196918235E-01  0.468776075202E-01  0.299684852559E-01  0.188609834301E-01
  0.116806180110E-01  0.711479024656E-02  0.426026951372E-02  0.250648832664E-02  0.144815129745E-02
  0.821181086178E-03  0.456760986816E-03  0.249059887997E-03  0.133049867745E-03  0.695895069326E-04
  0.356128077798E-04  0.178200116195E-04  0.871257897765E-05  0.415921399166E-05  0.193722926373E-05
  0.879681213516E-06  0.389136986030E-06  0.167555626093E-06  0.701662490675E-07  0.285515474724E-07
  0.112789214289E-07  0.432146009222E-08  0.160431758285E-08  0.576503400214E-09
 local pseudopotential core
 -0.633753571646E+03 -0.633755363159E+03 -0.633757098238E+03 -0.633758778656E+03 -0.633760406137E+03
 -0.633761982346E+03 -0.633763508896E+03 -0.633764987351E+03 -0.633766419222E+03 -0.633767805977E+03
 -0.633769149034E+03 -0.633770449769E+03 -0.633771709512E+03 -0.633772929552E+03 -0.633774111138E+03
 -0.633775255479E+03 -0.633776363747E+03 -0.633777437074E+03 -0.633778476557E+03 -0.633779483262E+03
 -0.633780458217E+03 -0.633781402420E+03 -0.633782316835E+03 -0.633783202398E+03 -0.633784060012E+03
 -0.633784890555E+03 -0.633785694875E+03 -0.633786473794E+03 -0.633787228107E+03 -0.633787958583E+03
 -0.633788665969E+03 -0.633789350985E+03 -0.633790014330E+03 -0.633790656681E+03 -0.633791278692E+03
 -0.633791880994E+03 -0.633792464203E+03 -0.633793028910E+03 -0.633793575690E+03 -0.633794105098E+03
 -0.633794617670E+03 -0.633795113927E+03 -0.633795594370E+03 -0.633796059486E+03 -0.633796509744E+03
 -0.633796945598E+03 -0.633797367487E+03 -0.633797775835E+03 -0.633798171051E+03 -0.633798553532E+03
 -0.633798923660E+03 -0.633799281803E+03 -0.633799628316E+03 -0.633799963543E+03 -0.633800287816E+03
 -0.633800601451E+03 -0.633800904757E+03 -0.633801198028E+03 -0.633801481550E+03 -0.633801755594E+03
 -0.633802020424E+03 -0.633802276291E+03 -0.633802523436E+03 -0.633802762089E+03 -0.633802992472E+03
 -0.633803214795E+03 -0.633803429259E+03 -0.633803636055E+03 -0.633803835363E+03 -0.633804027355E+03
 -0.633804212193E+03 -0.633804390028E+03 -0.633804561004E+03 -0.633804725254E+03 -0.633804882899E+03
 -0.633805034054E+03 -0.633805178823E+03 -0.633805317298E+03 -0.633805449564E+03 -0.633805575694E+03
 -0.633805695751E+03 -0.633805809787E+03 -0.633805917844E+03 -0.633806019952E+03 -0.633806116131E+03
 -0.633806206388E+03 -0.633806290717E+03 -0.633806369103E+03 -0.633806441515E+03 -0.633806507909E+03
 -0.633806568228E+03 -0.633806622400E+03 -0.633806670338E+03 -0.633806711938E+03 -0.633806747082E+03
 -0.633806775632E+03 -0.633806797434E+03 -0.633806812313E+03 -0.633806820075E+03 -0.633806820506E+03
 -0.633806813367E+03 -0.633806798397E+03 -0.633806775312E+03 -0.633806743798E+03 -0.633806703516E+03
 -0.633806654098E+03 -0.633806595143E+03 -0.633806526218E+03 -0.633806446856E+03 -0.633806356552E+03
 -0.633806254762E+03 -0.633806140902E+03 -0.633806014341E+03 -0.633805874404E+03 -0.633805720363E+03
 -0.633805551440E+03 -0.633805366799E+03 -0.633805165545E+03 -0.633804946719E+03 -0.633804709293E+03
 -0.633804452170E+03 -0.633804174172E+03 -0.633803874043E+03 -0.633803550439E+03 -0.633803201922E+03
 -0.633802826958E+03 -0.633802423905E+03 -0.633801991011E+03 -0.633801526406E+03 -0.633801028090E+03
 -0.633800493931E+03 -0.633799921652E+03 -0.633799308821E+03 -0.633798652845E+03 -0.633797950955E+03
 -0.633797200198E+03 -0.633796397422E+03 -0.633795539265E+03 -0.633794622140E+03 -0.633793642221E+03
 -0.633792595427E+03 -0.633791477405E+03 -0.633790283511E+03 -0.633789008795E+03 -0.633787647975E+03
 -0.633786195419E+03 -0.633784645123E+03 -0.633782990681E+03 -0.633781225265E+03 -0.633779341592E+03
 -0.633777331897E+03 -0.633775187902E+03 -0.633772900777E+03 -0.633770461110E+03 -0.633767858864E+03
 -0.633765083340E+03 -0.633762123127E+03 -0.633758966063E+03 -0.633755599177E+03 -0.633752008645E+03
 -0.633748179723E+03 -0.633744096695E+03 -0.633739742807E+03 -0.633735100195E+03 -0.633730149815E+03
 -0.633724871364E+03 -0.633719243196E+03 -0.633713242236E+03 -0.633706843886E+03 -0.633700021918E+03
 -0.633692748377E+03 -0.633684993456E+03 -0.633676725383E+03 -0.633667910286E+03 -0.633658512059E+03
 -0.633648492208E+03 -0.633637809700E+03 -0.633626420794E+03 -0.633614278860E+03 -0.633601334193E+03
 -0.633587533806E+03 -0.633572821218E+03 -0.633557136221E+03 -0.633540414637E+03 -0.633522588053E+03
 -0.633503583548E+03 -0.633483323393E+03 -0.633461724735E+03 -0.633438699262E+03 -0.633414152844E+03
 -0.633387985149E+03 -0.633360089238E+03 -0.633330351133E+03 -0.633298649352E+03 -0.633264854420E+03
 -0.633228828345E+03 -0.633190424060E+03 -0.633149484830E+03 -0.633105843621E+03 -0.633059322425E+03
 -0.633009731546E+03 -0.632956868837E+03 -0.632900518892E+03 -0.632840452177E+03 -0.632776424118E+03
 -0.632708174119E+03 -0.632635424528E+03 -0.632557879528E+03 -0.632475223966E+03 -0.632387122100E+03
 -0.632293216273E+03 -0.632193125504E+03 -0.632086443985E+03 -0.631972739492E+03 -0.631851551694E+03
 -0.631722390355E+03 -0.631584733431E+03 -0.631438025046E+03 -0.631281673350E+03 -0.631115048244E+03
 -0.630937478969E+03 -0.630748251554E+03 -0.630546606112E+03 -0.630331733978E+03 -0.630102774678E+03
 -0.629858812733E+03 -0.629598874271E+03 -0.629321923456E+03 -0.629026858718E+03 -0.628712508780E+03
 -0.628377628464E+03 -0.628020894285E+03 -0.627640899815E+03 -0.627236150811E+03 -0.626805060105E+03
 -0.626345942244E+03 -0.625857007892E+03 -0.625336357968E+03 -0.624781977540E+03 -0.624191729461E+03
 -0.623563347764E+03 -0.622894430808E+03 -0.622182434197E+03 -0.621424663470E+03 -0.620618266602E+03
 -0.619760226313E+03 -0.618847352232E+03 -0.617876272944E+03 -0.616843427968E+03 -0.615745059704E+03
 -0.614577205439E+03 -0.613335689451E+03 -0.612016115335E+03 -0.610613858616E+03 -0.609124059798E+03
 -0.607541617973E+03 -0.605861185142E+03 -0.604077161444E+03 -0.602183691483E+03 -0.600174662004E+03
 -0.598043701165E+03 -0.595784179727E+03 -0.593389214470E+03 -0.590851674231E+03 -0.588164188973E+03
 -0.585319162338E+03 -0.582308788202E+03 -0.579125071776E+03 -0.575759855861E+03 -0.572204852906E+03
 -0.568451683560E+03 -0.564491922470E+03 -0.560317152092E+03 -0.555919025330E+03 -0.551289337830E+03
 -0.546420110776E+03 -0.541303684985E+03 -0.535932827121E+03 -0.530300848730E+03 -0.524401738733E+03
 -0.518230309850E+03 -0.511782359280E+03 -0.505054843663E+03 -0.498046068096E+03 -0.490755888563E+03
 -0.483185926658E+03 -0.475339794891E+03 -0.467223329932E+03 -0.458844829881E+03 -0.450215289235E+03
 -0.441348620856E+03 -0.432261845520E+03 -0.422975212278E+03 -0.413512178878E+03 -0.403899117544E+03
 -0.394164499841E+03 -0.384337146119E+03 -0.374442949113E+03 -0.364499524675E+03 -0.354509076958E+03
 -0.344452194931E+03 -0.334289216743E+03 -0.324177297899E+03 -0.314288411787E+03 -0.304663226788E+03
 -0.295403944160E+03 -0.286451528170E+03 -0.277239696959E+03 -0.267222341625E+03 -0.258746538344E+03
 -0.250647208678E+03 -0.242822768197E+03 -0.235246582778E+03 -0.227895358618E+03 -0.220744513769E+03
 -0.213786561002E+03 -0.207053253206E+03 -0.200532019072E+03 -0.194216300069E+03 -0.188099581107E+03
 -0.182175564262E+03 -0.176438158040E+03 -0.170881471659E+03 -0.165499802650E+03 -0.160287632860E+03
 -0.155239619461E+03 -0.150350589832E+03 -0.145615535177E+03 -0.141029605139E+03 -0.136588102595E+03
 -0.132286478547E+03 -0.128120327590E+03 -0.124085383030E+03 -0.120177512394E+03 -0.116392713900E+03
 -0.112727111849E+03 -0.109176951965E+03 -0.105738598663E+03 -0.102408530735E+03 -0.991833378852E+02
 -0.960597171942E+02 -0.930344698121E+02 -0.901044975696E+02 -0.872667999569E+02 -0.845184709192E+02
 -0.818566959527E+02 -0.792787491998E+02 -0.767819906635E+02 -0.743638634855E+02
 pspotential valence only
 -0.512087057116E+03 -0.512088848657E+03 -0.512090583764E+03 -0.512092264214E+03 -0.512093891728E+03
 -0.512095467972E+03 -0.512096994559E+03 -0.512098473053E+03 -0.512099904967E+03 -0.512101291768E+03
 -0.512102634873E+03 -0.512103935660E+03 -0.512105195458E+03 -0.512106415556E+03 -0.512107597205E+03
 -0.512108741613E+03 -0.512109849952E+03 -0.512110923354E+03 -0.512111962918E+03 -0.512112969709E+03
 -0.512113944756E+03 -0.512114889057E+03 -0.512115803576E+03 -0.512116689250E+03 -0.512117546983E+03
 -0.512118377652E+03 -0.512119182107E+03 -0.512119961170E+03 -0.512120715635E+03 -0.512121446275E+03
 -0.512122153834E+03 -0.512122839036E+03 -0.512123502579E+03 -0.512124145141E+03 -0.512124767376E+03
 -0.512125369918E+03 -0.512125953382E+03 -0.512126518362E+03 -0.512127065433E+03 -0.512127595150E+03
 -0.512128108052E+03 -0.512128604661E+03 -0.512129085479E+03 -0.512129550994E+03 -0.512130001679E+03
 -0.512130437987E+03 -0.512130860361E+03 -0.512131269225E+03 -0.512131664992E+03 -0.512132048061E+03
 -0.512132418814E+03 -0.512132777624E+03 -0.512133124849E+03 -0.512133460834E+03 -0.512133785915E+03
 -0.512134100412E+03 -0.512134404637E+03 -0.512134698888E+03 -0.512134983454E+03 -0.512135258612E+03
 -0.512135524628E+03 -0.512135781761E+03 -0.512136030254E+03 -0.512136270346E+03 -0.512136502262E+03
 -0.512136726220E+03 -0.512136942426E+03 -0.512137151080E+03 -0.512137352368E+03 -0.512137546471E+03
 -0.512137733560E+03 -0.512137913796E+03 -0.512138087330E+03 -0.512138254307E+03 -0.512138414860E+03
 -0.512138569115E+03 -0.512138717188E+03 -0.512138859187E+03 -0.512138995209E+03 -0.512139125343E+03
 -0.512139249668E+03 -0.512139368255E+03 -0.512139481164E+03 -0.512139588445E+03 -0.512139690138E+03
 -0.512139786274E+03 -0.512139876871E+03 -0.512139961939E+03 -0.512140041474E+03 -0.512140115462E+03
 -0.512140183877E+03 -0.512140246680E+03 -0.512140303819E+03 -0.512140355229E+03 -0.512140400830E+03
 -0.512140440530E+03 -0.512140474217E+03 -0.512140501768E+03 -0.512140523039E+03 -0.512140537872E+03
 -0.512140546086E+03 -0.512140547486E+03 -0.512140541850E+03 -0.512140528940E+03 -0.512140508492E+03
 -0.512140480217E+03 -0.512140443803E+03 -0.512140398910E+03 -0.512140345167E+03 -0.512140282176E+03
 -0.512140209505E+03 -0.512140126687E+03 -0.512140033220E+03 -0.512139928564E+03 -0.512139812137E+03
 -0.512139683313E+03 -0.512139541422E+03 -0.512139385743E+03 -0.512139215503E+03 -0.512139029876E+03
 -0.512138827974E+03 -0.512138608848E+03 -0.512138371481E+03 -0.512138114788E+03 -0.512137837603E+03
 -0.512137538686E+03 -0.512137216706E+03 -0.512136870244E+03 -0.512136497783E+03 -0.512136097701E+03
 -0.512135668269E+03 -0.512135207637E+03 -0.512134713833E+03 -0.512134184751E+03 -0.512133618141E+03
 -0.512133011605E+03 -0.512132362582E+03 -0.512131668340E+03 -0.512130925963E+03 -0.512130132342E+03
 -0.512129284158E+03 -0.512128377872E+03 -0.512127409709E+03 -0.512126375642E+03 -0.512125271376E+03
 -0.512124092331E+03 -0.512122833621E+03 -0.512121490037E+03 -0.512120056023E+03 -0.512118525656E+03
 -0.512116892616E+03 -0.512115150169E+03 -0.512113291131E+03 -0.512111307843E+03 -0.512109192139E+03
 -0.512106935311E+03 -0.512104528076E+03 -0.512101960535E+03 -0.512099222134E+03 -0.512096301621E+03
 -0.512093187000E+03 -0.512089865481E+03 -0.512086323427E+03 -0.512082546303E+03 -0.512078518608E+03
 -0.512074223819E+03 -0.512069644322E+03 -0.512064761336E+03 -0.512059554842E+03 -0.512054003496E+03
 -0.512048084546E+03 -0.512041773734E+03 -0.512035045204E+03 -0.512027871389E+03 -0.512020222905E+03
 -0.512012068425E+03 -0.512003374557E+03 -0.511994105703E+03 -0.511984223916E+03 -0.511973688747E+03
 -0.511962457076E+03 -0.511950482940E+03 -0.511937717346E+03 -0.511924108068E+03 -0.511909599438E+03
 -0.511894132118E+03 -0.511877642862E+03 -0.511860064253E+03 -0.511841324436E+03 -0.511821346823E+03
 -0.511800049783E+03 -0.511777346312E+03 -0.511753143681E+03 -0.511727343060E+03 -0.511699839121E+03
 -0.511670519610E+03 -0.511639264898E+03 -0.511605947496E+03 -0.511570431544E+03 -0.511532572263E+03
 -0.511492215379E+03 -0.511449196498E+03 -0.511403340456E+03 -0.511354460613E+03 -0.511302358112E+03
 -0.511246821087E+03 -0.511187623822E+03 -0.511124525856E+03 -0.511057271030E+03 -0.510985586482E+03
 -0.510909181568E+03 -0.510827746721E+03 -0.510740952247E+03 -0.510648447028E+03 -0.510549857170E+03
 -0.510444784543E+03 -0.510332805252E+03 -0.510213468007E+03 -0.510086292395E+03 -0.509950767054E+03
 -0.509806347734E+03 -0.509652455246E+03 -0.509488473296E+03 -0.509313746192E+03 -0.509127576416E+03
 -0.508929222071E+03 -0.508717894178E+03 -0.508492753825E+03 -0.508252909176E+03 -0.507997412302E+03
 -0.507725255870E+03 -0.507435369648E+03 -0.507126616848E+03 -0.506797790289E+03 -0.506447608382E+03
 -0.506074710942E+03 -0.505677654806E+03 -0.505254909288E+03 -0.504804851440E+03 -0.504325761154E+03
 -0.503815816090E+03 -0.503273086451E+03 -0.502695529616E+03 -0.502080984642E+03 -0.501427166663E+03
 -0.500731661210E+03 -0.499991918482E+03 -0.499205247609E+03 -0.498368810944E+03 -0.497479618459E+03
 -0.496534522280E+03 -0.495530211467E+03 -0.494463207098E+03 -0.493329857778E+03 -0.492126335685E+03
 -0.490848633278E+03 -0.489492560832E+03 -0.488053744972E+03 -0.486527628398E+03 -0.484909471024E+03
 -0.483194352801E+03 -0.481377178475E+03 -0.479452684621E+03 -0.477415449290E+03 -0.475259904657E+03
 -0.472980353090E+03 -0.470570987116E+03 -0.468025913776E+03 -0.465339183916E+03 -0.462504827011E+03
 -0.459516892116E+03 -0.456369495624E+03 -0.453056876489E+03 -0.449573459612E+03 -0.445913928097E+03
 -0.442073305048E+03 -0.438047045576E+03 -0.433831139600E+03 -0.429422225971E+03 -0.424817718285E+03
 -0.420015942630E+03 -0.415016287242E+03 -0.409819363835E+03 -0.404427179972E+03 -0.398843321457E+03
 -0.393073143224E+03 -0.387123966507E+03 -0.381005279210E+03 -0.374728934973E+03 -0.368309344111E+03
 -0.361763645105E+03 -0.355111836650E+03 -0.348376832873E+03 -0.341584370386E+03 -0.334762631873E+03
 -0.327941339414E+03 -0.321149902578E+03 -0.314414030485E+03 -0.307750260604E+03 -0.301158691582E+03
 -0.294616637188E+03 -0.288079838453E+03 -0.281500128742E+03 -0.274863016645E+03 -0.268230066035E+03
 -0.261723088032E+03 -0.255301407254E+03 -0.248415887666E+03 -0.240536390710E+03 -0.234024841569E+03
 -0.227729957444E+03 -0.221562982247E+03 -0.215509236595E+03 -0.209556600825E+03 -0.203690962812E+03
 -0.197914659759E+03 -0.192268648085E+03 -0.186748950624E+03 -0.181356985848E+03 -0.176093588356E+03
 -0.170959183830E+03 -0.165953787877E+03 -0.161077019433E+03 -0.156328127024E+03 -0.151706015159E+03
 -0.147209276852E+03 -0.142836216560E+03 -0.138584869502E+03 -0.134453012590E+03 -0.130438172196E+03
 -0.126537632443E+03 -0.122748451063E+03 -0.119067488741E+03 -0.115491457282E+03 -0.112016983163E+03
 -0.108640694911E+03 -0.105359312026E+03 -0.102169733702E+03 -0.990691190094E+02 -0.960549444022E+02
 -0.931250354354E+02 -0.902775696201E+02 -0.875110507809E+02 -0.848242574403E+02 -0.822161693630E+02
 -0.796858777873E+02 -0.772324864916E+02 -0.748550125995E+02 -0.725522974764E+02
 core charge-density (pseudized)
  0.179606555317E-07  0.191477183260E-07  0.204132369461E-07  0.217623967254E-07  0.232007257086E-07
  0.247341173018E-07  0.263688544207E-07  0.281116352337E-07  0.299696006073E-07  0.319503633649E-07
  0.340620394795E-07  0.363132813283E-07  0.387133131446E-07  0.412719688135E-07  0.439997321648E-07
  0.469077799297E-07  0.500080275365E-07  0.533131779321E-07  0.568367736318E-07  0.605932522078E-07
  0.645980054458E-07  0.688674424114E-07  0.734190566843E-07  0.782714980364E-07  0.834446488474E-07
  0.889597055707E-07  0.948392655836E-07  0.101107419777E-06  0.107789851268E-06  0.114913940628E-06
  0.122508878079E-06  0.130605783091E-06  0.139237831895E-06  0.148440393416E-06  0.158251174195E-06
  0.168710372887E-06  0.179860844971E-06  0.191748278344E-06  0.204421380525E-06  0.217932078224E-06
  0.232335730112E-06  0.247691353640E-06  0.264061866862E-06  0.281514346232E-06  0.300120301441E-06
  0.319955968422E-06  0.341102621715E-06  0.363646907481E-06  0.387681198527E-06  0.413303972787E-06
  0.440620216828E-06  0.469741856014E-06  0.500788213114E-06  0.533886497203E-06  0.569172324891E-06
  0.606790275992E-06  0.646894485921E-06  0.689649277242E-06  0.735229832959E-06  0.783822914303E-06
  0.835627625956E-06  0.890856231863E-06  0.949735024940E-06  0.101250525429E-05  0.107942411366E-05
  0.115076579528E-05  0.122682261331E-05  0.130790620154E-05  0.139434879027E-05  0.148650456755E-05
  0.158475113043E-05  0.168949103206E-05  0.180115343111E-05  0.192019585013E-05  0.204710605018E-05
  0.218240402933E-05  0.232664415322E-05  0.248041742648E-05  0.264435391421E-05  0.281912532353E-05
  0.300544775573E-05  0.320408464034E-05  0.341584986304E-05  0.364161110033E-05  0.388229337462E-05
  0.413888284419E-05  0.441243084370E-05  0.470405819166E-05  0.501495978259E-05  0.534640948270E-05
  0.569976534906E-05  0.607647519369E-05  0.647808251538E-05  0.690623282351E-05  0.736268037975E-05
  0.784929538533E-05  0.836807164321E-05  0.892113472664E-05  0.951075068750E-05  0.101393353401E-04
  0.108094641585E-04  0.115238828277E-04  0.122855184923E-04  0.130974917483E-04  0.139631294274E-04
  0.148859782256E-04  0.158698192331E-04  0.169186834235E-04  0.180368681674E-04  0.192289548354E-04
  0.204998275662E-04  0.218546932734E-04  0.232991029741E-04  0.248389745273E-04  0.264806168741E-04
  0.282307558792E-04  0.300965618796E-04  0.320856790534E-04  0.342062567282E-04  0.364669827578E-04
  0.388771191032E-04  0.414465397644E-04  0.441857712166E-04  0.471060355176E-04  0.502192962614E-04
  0.535383075670E-04  0.570766663018E-04  0.608488677535E-04  0.648703649768E-04  0.691576320600E-04
  0.737282315658E-04  0.786008864265E-04  0.837955565822E-04  0.893335206790E-04  0.952374631572E-04
  0.101531567087E-03  0.108241613131E-03  0.115395085031E-03  0.123021282056E-03  0.131151438869E-03
  0.139818853297E-03  0.149059022520E-03  0.158909788248E-03  0.169411491461E-03  0.180607137349E-03
  0.192542571123E-03  0.205266665398E-03  0.218831519932E-03  0.233292674507E-03  0.248709335829E-03
  0.265144619359E-03  0.282665807057E-03  0.301344622084E-03  0.321257521557E-03  0.342486008559E-03
  0.365116964642E-03  0.389243004180E-03  0.414962851982E-03  0.442381745684E-03  0.471611864547E-03
  0.502772786361E-03  0.535991974294E-03  0.571405295626E-03  0.609157574433E-03  0.649403180425E-03
  0.692306656274E-03  0.738043385916E-03  0.786800306465E-03  0.838776666560E-03  0.894184834110E-03
  0.953251156618E-03  0.101621687744E-02  0.108333911157E-02  0.115489188469E-02  0.123116723956E-02
  0.131247641404E-02  0.139915109513E-02  0.149154475399E-02  0.159003406688E-02  0.169502042750E-02
  0.180693155635E-02  0.192622321313E-02  0.205338101861E-02  0.218892239256E-02  0.233339861501E-02
  0.248739701819E-02  0.265154331701E-02  0.282650408660E-02  0.301298939541E-02  0.321175560320E-02
  0.342360833354E-02  0.364940563091E-02  0.389006131307E-02  0.414654852969E-02  0.441990353886E-02
  0.471122971350E-02  0.502170179025E-02  0.535257037377E-02  0.570516670995E-02  0.608090774188E-02
  0.648130146289E-02  0.690795258117E-02  0.736256851106E-02  0.784696570597E-02  0.836307634831E-02
  0.891295541166E-02  0.949878811050E-02  0.101228977523E-01  0.107877540068E-01  0.114959816058E-01
  0.122503694871E-01  0.130538803941E-01  0.139096609415E-01  0.148210521546E-01  0.157916004901E-01
  0.168250693386E-01  0.179254510112E-01  0.190969792032E-01  0.203441419257E-01  0.216716948900E-01
  0.230846753202E-01  0.245884161639E-01  0.261885606601E-01  0.278910772104E-01  0.297022744911E-01
  0.316288167225E-01  0.336777390005E-01  0.358564625714E-01  0.381728099110E-01  0.406350194397E-01
  0.432517596805E-01  0.460321426289E-01  0.489857360684E-01  0.521225745213E-01  0.554531684770E-01
  0.589885114847E-01  0.627400846377E-01  0.667198579089E-01  0.709402877186E-01  0.754143100370E-01
  0.801553282253E-01  0.851771947209E-01  0.904941855586E-01  0.961209665964E-01  0.102072550182E+00
  0.108364240852E+00  0.115011568502E+00  0.122030207296E+00  0.129435878420E+00  0.137244234593E+00
  0.145470724064E+00  0.154130431643E+00  0.163237894114E+00  0.172806887202E+00  0.182850181103E+00
  0.193379261443E+00  0.204404012410E+00  0.215932358757E+00  0.227969863368E+00  0.240519277161E+00
  0.253580038316E+00  0.267147718131E+00  0.281213411328E+00  0.295763069357E+00  0.310776776223E+00
  0.326227967645E+00  0.342082596055E+00  0.358298246022E+00  0.374823207324E+00  0.391595516097E+00
  0.408541978381E+00  0.425577194995E+00  0.442602612153E+00  0.459505628556E+00  0.476158796987E+00
  0.492419166645E+00  0.508127821572E+00  0.523109680447E+00  0.537173633563E+00  0.550113103574E+00
  0.561707127275E+00  0.571722065388E+00  0.579914055348E+00  0.586032327028E+00  0.589823501777E+00
  0.591036988946E+00  0.589431578953E+00  0.584783304838E+00  0.576894601884E+00  0.565604733272E+00
  0.550801364881E+00  0.532433059824E+00  0.510522319232E+00  0.485178616911E+00  0.456610660176E+00
  0.425136858383E+00  0.391192699559E+00  0.355333434783E+00  0.318230168478E+00  0.280657179667E+00
  0.243468096798E+00  0.207558474922E+00  0.173812454381E+00  0.143031609110E+00  0.115844931619E+00
  0.926002747203E-01  0.732429748900E-01  0.573511109317E-01  0.444475272298E-01  0.340867861690E-01
  0.258615410840E-01  0.194063632640E-01  0.143992872760E-01  0.105614750393E-01  0.765540826479E-02
  0.548200472046E-02  0.387702157580E-02  0.270706410411E-02  0.186546543508E-02  0.126824744776E-02
  0.850318266502E-03  0.562011288308E-03  0.366026455544E-03  0.234797895613E-03  0.148283552128E-03
  0.921518144062E-04  0.563266888096E-04  0.338456938844E-04  0.199821882594E-04  0.115850183587E-04
  0.659204491501E-05  0.367926517471E-05  0.201307198064E-05  0.107906240108E-05  0.566299895712E-06
  0.290786578917E-06  0.145994616859E-06  0.716195411199E-07  0.343041322614E-07  0.160309522520E-07
  0.730359980425E-08  0.324141313156E-08  0.140021256548E-08  0.588226624447E-09  0.240105031470E-09
  0.951400957316E-10  0.365608315391E-10  0.136121668984E-10  0.490512006454E-11
 pseudo wavefunction
  0.185754754288E-07  0.198031731484E-07  0.211120123538E-07  0.225073558805E-07  0.239949210062E-07
  0.255808028774E-07  0.272714994834E-07  0.290739382812E-07  0.309955045800E-07  0.330440718015E-07
  0.352280337410E-07  0.375563389598E-07  0.400385274507E-07  0.426847697278E-07  0.455059084986E-07
  0.485135030909E-07  0.517198768164E-07  0.551381674638E-07  0.587823811294E-07  0.626674496061E-07
  0.668092915646E-07  0.712248777783E-07  0.759323006598E-07  0.809508483919E-07  0.863010839600E-07
  0.920049294055E-07  0.980857556501E-07  0.104568478255E-06  0.111479659511E-06  0.118847617272E-06
  0.126702540988E-06  0.135076615400E-06  0.144004152417E-06  0.153521731699E-06  0.163668350547E-06
  0.174485583684E-06  0.186017753604E-06  0.198312112181E-06  0.211419034274E-06  0.225392224138E-06
  0.240288935467E-06  0.256170205987E-06  0.273101107549E-06  0.291151012757E-06  0.310393879212E-06
  0.330908552545E-06  0.352779089479E-06  0.376095102241E-06  0.400952125739E-06  0.427452009003E-06
  0.455703332504E-06  0.485821853042E-06  0.517930978053E-06  0.552162271253E-06  0.588655991705E-06
  0.627561668513E-06  0.669038713498E-06  0.713257074369E-06  0.760397931063E-06  0.810654438106E-06
  0.864232516035E-06  0.921351695136E-06  0.982246014935E-06  0.104716498315E-05  0.111637459799E-05
  0.119015843810E-05  0.126881882440E-05  0.135267805890E-05  0.144207974519E-05  0.153739019636E-05
  0.163899993591E-05  0.174732529782E-05  0.186281013244E-05  0.198592762510E-05  0.211718223487E-05
  0.225711176153E-05  0.240628954907E-05  0.256532683491E-05  0.273487525425E-05  0.291562951011E-05
  0.310833021964E-05  0.331376694872E-05  0.353278144697E-05  0.376627109667E-05  0.401519258955E-05
  0.428056584661E-05  0.456347819699E-05  0.486508883298E-05  0.518663355956E-05  0.552942985767E-05
  0.589488228227E-05  0.628448821702E-05  0.669984400932E-05  0.714265151086E-05  0.761472505025E-05
  0.811799886664E-05  0.865453503447E-05  0.922653191198E-05  0.983633314803E-05  0.104864372841E-04
  0.111795079911E-04  0.119183849819E-04  0.127060956463E-04  0.135458674533E-04  0.144411411745E-04
  0.153955849800E-04  0.164131094664E-04  0.174978836782E-04  0.186543521868E-04  0.198872532993E-04
  0.212016384696E-04  0.226028929922E-04  0.240967580641E-04  0.256893543031E-04  0.273872068214E-04
  0.291972719551E-04  0.311269657596E-04  0.331841943879E-04  0.353773864762E-04  0.377155276683E-04
  0.402081974218E-04  0.428656082447E-04  0.456986475246E-04  0.487189221211E-04  0.519388059035E-04
  0.553714904281E-04  0.590310389639E-04  0.629324440852E-04  0.670916890686E-04  0.715258133446E-04
  0.762529822716E-04  0.812925615167E-04  0.866651963487E-04  0.923928961661E-04  0.984991246054E-04
  0.105008895599E-03  0.111948875773E-03  0.119347493604E-03  0.127235055783E-03  0.135643871252E-03
  0.144608383434E-03  0.154165311182E-03  0.164353799029E-03  0.175215577348E-03  0.186795133079E-03
  0.199139891710E-03  0.212300411263E-03  0.226330589065E-03  0.241287882155E-03  0.257233542207E-03
  0.274232865947E-03  0.292355462053E-03  0.311675535648E-03  0.332272191519E-03  0.354229757301E-03
  0.377638127936E-03  0.402593132796E-03  0.429196926952E-03  0.457558408181E-03  0.487793661381E-03
  0.520026432194E-03  0.554388631742E-03  0.591020874506E-03  0.630073051508E-03  0.671704941099E-03
  0.716086859798E-03  0.763400355787E-03  0.813838947831E-03  0.867608912568E-03  0.924930123311E-03
  0.986036943679E-03  0.105117917961E-02  0.112062309354E-02  0.119465248469E-02  0.127356983976E-02
  0.135769755861E-02  0.144737925953E-02  0.154298116941E-02  0.164489360408E-02  0.175353254458E-02
  0.186934131552E-02  0.199279237180E-02  0.212438920077E-02  0.226466834686E-02  0.241420156643E-02
  0.257359812100E-02  0.274350721742E-02  0.292462060397E-02  0.311767533212E-02  0.332345669404E-02
  0.354280134647E-02  0.377660063233E-02  0.402580411191E-02  0.429142331604E-02  0.457453573458E-02
  0.487628905385E-02  0.519790565752E-02  0.554068740618E-02  0.590602071145E-02  0.629538192105E-02
  0.671034303234E-02  0.715257775209E-02  0.762386792121E-02  0.812611032382E-02  0.866132390048E-02
  0.923165738615E-02  0.983939739404E-02  0.104869769667E-01  0.111769846162E-01  0.119121738759E-01
  0.126954733852E-01  0.135299975305E-01  0.144190576627E-01  0.153661739144E-01  0.163750876356E-01
  0.174497744681E-01  0.185944580758E-01  0.198136245474E-01  0.211120374833E-01  0.224947537773E-01
  0.239671400992E-01  0.255348900781E-01  0.272040421827E-01  0.289809982862E-01  0.308725428958E-01
  0.328858630170E-01  0.350285686120E-01  0.373087135971E-01  0.397348173097E-01  0.423158863572E-01
  0.450614367387E-01  0.479815161083E-01  0.510867260200E-01  0.543882439641E-01  0.578978449679E-01
  0.616279224959E-01  0.655915083355E-01  0.698022911053E-01  0.742746329613E-01  0.790235840150E-01
  0.840648938979E-01  0.894150198288E-01  0.950911304464E-01  0.101111104565E+00  0.107493523904E+00
  0.114257658703E+00  0.121423445018E+00  0.129011452318E+00  0.137042839861E+00  0.145539300127E+00
  0.154522987417E+00  0.164016429507E+00  0.174042420031E+00  0.184623889054E+00  0.195783749031E+00
  0.207544713156E+00  0.219929082799E+00  0.232958500576E+00  0.246653665291E+00  0.261034004874E+00
  0.276117303211E+00  0.291919276712E+00  0.308453096382E+00  0.325728851246E+00  0.343752949164E+00
  0.362527451377E+00  0.382049337704E+00  0.402309700048E+00  0.423292862945E+00  0.444975431321E+00
  0.467325267438E+00  0.490300401363E+00  0.513847882179E+00  0.537902580730E+00  0.562385958992E+00
  0.587204826287E+00  0.612250108595E+00  0.637395664223E+00  0.662497187077E+00  0.687391247780E+00
  0.711894532836E+00  0.735803352754E+00  0.758893501374E+00  0.780920560160E+00  0.801620752348E+00
  0.820712461977E+00  0.837898540765E+00  0.852869530397E+00  0.865307927319E+00  0.874893609591E+00
  0.881310528290E+00  0.884254736550E+00  0.883443784437E+00  0.878627443992E+00  0.869599642561E+00
  0.856211370701E+00  0.838384191088E+00  0.816123805759E+00  0.789532941934E+00  0.758822595821E+00
  0.724320438490E+00  0.686474953267E+00  0.645853663554E+00  0.603133656376E+00  0.559082554376E+00
  0.514528193293E+00  0.470315590307E+00  0.427250416934E+00  0.386029197256E+00  0.347157910353E+00
  0.310866184322E+00  0.277159416359E+00  0.246008267847E+00  0.217364061767E+00  0.191159194390E+00
  0.167309570350E+00  0.145717077091E+00  0.126272056755E+00  0.108855735354E+00  0.933425721603E-01
  0.796024965540E-01  0.675030044684E-01  0.569110916423E-01  0.476950058212E-01  0.397258046458E-01
  0.328787102658E-01  0.270342558076E-01  0.220792227473E-01  0.179073720862E-01  0.144199759243E-01
  0.115261595280E-01  0.914306715502E-02  0.719586761943E-02  0.561761774321E-02  0.434900337483E-02
  0.333797854081E-02  0.253932355889E-02  0.191414263293E-02  0.142932060918E-02  0.105695731034E-02
  0.773796192679E-03  0.560662074385E-03  0.401920422089E-03  0.284968245335E-03  0.199764138698E-03
  0.138402541795E-03  0.947349689081E-04  0.640388883975E-04  0.427331791362E-04
 ae wavefunction
 -0.549850766089E-05 -0.582433527241E-05 -0.616828944686E-05 -0.653145096920E-05 -0.691496222402E-05
 -0.732003093696E-05 -0.774793414779E-05 -0.820002241666E-05 -0.867772428062E-05 -0.918255098060E-05
 -0.971610146968E-05 -0.102800677272E-04 -0.108762403905E-04 -0.115065147319E-04 -0.121728969984E-04
 -0.128775111362E-04 -0.136226059295E-04 -0.144105625743E-04 -0.152439027159E-04 -0.161252969849E-04
 -0.170575740525E-04 -0.180437302493E-04 -0.190869397754E-04 -0.201905655422E-04 -0.213581706855E-04
 -0.225935307915E-04 -0.239006468832E-04 -0.252837592103E-04 -0.267473618992E-04 -0.282962185148E-04
 -0.299353785874E-04 -0.316701951785E-04 -0.335063435340E-04 -0.354498409077E-04 -0.375070676234E-04
 -0.396847894546E-04 -0.419901814047E-04 -0.444308529784E-04 -0.470148750375E-04 -0.497508083418E-04
 -0.526477338826E-04 -0.557152851213E-04 -0.589636822543E-04 -0.624037686343E-04 -0.660470494811E-04
 -0.699057330307E-04 -0.739927742742E-04 -0.783219214521E-04 -0.829077654767E-04 -0.877657924696E-04
 -0.929124396082E-04 -0.983651544927E-04 -0.104142458254E-03 -0.110264012635E-03 -0.116750691305E-03
 -0.123624655660E-03 -0.130909435397E-03 -0.138630014166E-03 -0.146812920607E-03 -0.155486325114E-03
 -0.164680142690E-03 -0.174426142255E-03 -0.184758062828E-03 -0.195711736996E-03 -0.207325222124E-03
 -0.219638939794E-03 -0.232695823967E-03 -0.246541478425E-03 -0.261224344021E-03 -0.276795876427E-03
 -0.293310734883E-03 -0.310826982789E-03 -0.329406300701E-03 -0.349114212607E-03 -0.370020326205E-03
 -0.392198588083E-03 -0.415727554675E-03 -0.440690679932E-03 -0.467176620743E-03 -0.495279561126E-03
 -0.525099556342E-03 -0.556742898076E-03 -0.590322501983E-03 -0.625958318835E-03 -0.663777770749E-03
 -0.703916213885E-03 -0.746517429173E-03 -0.791734142726E-03 -0.839728577582E-03 -0.890673038641E-03
 -0.944750532633E-03 -0.100215542513E-02 -0.106309413670E-02 -0.112778588035E-02 -0.119646344263E-02
 -0.126937401073E-02 -0.134678004817E-02 -0.142896022166E-02 -0.151621038203E-02 -0.160884460187E-02
 -0.170719627327E-02 -0.181161926849E-02 -0.192248916701E-02 -0.204020455244E-02 -0.216518838267E-02
 -0.229788943720E-02 -0.243878384531E-02 -0.258837669923E-02 -0.274720375626E-02 -0.291583323427E-02
 -0.309486770494E-02 -0.328494608919E-02 -0.348674575963E-02 -0.370098475469E-02 -0.392842410929E-02
 -0.416987030726E-02 -0.442617786031E-02 -0.469825201895E-02 -0.498705162040E-02 -0.529359207886E-02
 -0.561894852328E-02 -0.596425908799E-02 -0.633072836132E-02 -0.671963099729E-02 -0.713231549542E-02
 -0.757020815342E-02 -0.803481719743E-02 -0.852773709398E-02 -0.905065304783E-02 -0.960534568909E-02
 -0.101936959527E-01 -0.108176901529E-01 -0.114794252542E-01 -0.121811143401E-01 -0.129250922794E-01
 -0.137138215898E-01 -0.145498984954E-01 -0.154360591760E-01 -0.163751862023E-01 -0.173703151506E-01
 -0.184246413885E-01 -0.195415270209E-01 -0.207245079827E-01 -0.219773012632E-01 -0.233038122433E-01
 -0.247081421241E-01 -0.261945954200E-01 -0.277676874902E-01 -0.294321520716E-01 -0.311929487784E-01
 -0.330552705230E-01 -0.350245508110E-01 -0.371064708554E-01 -0.393069664500E-01 -0.416322345327E-01
 -0.440887393658E-01 -0.466832182475E-01 -0.494226866662E-01 -0.523144427929E-01 -0.553660712050E-01
 -0.585854457176E-01 -0.619807311921E-01 -0.655603841776E-01 -0.693331522306E-01 -0.733080717430E-01
 -0.774944640981E-01 -0.819019299581E-01 -0.865403414727E-01 -0.914198321855E-01 -0.965507843957E-01
 -0.101943813722E+00 -0.107609750598E+00 -0.113559618406E+00 -0.119804607961E+00 -0.126356048008E+00
 -0.133225371426E+00 -0.140424076760E+00 -0.147963684762E+00 -0.155855689533E+00 -0.164111503914E+00
 -0.172742398725E+00 -0.181759435462E+00 -0.191173392061E+00 -0.200994681334E+00 -0.211233261684E+00
 -0.221898539736E+00 -0.232999264503E+00 -0.244543412764E+00 -0.256538065336E+00 -0.268989273961E+00
 -0.281901918577E+00 -0.295279554804E+00 -0.309124251521E+00 -0.323436418492E+00 -0.338214624095E+00
 -0.353455403299E+00 -0.369153056135E+00 -0.385299437068E+00 -0.401883735787E+00 -0.418892250119E+00
 -0.436308151947E+00 -0.454111247219E+00 -0.472277731352E+00 -0.490779941612E+00 -0.509586108253E+00
 -0.528660106548E+00 -0.547961212028E+00 -0.567443861520E+00 -0.587057422721E+00 -0.606745975106E+00
 -0.626448104866E+00 -0.646096716377E+00 -0.665618862323E+00 -0.684935594344E+00 -0.703961835960E+00
 -0.722606280019E+00 -0.740771314123E+00 -0.758352979407E+00 -0.775240970631E+00 -0.791318687980E+00
 -0.806463352896E+00 -0.820546200958E+00 -0.833432764035E+00 -0.844983251614E+00 -0.855053037512E+00
 -0.863493254007E+00 -0.870151491856E+00 -0.874872602999E+00 -0.877499602937E+00 -0.877874671267E+00
 -0.875840249992E+00 -0.871240239532E+00 -0.863921291308E+00 -0.853734194189E+00 -0.840535350255E+00
 -0.824188333534E+00 -0.804565523725E+00 -0.781549805370E+00 -0.755036321117E+00 -0.724934265899E+00
 -0.691168706716E+00 -0.653682410381E+00 -0.612437659099E+00 -0.567418031154E+00 -0.518630121278E+00
 -0.466105172664E+00 -0.409900590122E+00 -0.350101301785E+00 -0.286820935194E+00 -0.220202772786E+00
 -0.150420451932E+00 -0.776783756668E-01 -0.221180194657E-02  0.757134190274E-01  0.155801489073E+00
  0.237727718564E+00  0.321140028575E+00  0.405660932870E+00  0.490890023654E+00  0.576406946663E+00
  0.661774765347E+00  0.746543481334E+00  0.830253352131E+00  0.912437654029E+00  0.992624825440E+00
  0.107034051043E+01  0.114511061139E+01  0.121646642197E+01  0.128395185908E+01  0.134713149727E+01
  0.140559786327E+01  0.145897734512E+01  0.150693496135E+01  0.154917846166E+01  0.158546203271E+01
  0.161558963138E+01  0.163941781673E+01  0.165685790166E+01  0.166787726699E+01  0.167249974079E+01
  0.167080501148E+01  0.166292710049E+01  0.164905196263E+01  0.162941430473E+01  0.160429373102E+01
  0.157401032940E+01  0.153891981458E+01  0.149940834551E+01  0.145588712729E+01  0.140878690414E+01
  0.135855244064E+01  0.130563707820E+01  0.125049744572E+01  0.119358839014E+01  0.113535818471E+01
  0.107624406160E+01  0.101666810939E+01  0.957033565049E+00  0.897721528815E+00  0.839088118445E+00
  0.781462077811E+00  0.725142849674E+00  0.670399113963E+00  0.617467788208E+00  0.566553479711E+00
  0.517828372391E+00  0.471432524984E+00  0.427474552029E+00  0.386032655028E+00  0.347155968519E+00
  0.310866184322E+00  0.277159416359E+00  0.246008267847E+00  0.217364061767E+00  0.191159194390E+00
  0.167309570350E+00  0.145717077091E+00  0.126272056755E+00  0.108855735354E+00  0.933425721603E-01
  0.796024965540E-01  0.675030044684E-01  0.569110916423E-01  0.476950058212E-01  0.397258046458E-01
  0.328787102658E-01  0.270342558076E-01  0.220792227473E-01  0.179073720862E-01  0.144199759243E-01
  0.115261595280E-01  0.914306715502E-02  0.719586761943E-02  0.561761774321E-02  0.434900337483E-02
  0.333797854081E-02  0.253932355889E-02  0.191414263293E-02  0.142932060918E-02  0.105695731034E-02
  0.773796192679E-03  0.560662074385E-03  0.401920422089E-03  0.284968245335E-03  0.199764138698E-03
  0.138402541795E-03  0.947349689081E-04  0.640388883975E-04  0.427331791362E-04
 pseudo wavefunction
 -0.188537231770E-08 -0.200998109406E-08 -0.214282556299E-08 -0.228445004111E-08 -0.243543482024E-08
 -0.259639854507E-08 -0.276800074797E-08 -0.295094455140E-08 -0.314597954884E-08 -0.335390487622E-08
 -0.357557248622E-08 -0.381189063914E-08 -0.406382762434E-08 -0.433241572774E-08 -0.461875546146E-08
 -0.492402007312E-08 -0.524946035302E-08 -0.559640975917E-08 -0.596628988099E-08 -0.636061626409E-08
 -0.678100462008E-08 -0.722917744676E-08 -0.770697108588E-08 -0.821634324734E-08 -0.875938103070E-08
 -0.933830947683E-08 -0.995550068478E-08 -0.106134835312E-07 -0.113149540320E-07 -0.120627863893E-07
 -0.128600447678E-07 -0.137099958500E-07 -0.146161222210E-07 -0.155821366381E-07 -0.166119972433E-07
 -0.177099237812E-07 -0.188804148893E-07 -0.201282665301E-07 -0.214585916425E-07 -0.228768410910E-07
 -0.243888260002E-07 -0.260007415650E-07 -0.277191924348E-07 -0.295512197752E-07 -0.315043301179E-07
 -0.335865261184E-07 -0.358063393450E-07 -0.381728652364E-07 -0.406958003687E-07 -0.433854821858E-07
 -0.462529313555E-07 -0.493098969254E-07 -0.525689044624E-07 -0.560433073748E-07 -0.597473416254E-07
 -0.636961840613E-07 -0.679060145985E-07 -0.723940825165E-07 -0.771787771343E-07 -0.822797031570E-07
 -0.877177610032E-07 -0.935152324399E-07 -0.996958718783E-07 -0.106285003703E-06 -0.113309626032E-06
 -0.120798521337E-06 -0.128782374376E-06 -0.137293897911E-06 -0.146367966746E-06 -0.156041760615E-06
 -0.166354916521E-06 -0.177349691132E-06 -0.189071133921E-06 -0.201567271743E-06 -0.214889305607E-06
 -0.229091820463E-06 -0.244233008839E-06 -0.260374909271E-06 -0.277583660481E-06 -0.295929772357E-06
 -0.315488414841E-06 -0.336339725906E-06 -0.358569139888E-06 -0.382267737515E-06 -0.407532619067E-06
 -0.434467302199E-06 -0.463182146048E-06 -0.493794803370E-06 -0.526430702557E-06 -0.561223561499E-06
 -0.598315935413E-06 -0.637859800862E-06 -0.680017178375E-06 -0.724960796198E-06 -0.772874797917E-06
 -0.823955496826E-06 -0.878412180150E-06 -0.936467966397E-06 -0.998360719367E-06 -0.106434402255E-05
 -0.113468821788E-05 -0.120968151317E-05 -0.128963116267E-05 -0.137486472560E-05 -0.146573140790E-05
 -0.156260349257E-05 -0.166587786447E-05 -0.177597763591E-05 -0.189335387959E-05 -0.201848747599E-05
 -0.215189108282E-05 -0.229411123449E-05 -0.244573058031E-05 -0.260737027046E-05 -0.277969249954E-05
 -0.296340321805E-05 -0.315925502298E-05 -0.336805023923E-05 -0.359064420440E-05 -0.382794877057E-05
 -0.408093603715E-05 -0.435064233012E-05 -0.463817244402E-05 -0.494470416374E-05 -0.527149308484E-05
 -0.561987775184E-05 -0.599128513559E-05 -0.638723647192E-05 -0.680935348542E-05 -0.725936502371E-05
 -0.773911412916E-05 -0.825056557692E-05 -0.879581390979E-05 -0.937709200275E-05 -0.999678019183E-05
 -0.106574160045E-04 -0.113617045309E-04 -0.121125294782E-04 -0.129129649530E-04 -0.137662880186E-04
 -0.146759920796E-04 -0.156458011462E-04 -0.166796850374E-04 -0.177818755830E-04 -0.189568838910E-04
 -0.202095187492E-04 -0.215449062357E-04 -0.229685106160E-04 -0.244861566119E-04 -0.261040531309E-04
 -0.278288185506E-04 -0.296675076597E-04 -0.316276403638E-04 -0.337172322680E-04 -0.359448272609E-04
 -0.383195322269E-04 -0.408510540248E-04 -0.435497388798E-04 -0.464266143422E-04 -0.494934339793E-04
 -0.527627249747E-04 -0.562478388205E-04 -0.599630053008E-04 -0.639233899749E-04 -0.681451553825E-04
 -0.726455262066E-04 -0.774428586437E-04 -0.825567142450E-04 -0.880079385100E-04 -0.938187445278E-04
 -0.100012801981E-03 -0.106615331841E-03 -0.113653207113E-03 -0.121155059986E-03 -0.129151395799E-03
 -0.137674714216E-03 -0.146759638052E-03 -0.156443050217E-03 -0.166764239234E-03 -0.177765053861E-03
 -0.189490067332E-03 -0.201986751774E-03 -0.215305663380E-03 -0.229500638956E-03 -0.244629004446E-03
 -0.260751796127E-03 -0.277933995128E-03 -0.296244775994E-03 -0.315757770024E-03 -0.336551344129E-03
 -0.358708895982E-03 -0.382319166245E-03 -0.407476568678E-03 -0.434281538923E-03 -0.462840902788E-03
 -0.493268264818E-03 -0.525684417966E-03 -0.560217775112E-03 -0.597004823186E-03 -0.636190600570E-03
 -0.677929198418E-03 -0.722384286430E-03 -0.769729663523E-03 -0.820149833715E-03 -0.873840607374E-03
 -0.931009727785E-03 -0.991877522769E-03 -0.105667758080E-02 -0.112565745071E-02 -0.119907936377E-02
 -0.127722097628E-02 -0.136037613052E-02 -0.144885563098E-02 -0.154298803238E-02 -0.164312043468E-02
 -0.174961927982E-02 -0.186287114324E-02 -0.198328351226E-02 -0.211128554160E-02 -0.224732877480E-02
 -0.239188781792E-02 -0.254546094979E-02 -0.270857065036E-02 -0.288176402549E-02 -0.306561310309E-02
 -0.326071497155E-02 -0.346769172664E-02 -0.368719018806E-02 -0.391988134084E-02 -0.416645944987E-02
 -0.442764078858E-02 -0.470416191392E-02 -0.499677741000E-02 -0.530625701198E-02 -0.563338200924E-02
 -0.597894081276E-02 -0.634372355621E-02 -0.672851558238E-02 -0.713408964684E-02 -0.756119664875E-02
 -0.801055467379E-02 -0.848283610681E-02 -0.897865254118E-02 -0.949853717765E-02 -0.100429243681E-01
 -0.106121259182E-01 -0.112063037164E-01 -0.118254382083E-01 -0.124692921789E-01 -0.131373692468E-01
 -0.138288664095E-01 -0.145426199106E-01 -0.152770436233E-01 -0.160300590689E-01 -0.167990161036E-01
 -0.175806032220E-01 -0.183707463372E-01 -0.191644948075E-01 -0.199558933929E-01 -0.207378387369E-01
 -0.215019188967E-01 -0.222382343732E-01 -0.229351990467E-01 -0.235793193944E-01 -0.241549503737E-01
 -0.246440263968E-01 -0.250257659235E-01 -0.252763483625E-01 -0.253685622209E-01 -0.252714237929E-01
 -0.249497661571E-01 -0.243637988816E-01 -0.234686396510E-01 -0.222138200537E-01 -0.205427690552E-01
 -0.183922792552E-01 -0.156919629406E-01 -0.123637072404E-01 -0.832114041055E-02 -0.346912446129E-02
  0.229670696604E-02  0.909034235213E-02  0.170356898103E-01  0.262667452185E-01  0.369275921153E-01
  0.491721884241E-01  0.631638888116E-01  0.790746452910E-01  0.970838229195E-01  0.117376562589E+00
  0.140141619628E+00  0.165568606053E+00  0.193844566862E+00  0.225149828061E+00  0.259653067672E+00
  0.297505582559E+00  0.338834755583E+00  0.383736771454E+00  0.432268687966E+00  0.484440044158E+00
  0.540204279975E+00  0.599450354188E+00  0.661995078237E+00  0.727576830946E+00  0.795851477590E+00
  0.866391477745E+00  0.938689315884E+00  0.101216650720E+01  0.108618949200E+01  0.116009370070E+01
  0.123322657804E+01  0.130519211636E+01  0.137583725452E+01  0.144502482521E+01  0.151262309404E+01
  0.157850540659E+01  0.164254994936E+01  0.170463967364E+01  0.176466242473E+01  0.000000000000E+00
  0.000000000000E+00  0.000000000000E+00  0.000000000000E+00  0.000000000000E+00  0.000000000000E+00
  0.000000000000E+00  0.000000000000E+00  0.000000000000E+00  0.000000000000E+00  0.000000000000E+00
  0.000000000000E+00  0.000000000000E+00  0.000000000000E+00  0.000000000000E+00  0.000000000000E+00
  0.000000000000E+00  0.000000000000E+00  0.000000000000E+00  0.000000000000E+00  0.000000000000E+00
  0.000000000000E+00  0.000000000000E+00  0.000000000000E+00  0.000000000000E+00  0.000000000000E+00
  0.000000000000E+00  0.000000000000E+00  0.000000000000E+00  0.000000000000E+00
 ae wavefunction
  0.248597926645E-05  0.263329251296E-05  0.278880113509E-05  0.295299377833E-05  0.312638693870E-05
  0.330952665425E-05  0.350299030142E-05  0.370738849680E-05  0.392336711193E-05  0.415160941060E-05
  0.439283831310E-05  0.464781879892E-05  0.491736045292E-05  0.520232016767E-05  0.550360500992E-05
  0.582217526067E-05  0.615904764286E-05  0.651529874581E-05  0.689206865894E-05  0.729056483127E-05
  0.771206616540E-05  0.815792736645E-05  0.862958355827E-05  0.912855518520E-05  0.965645321765E-05
  0.102149846793E-04  0.108059585191E-04  0.114312918455E-04  0.120930165505E-04  0.127932863450E-04
  0.135343842315E-04  0.143187304456E-04  0.151488908899E-04  0.160275860962E-04  0.169577007488E-04
  0.179422938020E-04  0.189846092327E-04  0.200880874652E-04  0.212563775142E-04  0.224933498879E-04
  0.238031103035E-04  0.251900142618E-04  0.266586825404E-04  0.282140176595E-04  0.298612213846E-04
  0.316058133308E-04  0.334536507379E-04  0.354109494919E-04  0.374843064694E-04  0.396807232917E-04
  0.420076315737E-04  0.444729197650E-04  0.470849616826E-04  0.498526468402E-04  0.527854126899E-04
  0.558932788936E-04  0.591868837532E-04  0.626775229341E-04  0.663771906262E-04  0.702986232930E-04
  0.744553461726E-04  0.788617227004E-04  0.835330070356E-04  0.884853998842E-04  0.937361078229E-04
  0.993034063405E-04  0.105206706826E-03  0.111466627748E-03  0.118105070277E-03  0.125145298642E-03
  0.132612025472E-03  0.140531502486E-03  0.148931616789E-03  0.157841993178E-03  0.167294102775E-03
  0.177321378396E-03  0.187959337054E-03  0.199245710023E-03  0.211220580916E-03  0.223926532263E-03
  0.237408801081E-03  0.251715443982E-03  0.266897512385E-03  0.283009238397E-03  0.300108232039E-03
  0.318255690429E-03  0.337516619649E-03  0.357960070022E-03  0.379659385556E-03  0.402692468398E-03
  0.427142059120E-03  0.453096033757E-03  0.480647718526E-03  0.509896223238E-03  0.540946794416E-03
  0.573911189225E-03  0.608908071364E-03  0.646063430091E-03  0.685511023668E-03  0.727392848499E-03
  0.771859635361E-03  0.819071374133E-03  0.869197868521E-03  0.922419322334E-03  0.978926958911E-03
  0.103892367540E-02  0.110262473356E-02  0.117025848905E-02  0.124206716085E-02  0.131830764290E-02
  0.139925235995E-02  0.148519016958E-02  0.157642731252E-02  0.167328841354E-02  0.177611753496E-02
  0.188527928511E-02  0.200115998411E-02  0.212416888913E-02  0.225473948163E-02  0.239333081887E-02
  0.254042895210E-02  0.269654841375E-02  0.286223377599E-02  0.303806128295E-02  0.322464055887E-02
  0.342261639431E-02  0.363267061250E-02  0.385552401772E-02  0.409193842763E-02  0.434271879096E-02
  0.460871539202E-02  0.489082614313E-02  0.518999896575E-02  0.550723426064E-02  0.584358746726E-02
  0.620017171168E-02  0.657816054229E-02  0.697879075138E-02  0.740336528060E-02  0.785325620692E-02
  0.832990780538E-02  0.883483968357E-02  0.936964998191E-02  0.993601863255E-02  0.105357106683E-01
  0.111705795718E-01  0.118425706533E-01  0.125537244433E-01  0.133061800859E-01  0.141021787141E-01
  0.149440667890E-01  0.158342993789E-01  0.167754433550E-01  0.177701804762E-01  0.188213103297E-01
  0.199317530962E-01  0.211045520999E-01  0.223428761015E-01  0.236500212889E-01  0.250294129151E-01
  0.264846065266E-01  0.280192887246E-01  0.296372773909E-01  0.313425213096E-01  0.331390991053E-01
  0.350312174173E-01  0.370232082181E-01  0.391195251814E-01  0.413247389967E-01  0.436435315197E-01
  0.460806886429E-01  0.486410917615E-01  0.513297077035E-01  0.541515769853E-01  0.571118002485E-01
  0.602155227236E-01  0.634679165643E-01  0.668741608861E-01  0.704394193401E-01  0.741688150467E-01
  0.780674027118E-01  0.821401377442E-01  0.863918421925E-01  0.908271673194E-01  0.954505526361E-01
  0.100266181219E+00  0.105277931144E+00  0.110489322880E+00  0.115903462489E+00  0.121522980519E+00
  0.127349966458E+00  0.133385898692E+00  0.139631569876E+00  0.146087007733E+00  0.152751391262E+00
  0.159622962449E+00  0.166698933561E+00  0.173975390235E+00  0.181447190563E+00  0.189107860514E+00
  0.196949486084E+00  0.204962602665E+00  0.213136082237E+00  0.221457019089E+00  0.229910614905E+00
  0.238480064176E+00  0.247146441011E+00  0.255888588539E+00  0.264683012161E+00  0.273503777955E+00
  0.282322417495E+00  0.291107840252E+00  0.299826254606E+00  0.308441098382E+00  0.316912979777E+00
  0.325199629802E+00  0.333255867902E+00  0.341033583318E+00  0.348481735913E+00  0.355546381327E+00
  0.362170726165E+00  0.368295219290E+00  0.373857684912E+00  0.378793502139E+00  0.383035834020E+00
  0.386515907225E+00  0.389163341959E+00  0.390906530936E+00  0.391673066393E+00  0.391390214788E+00
  0.389985439350E+00  0.387386970784E+00  0.383524425999E+00  0.378329473969E+00  0.371736547023E+00
  0.363683595055E+00  0.354112879370E+00  0.342971802138E+00  0.330213766595E+00  0.315799062237E+00
  0.299695768212E+00  0.281880667002E+00  0.262340159234E+00  0.241071169215E+00  0.218082029378E+00
  0.193393330578E+00  0.167038723842E+00  0.139065658125E+00  0.109536037702E+00  0.785267823396E-01
  0.461302732029E-01  0.124546677641E-01 -0.223759325128E-01 -0.582214774021E-01 -0.949261416829E-01
 -0.132318693810E+00 -0.170213077236E+00 -0.208409222407E+00 -0.246694102114E+00 -0.284843024028E+00
 -0.322621113407E+00 -0.359784877712E+00 -0.396083689579E+00 -0.431261034932E+00 -0.465055514482E+00
 -0.497201860057E+00 -0.527432488856E+00 -0.555480077407E+00 -0.581081131943E+00 -0.603979931853E+00
 -0.623932136168E+00 -0.640707773354E+00 -0.654093740696E+00 -0.663896030764E+00 -0.669941803017E+00
 -0.672081300923E+00 -0.670189547566E+00 -0.664167732869E+00 -0.653944218868E+00 -0.639475118814E+00
 -0.620744436996E+00 -0.597763782251E+00 -0.570571686718E+00 -0.539232571451E+00 -0.503835407537E+00
 -0.464492123596E+00 -0.421335810658E+00 -0.374518775093E+00 -0.324210486561E+00 -0.270595465139E+00
 -0.213871147121E+00 -0.154245763812E+00 -0.919362634004E-01 -0.271663006553E-01  0.398356845214E-01
  0.108838282307E+00  0.179608807174E+00  0.251914858699E+00  0.325525738441E+00  0.400213713758E+00
  0.475755122618E+00  0.551931315183E+00  0.628529431955E+00  0.705343021685E+00  0.782172505721E+00
  0.858825498035E+00  0.935116991756E+00  0.101086942276E+01  0.108591262016E+01  0.116008365229E+01
  0.123322657804E+01  0.130519211636E+01  0.137583725452E+01  0.144502482521E+01  0.151262309404E+01
  0.157850540659E+01  0.164254994936E+01  0.170463967364E+01  0.176466242473E+01  0.000000000000E+00
  0.000000000000E+00  0.000000000000E+00  0.000000000000E+00  0.000000000000E+00  0.000000000000E+00
  0.000000000000E+00  0.000000000000E+00  0.000000000000E+00  0.000000000000E+00  0.000000000000E+00
  0.000000000000E+00  0.000000000000E+00  0.000000000000E+00  0.000000000000E+00  0.000000000000E+00
  0.000000000000E+00  0.000000000000E+00  0.000000000000E+00  0.000000000000E+00  0.000000000000E+00
  0.000000000000E+00  0.000000000000E+00  0.000000000000E+00  0.000000000000E+00  0.000000000000E+00
  0.000000000000E+00  0.000000000000E+00  0.000000000000E+00  0.000000000000E+00
 pseudo wavefunction
  0.775130852884E-12  0.853232311779E-12  0.939203200513E-12  0.103383643546E-11  0.113800482652E-11
  0.125266912706E-11  0.137888689509E-11  0.151782224717E-11  0.167075659514E-11  0.183910046470E-11
  0.202440650479E-11  0.222838380779E-11  0.245291367265E-11  0.270006695622E-11  0.297212317293E-11
  0.327159151895E-11  0.360123401470E-11  0.396409097917E-11  0.436350907104E-11  0.480317215516E-11
  0.528713527913E-11  0.581986207334E-11  0.640626591936E-11  0.705175526645E-11  0.776228351412E-11
  0.854440392081E-11  0.940533004507E-11  0.103530022768E-10  0.113961610720E-10  0.125444275670E-10
  0.138083923144E-10  0.151997129610E-10  0.167312217670E-10  0.184170439590E-10  0.202727280081E-10
  0.223153890342E-10  0.245638666608E-10  0.270388987737E-10  0.297633127883E-10  0.327622361885E-10
  0.360633282798E-10  0.396970352922E-10  0.436968711892E-10  0.480997267687E-10  0.529462099100E-10
  0.582810201032E-10  0.641533607156E-10  0.706173927984E-10  0.777327346176E-10  0.855650115178E-10
  0.941864611890E-10  0.103676599921E-09  0.114122955985E-09  0.125621876918E-09  0.138279418136E-09
  0.152212321097E-09  0.167549090010E-09  0.184431177041E-09  0.203014286934E-09  0.223469813087E-09
  0.245986418323E-09  0.270771774939E-09  0.298054480081E-09  0.328086164111E-09  0.361143811402E-09
  0.397532314989E-09  0.437587288608E-09  0.481678162081E-09  0.530211588589E-09  0.583635195252E-09
  0.642441711616E-09  0.707173514121E-09  0.778427628462E-09  0.856861235980E-09  0.943197734874E-09
  0.103823341213E-08  0.114284478769E-08  0.125799669865E-08  0.138475119793E-08  0.152427734968E-08
  0.167786201150E-08  0.184692170323E-08  0.203301567147E-08  0.223786027054E-08  0.246334479242E-08
  0.271154889169E-08  0.298476176614E-08  0.328550327006E-08  0.361654715472E-08  0.398094665069E-08
  0.438206262762E-08  0.482359459140E-08  0.530961480455E-08  0.584460584443E-08  0.643350194575E-08
  0.708173450861E-08  0.779528219186E-08  0.858072605363E-08  0.944531024772E-08  0.103970088355E-07
  0.114445993297E-07  0.125977436478E-07  0.138670772225E-07  0.152643070904E-07  0.168023198633E-07
  0.184953005790E-07  0.203588635262E-07  0.224101962512E-07  0.246682180734E-07  0.271537545729E-07
  0.298897296575E-07  0.329013769815E-07  0.362164726662E-07  0.398655914671E-07  0.438823887512E-07
  0.483039108837E-07  0.531709368872E-07  0.585283545233E-07  0.644255742655E-07  0.709169849790E-07
  0.780624555110E-07  0.859278868160E-07  0.945858197066E-07  0.104116103834E-06  0.114606634067E-06
  0.126154161059E-06  0.138865183474E-06  0.152856930103E-06  0.168258440918E-06  0.185211757044E-06
  0.203873230596E-06  0.224414966485E-06  0.247026409462E-06  0.271916091041E-06  0.299313552398E-06
  0.329471460981E-06  0.362667940326E-06  0.399209134569E-06  0.439432031272E-06  0.483707568596E-06
  0.532444055447E-06  0.586090936110E-06  0.645142934069E-06  0.710144613188E-06  0.781695398280E-06
  0.860455101318E-06  0.947150004200E-06  0.104257955409E-05  0.114762373303E-05  0.126325116965E-05
  0.139052806770E-05  0.153062803370E-05  0.168484289401E-05  0.185459460110E-05  0.204144833847E-05
  0.224712694490E-05  0.247352679085E-05  0.272273525286E-05  0.299704994700E-05  0.329899989802E-05
  0.363136883909E-05  0.399722085622E-05  0.439992861325E-05  0.484320441659E-05  0.533113440549E-05
  0.586821618163E-05  0.645940022375E-05  0.711013546764E-05  0.782641946970E-05  0.861485361449E-05
  0.948270387266E-05  0.104379676663E-04  0.114894474546E-04  0.126468317141E-04  0.139207840554E-04
  0.153230412910E-04  0.168665213531E-04  0.185654420471E-04  0.204354517262E-04  0.224937730808E-04
  0.247593613552E-04  0.272530784348E-04  0.299978843902E-04  0.330190482222E-04  0.363443797268E-04
  0.400044845869E-04  0.440330450075E-04  0.484671284421E-04  0.533475272065E-04  0.587191320555E-04
  0.646313431001E-04  0.711385217752E-04  0.783004879330E-04  0.861830665365E-04  0.948586888688E-04
  0.104407053649E-03  0.114915853980E-03  0.126481576618E-03  0.139210380703E-03  0.153219063760E-03
  0.168636123546E-03  0.185602925150E-03  0.204274983651E-03  0.224823373608E-03  0.247436277776E-03
  0.272320688560E-03  0.299704277053E-03  0.329837445871E-03  0.362995583507E-03  0.399481539621E-03
  0.439628342429E-03  0.483802181348E-03  0.532405680131E-03  0.585881488054E-03  0.644716219171E-03
  0.709444772338E-03  0.780655067604E-03  0.858993237671E-03  0.945169316476E-03  0.103996347053E-02
  0.114423282250E-02  0.125891892059E-02  0.138505591167E-02  0.152377948076E-02  0.167633662422E-02
  0.184409632936E-02  0.202856123836E-02  0.223138038016E-02  0.245436305966E-02  0.269949399956E-02
  0.296894983632E-02  0.326511707750E-02  0.359061163399E-02  0.394830004648E-02  0.434132253051E-02
  0.477311797021E-02  0.524745099415E-02  0.576844127077E-02  0.634059516226E-02  0.696883987616E-02
  0.765856025223E-02  0.841563831725E-02  0.924649573275E-02  0.101581392486E-01  0.111582092588E-01
  0.122550315320E-01  0.134576721612E-01  0.147759957367E-01  0.162207266984E-01  0.178035137644E-01
  0.195369972573E-01  0.214348790590E-01  0.235119948175E-01  0.257843878959E-01  0.282693844005E-01
  0.309856684389E-01  0.339533565440E-01  0.371940699472E-01  0.407310030901E-01  0.445889864269E-01
  0.487945411814E-01  0.533759232790E-01  0.583631531781E-01  0.637880277575E-01  0.696841097957E-01
  0.760866898829E-01  0.830327148530E-01  0.905606760035E-01  0.987104495065E-01  0.107523080499E+00
  0.117040501416E+00  0.127305174192E+00  0.138359645096E+00  0.150246000139E+00  0.163005208394E+00
  0.176676340129E+00  0.191295646622E+00  0.206895488890E+00  0.223503103617E+00  0.241139196327E+00
  0.259816354670E+00  0.279537278767E+00  0.300292831074E+00  0.322059915641E+00  0.344799206123E+00
  0.368452753813E+00  0.392941521605E+00  0.418162907389E+00  0.443988341003E+00  0.470261062589E+00
  0.496794216667E+00  0.523369424868E+00  0.549736030025E+00  0.575611233525E+00  0.600681374076E+00
  0.624604616052E+00  0.647015324938E+00  0.667530400527E+00  0.685757808600E+00  0.701307490753E+00
  0.713804730747E+00  0.722905904774E+00  0.728316333037E+00  0.729809673634E+00  0.727247953093E+00
  0.720600913531E+00  0.709962886833E+00  0.695564907814E+00  0.677779296696E+00  0.657113545542E+00
  0.634190131184E+00  0.609708976599E+00  0.584389850512E+00  0.558893209070E+00  0.533720024822E+00
  0.509098840070E+00  0.485045599962E+00  0.461575207316E+00  0.438702663500E+00  0.416440239835E+00
  0.394797821609E+00  0.373783237489E+00  0.353402564548E+00  0.333660402089E+00  0.314560112219E+00
  0.296104021859E+00  0.278293587648E+00  0.261129520550E+00  0.244611869831E+00  0.228740064391E+00
  0.213512910570E+00  0.198928546361E+00  0.184984354717E+00  0.171676841933E+00  0.159001481076E+00
  0.146952595181E+00  0.135523143890E+00  0.124704636005E+00  0.114487029304E+00  0.104858692098E+00
  0.958064231465E-01  0.873155308396E-01  0.793699665623E-01  0.719525019327E-01  0.650449357377E-01
  0.586283141625E-01  0.526831474857E-01  0.471896078191E-01  0.421276956203E-01
 ae wavefunction
  0.455475903536E-09  0.498370036326E-09  0.544913302335E-09  0.595448207984E-09  0.650347037659E-09
  0.710014660271E-09  0.774891588329E-09  0.845457310855E-09  0.922233926750E-09  0.100579010811E-08
  0.109674542345E-08  0.119577505643E-08  0.130361495586E-08  0.142106745946E-08  0.154900743547E-08
  0.168838899032E-08  0.184025279778E-08  0.200573410688E-08  0.218607149274E-08  0.238261642287E-08
  0.259684371252E-08  0.283036295721E-08  0.308493103251E-08  0.336246576343E-08  0.366506087462E-08
  0.399500234224E-08  0.435478628283E-08  0.474713852280E-08  0.517503601128E-08  0.564173025112E-08
  0.615077293936E-08  0.670604403252E-08  0.731178246293E-08  0.797261976433E-08  0.869361688448E-08
  0.948030448916E-08  0.103387270942E-07  0.112754913924E-07  0.122978191797E-07  0.134136053221E-07
  0.146314812505E-07  0.159608845142E-07  0.174121349798E-07  0.189965183156E-07  0.207263774662E-07
  0.226152128901E-07  0.246777924071E-07  0.269302715874E-07  0.293903257029E-07  0.320772943623E-07
  0.350123400588E-07  0.382186219835E-07  0.417214865844E-07  0.455486764995E-07  0.497305596496E-07
  0.543003804521E-07  0.592945353068E-07  0.647528747179E-07  0.707190346449E-07  0.772407999287E-07
  0.843705029216E-07  0.921654607468E-07  0.100688454961E-06  0.110008257748E-06  0.120200209185E-06
  0.131346850571E-06  0.143538619265E-06  0.156874611078E-06  0.171463416748E-06  0.187424039827E-06
  0.204886903782E-06  0.223994957195E-06  0.244904886470E-06  0.267788446667E-06  0.292833921912E-06
  0.320247728068E-06  0.350256171540E-06  0.383107379440E-06  0.419073417845E-06  0.458452616457E-06
  0.501572119847E-06  0.548790687290E-06  0.600501765527E-06  0.657136860885E-06  0.719169240079E-06
  0.787117991566E-06  0.861552482546E-06  0.943097250189E-06  0.103243736912E-05  0.113032434161E-05
  0.123758256110E-05  0.135511640476E-05  0.148391801600E-05  0.162507584396E-05  0.177978401305E-05
  0.194935260309E-05  0.213521892790E-05  0.233895990893E-05  0.256230564954E-05  0.280715432578E-05
  0.307558852042E-05  0.336989313913E-05  0.369257506101E-05  0.404638468989E-05  0.443433958876E-05
  0.485975039695E-05  0.532624924822E-05  0.583782092924E-05  0.639883703926E-05  0.701409343742E-05
  0.768885129036E-05  0.842888206186E-05  0.924051681880E-05  0.101307002616E-04  0.111070499257E-04
  0.121779210424E-04  0.133524775910E-04  0.146407701245E-04  0.160538210038E-04  0.176037177340E-04
  0.193037151582E-04  0.211683473345E-04  0.232135499958E-04  0.254567945724E-04  0.279172348471E-04
  0.306158674064E-04  0.335757071564E-04  0.368219792831E-04  0.403823291605E-04  0.442870518398E-04
  0.485693428983E-04  0.532655725772E-04  0.584155853110E-04  0.640630269235E-04  0.702557019688E-04
  0.770459638988E-04  0.844911409697E-04  0.926540010426E-04  0.101603258696E-03  0.111414128352E-03
  0.122168927412E-03  0.133957733750E-03  0.146879102214E-03  0.161040845213E-03  0.176560882825E-03
  0.193568168310E-03  0.212203695355E-03  0.232621593879E-03  0.254990321722E-03  0.279493960095E-03
  0.306333621273E-03  0.335728977570E-03  0.367919921360E-03  0.403168366511E-03  0.441760202390E-03
  0.484007412285E-03  0.530250368933E-03  0.580860320627E-03  0.636242082238E-03  0.696836946379E-03
  0.763125830847E-03  0.835632679394E-03  0.914928133870E-03  0.100163349672E-02  0.109642500378E-02
  0.120003842842E-02  0.131327403877E-02  0.143700193110E-02  0.157216776304E-02  0.171979891129E-02
  0.188101107939E-02  0.205701538167E-02  0.224912593031E-02  0.245876795282E-02  0.268748646764E-02
  0.293695554581E-02  0.320898818646E-02  0.350554683381E-02  0.382875456245E-02  0.418090695716E-02
  0.456448471184E-02  0.498216697061E-02  0.543684543191E-02  0.593163923335E-02  0.646991063205E-02
  0.705528149085E-02  0.769165057589E-02  0.838321166541E-02  0.913447246309E-02  0.995027430131E-02
  0.108358126114E-01  0.117966581273E-01  0.128387787794E-01  0.139685622200E-01  0.151928389119E-01
  0.165189056916E-01  0.179545497059E-01  0.195080725991E-01  0.211883148093E-01  0.230046798106E-01
  0.249671581148E-01  0.270863508228E-01  0.293734924891E-01  0.318404730397E-01  0.344998584537E-01
  0.373649098946E-01  0.404496009458E-01  0.437686325735E-01  0.473374454003E-01  0.511722288221E-01
  0.552899264328E-01  0.597082371284E-01  0.644456111424E-01  0.695212401236E-01  0.749550402172E-01
  0.807676270001E-01  0.869802810681E-01  0.936149031463E-01  0.100693957787E+00  0.108240405023E+00
  0.116277619708E+00  0.124829298593E+00  0.133919355439E+00  0.143571804505E+00  0.153810632529E+00
  0.164659658963E+00  0.176142383684E+00  0.188281821106E+00  0.201100319614E+00  0.214619365510E+00
  0.228859371136E+00  0.243839447252E+00  0.259577159998E+00  0.276088272989E+00  0.293386475218E+00
  0.311483095652E+00  0.330386805720E+00  0.350103311263E+00  0.370635035975E+00  0.391980798934E+00
  0.414135489350E+00  0.437089742300E+00  0.460829619793E+00  0.485336302170E+00  0.510585795343E+00
  0.536548659884E+00  0.563189768312E+00  0.590468097056E+00  0.618336559589E+00  0.646741886992E+00
  0.675624562058E+00  0.704918813076E+00  0.734552674217E+00  0.764448121488E+00  0.794521296714E+00
  0.824682836972E+00  0.854838330642E+00  0.884888918669E+00  0.914732040106E+00  0.944262271888E+00
  0.973372126256E+00  0.100195256709E+01  0.102989295645E+01  0.105708025642E+01  0.108339766912E+01
  0.110872342368E+01  0.113293078595E+01  0.115589006267E+01  0.117747226641E+01  0.119755307400E+01
  0.121601581484E+01  0.123275320813E+01  0.124766831083E+01  0.126067521195E+01  0.127169975737E+01
  0.128068035035E+01  0.128756874825E+01  0.129233073969E+01  0.129494660442E+01  0.129541129832E+01
  0.129373434622E+01  0.128993945613E+01  0.128406388768E+01  0.127615761381E+01  0.126628231914E+01
  0.125451027595E+01  0.124092313600E+01  0.122561067463E+01  0.120866951750E+01  0.119020187828E+01
  0.117031433034E+01  0.114911663009E+01  0.112672060714E+01  0.110323912960E+01  0.107878515104E+01
  0.105347084032E+01  0.102740679563E+01  0.100070133898E+01  0.973459890998E+00  0.945784420766E+00
  0.917772971415E+00  0.889519258344E+00  0.861112339984E+00  0.832636359935E+00  0.804170358846E+00
  0.775788152709E+00  0.747558272760E+00  0.719543960155E+00  0.691803207844E+00  0.664388841694E+00
  0.637348634891E+00  0.610725451311E+00  0.584557417029E+00  0.558878121007E+00  0.533716847323E+00
  0.509098840070E+00  0.485045599962E+00  0.461575207316E+00  0.438702663500E+00  0.416440239835E+00
  0.394797821609E+00  0.373783237489E+00  0.353402564548E+00  0.333660402089E+00  0.314560112219E+00
  0.296104021859E+00  0.278293587648E+00  0.261129520550E+00  0.244611869831E+00  0.228740064391E+00
  0.213512910570E+00  0.198928546361E+00  0.184984354717E+00  0.171676841933E+00  0.159001481076E+00
  0.146952595181E+00  0.135523143890E+00  0.124704636005E+00  0.114487029304E+00  0.104858692098E+00
  0.958064231465E-01  0.873155308396E-01  0.793699665623E-01  0.719525019327E-01  0.650449357377E-01
  0.586283141625E-01  0.526831474857E-01  0.471896078191E-01  0.421276956203E-01
 pseudo wavefunction
  0.769418757236E-12  0.846944670732E-12  0.932282022654E-12  0.102621788622E-11  0.112961863940E-11
  0.124343795560E-11  0.136872559947E-11  0.150663710895E-11  0.165844445290E-11  0.182554776257E-11
  0.200948824513E-11  0.221196239831E-11  0.243483765740E-11  0.268016961867E-11  0.295022099837E-11
  0.324748250191E-11  0.357469579580E-11  0.393487879434E-11  0.433135349399E-11  0.476777661249E-11
  0.524817331497E-11  0.577697433845E-11  0.635905685680E-11  0.699978946336E-11  0.770508168585E-11
  0.848143849044E-11  0.933602027755E-11  0.102767089228E-10  0.113121804720E-10  0.124519851614E-10
  0.137066354999E-10  0.150877032266E-10  0.166079260384E-10  0.182813250703E-10  0.201233342135E-10
  0.221509424636E-10  0.243828506111E-10  0.268396437202E-10  0.295439809867E-10  0.325208047254E-10
  0.357975704148E-10  0.394044999210E-10  0.433748602366E-10  0.477452703043E-10  0.525560387562E-10
  0.578515356833E-10  0.636806018643E-10  0.700969992273E-10  0.771599067004E-10  0.849344660227E-10
  0.934923825518E-10  0.102912586607E-09  0.113281961448E-09  0.124696144610E-09  0.137260409968E-09
  0.151090638690E-09  0.166314388016E-09  0.183072067727E-09  0.201518235151E-09  0.221823020660E-09
  0.244173696789E-09  0.268776405464E-09  0.295858059262E-09  0.325668434239E-09  0.358482473630E-09
  0.394602823662E-09  0.434362624886E-09  0.478128584742E-09  0.526304359724E-09  0.579334278326E-09
  0.637707439103E-09  0.701962221652E-09  0.772691252111E-09  0.850546868972E-09  0.936247139631E-09
  0.103058248314E-08  0.113442296029E-08  0.124872629818E-08  0.137454672339E-08  0.151304468511E-08
  0.166549755801E-08  0.183331142349E-08  0.201803403798E-08  0.222136910790E-08  0.244519200297E-08
  0.269156705272E-08  0.296276658584E-08  0.326129188776E-08  0.358989627004E-08  0.395161046406E-08
  0.434977057333E-08  0.478804884231E-08  0.527048752530E-08  0.580153616794E-08  0.638609264510E-08
  0.702954833361E-08  0.773783783648E-08  0.851749371718E-08  0.937570674877E-08  0.103203922336E-07
  0.113602630051E-07  0.125049097848E-07  0.137648896363E-07  0.151518233312E-07  0.166785025248E-07
  0.183590077314E-07  0.202088381854E-07  0.222450547867E-07  0.244864374490E-07  0.269536583013E-07
  0.296694723403E-07  0.326589272918E-07  0.359495946164E-07  0.395718237904E-07  0.435590222049E-07
  0.479479632672E-07  0.527791255429E-07  0.580970660675E-07  0.639508312699E-07  0.703944092966E-07
  0.774872279074E-07  0.852947025346E-07  0.938888395582E-07  0.103348900360E-06  0.113762132281E-06
  0.125224573216E-06  0.137841937277E-06  0.151730589673E-06  0.167018619809E-06  0.183847022492E-06
  0.202370998136E-06  0.222761383947E-06  0.245206229288E-06  0.269912529749E-06  0.297108135895E-06
  0.327043854297E-06  0.359995760216E-06  0.396267743240E-06  0.436194309351E-06  0.480143665247E-06
  0.528521113333E-06  0.581772788676E-06  0.640389772362E-06  0.704912619149E-06  0.775936341137E-06
  0.854115893376E-06  0.940172211940E-06  0.103489886010E-05  0.113916934378E-05  0.125394516377E-05
  0.138028467870E-05  0.151935286054E-05  0.167243203237E-05  0.184093368727E-05  0.202641149724E-05
  0.223057563169E-05  0.245530851749E-05  0.270268218548E-05  0.297497736304E-05  0.327470448841E-05
  0.360462683999E-05  0.396778599328E-05  0.436752983967E-05  0.480754342439E-05  0.529188288718E-05
  0.582501281753E-05  0.641184736747E-05  0.705779549962E-05  0.776881078574E-05  0.855144621291E-05
  0.941291450007E-05  0.103611544781E-04  0.114049041423E-04  0.125537810459E-04  0.138183707720E-04
  0.152103242936E-04  0.167424651123E-04  0.184289071565E-04  0.202851845157E-04  0.223283941979E-04
  0.245773532114E-04  0.270527714066E-04  0.297774416517E-04  0.327764490766E-04  0.360774012886E-04
  0.397106816546E-04  0.437097279514E-04  0.481113389134E-04  0.529560114574E-04  0.582883116403E-04
  0.641572827040E-04  0.706168938963E-04  0.777265341164E-04  0.855515548330E-04  0.941638671583E-04
  0.103642598441E-03  0.114074814265E-03  0.125556312307E-03  0.138192495153E-03  0.152099329837E-03
  0.167404402641E-03  0.184248078498E-03  0.202784775256E-03  0.223184364036E-03  0.245633707987E-03
  0.270338352927E-03  0.297524384611E-03  0.327440468798E-03  0.360360091757E-03  0.396584020561E-03
  0.436443004249E-03  0.480300738947E-03  0.528557122115E-03  0.581651823390E-03  0.640068201992E-03
  0.704337603334E-03  0.775044070374E-03  0.852829508376E-03  0.938399345129E-03  0.103252873223E-02
  0.113606933700E-02  0.124995677857E-02  0.137521876638E-02  0.151298400362E-02  0.166449192341E-02
  0.183110333073E-02  0.201431202840E-02  0.221575751125E-02  0.243723881878E-02  0.268072964236E-02
  0.294839478957E-02  0.324260811455E-02  0.356597202941E-02  0.392133871817E-02  0.431183318032E-02
  0.474087823692E-02  0.521222163661E-02  0.572996540346E-02  0.629859757060E-02  0.692302644578E-02
  0.760861755341E-02  0.836123339511E-02  0.918727616422E-02  0.100937335397E-01  0.110882276704E-01
  0.121790674400E-01  0.133753040760E-01  0.146867901321E-01  0.161242418268E-01  0.176993046665E-01
  0.194246222127E-01  0.213139077673E-01  0.233820186474E-01  0.256450325990E-01  0.281203257511E-01
  0.308266513359E-01  0.337842181978E-01  0.370147678711E-01  0.405416487268E-01  0.443898853655E-01
  0.485862410592E-01  0.531592706227E-01  0.581393606081E-01  0.635587531778E-01  0.694515493992E-01
  0.758536870348E-01  0.828028871632E-01  0.903385631663E-01  0.985016847630E-01  0.107334588872E+00
  0.116880728157E+00  0.127184347182E+00  0.138290075199E+00  0.150242423790E+00  0.163085176873E+00
  0.176860660138E+00  0.191608876817E+00  0.207366496955E+00  0.224165688210E+00  0.242032777803E+00
  0.260986737801E+00  0.281037489658E+00  0.302184029165E+00  0.324412379895E+00  0.347693392308E+00
  0.371980417057E+00  0.397206895210E+00  0.423283925143E+00  0.450097886079E+00  0.477508221644E+00
  0.505345513138E+00  0.533410001051E+00  0.561470743758E+00  0.589265632739E+00  0.616502511952E+00
  0.642861671963E+00  0.668000002947E+00  0.691557089228E+00  0.713163504907E+00  0.732451517143E+00
  0.749068311465E+00  0.762691711826E+00  0.773048166698E+00  0.779932501886E+00  0.783228594625E+00
  0.782929700513E+00  0.779156672758E+00  0.772171772270E+00  0.762385216057E+00  0.750351111760E+00
  0.736749068965E+00  0.722347686339E+00  0.707946445319E+00  0.694293482859E+00  0.681978471677E+00
  0.671309032367E+00  0.662387117396E+00  0.655344608316E+00  0.650327745912E+00  0.000000000000E+00
  0.000000000000E+00  0.000000000000E+00  0.000000000000E+00  0.000000000000E+00  0.000000000000E+00
  0.000000000000E+00  0.000000000000E+00  0.000000000000E+00  0.000000000000E+00  0.000000000000E+00
  0.000000000000E+00  0.000000000000E+00  0.000000000000E+00  0.000000000000E+00  0.000000000000E+00
  0.000000000000E+00  0.000000000000E+00  0.000000000000E+00  0.000000000000E+00  0.000000000000E+00
  0.000000000000E+00  0.000000000000E+00  0.000000000000E+00  0.000000000000E+00  0.000000000000E+00
  0.000000000000E+00  0.000000000000E+00  0.000000000000E+00  0.000000000000E+00
 ae wavefunction
  0.445923467012E-09  0.487918001985E-09  0.533485138842E-09  0.582960200773E-09  0.636707664414E-09
  0.695123907547E-09  0.758640204015E-09  0.827725986735E-09  0.902892404870E-09  0.984696204017E-09
  0.107374395876E-08  0.117069669245E-08  0.127627491916E-08  0.139126414956E-08  0.151652090368E-08
  0.165297927788E-08  0.180165812036E-08  0.196366887106E-08  0.214022412904E-08  0.233264701806E-08
  0.254238142271E-08  0.277100318116E-08  0.302023232281E-08  0.329194645093E-08  0.358819537938E-08
  0.391121714150E-08  0.426345550384E-08  0.464757912518E-08  0.506650252035E-08  0.552340899975E-08
  0.602177577214E-08  0.656540142128E-08  0.715843597807E-08  0.780541384097E-08  0.851128981646E-08
  0.928147857785E-08  0.101218978717E-07  0.110390158312E-07  0.120399027923E-07  0.131322880451E-07
  0.143246219966E-07  0.156261442661E-07  0.170469582853E-07  0.185981130323E-07  0.202916925879E-07
  0.221409142702E-07  0.241602361788E-07  0.263654750590E-07  0.287739354854E-07  0.314045514638E-07
  0.342780416540E-07  0.374170795373E-07  0.408464799793E-07  0.445934037810E-07  0.486875819672E-07
  0.531615617313E-07  0.580509761434E-07  0.633948399363E-07  0.692358739069E-07  0.756208607202E-07
  0.826010351789E-07  0.902325123128E-07  0.985767569810E-07  0.107701099030E-06  0.117679298455E-06
  0.128592165439E-06  0.140528240630E-06  0.153584541533E-06  0.167867381444E-06  0.183493268093E-06
  0.200589889615E-06  0.219297196576E-06  0.239768589245E-06  0.262172220515E-06  0.286692425689E-06
  0.313531291531E-06  0.342910378196E-06  0.375072608900E-06  0.410284343764E-06  0.448837655714E-06
  0.491052828220E-06  0.537281096414E-06  0.587907655401E-06  0.643354961665E-06  0.704086356251E-06
  0.770610040942E-06  0.843483441786E-06  0.923317997744E-06  0.101078441560E-05  0.110661843662E-05
  0.121162716454E-05  0.132669600932E-05  0.145279630651E-05  0.159099367761E-05  0.174245720309E-05
  0.190846948695E-05  0.209043769879E-05  0.228990568790E-05  0.250856727287E-05  0.274828082010E-05
  0.301108523520E-05  0.329921750350E-05  0.361513192846E-05  0.396152123093E-05  0.434133968794E-05
  0.475782850642E-05  0.521454364517E-05  0.571538631999E-05  0.626463644690E-05  0.686698930414E-05
  0.752759571888E-05  0.825210611342E-05  0.904671877703E-05  0.991823276336E-05  0.108741058504E-04
  0.119225180409E-04  0.130724411245E-04  0.143337148715E-04  0.157171304796E-04  0.172345219525E-04
  0.188988661505E-04  0.207243923222E-04  0.227267019950E-04  0.249229001881E-04  0.273317389916E-04
  0.299737746532E-04  0.328715394133E-04  0.360497294398E-04  0.395354103348E-04  0.433582418113E-04
  0.475507232811E-04  0.521484622453E-04  0.571904675417E-04  0.627194696808E-04  0.687822706929E-04
  0.754301261146E-04  0.827191619649E-04  0.907108298002E-04  0.994724031931E-04  0.109077519260E-03
  0.119606769156E-03  0.131148341775E-03  0.143798725235E-03  0.157663471097E-03  0.172858026650E-03
  0.189508641022E-03  0.207753351309E-03  0.227743055407E-03  0.249642678720E-03  0.273632442457E-03
  0.299909241810E-03  0.328688142894E-03  0.360204007958E-03  0.394713259078E-03  0.432495791198E-03
  0.473857046165E-03  0.519130260149E-03  0.568678897653E-03  0.622899286156E-03  0.682223466276E-03
  0.747122273276E-03  0.818108666596E-03  0.895741325076E-03  0.980628526452E-03  0.107343233070E-02
  0.117487308769E-02  0.128573429074E-02  0.140686779823E-02  0.153919944688E-02  0.168373508055E-02
  0.184156701976E-02  0.201388099746E-02  0.220196358732E-02  0.240721015152E-02  0.263113333492E-02
  0.287537213315E-02  0.314170156178E-02  0.343204295354E-02  0.374847491010E-02  0.409324493385E-02
  0.446878176397E-02  0.487770843930E-02  0.532285610836E-02  0.580727860416E-02  0.633426779805E-02
  0.690736974288E-02  0.753040161097E-02  0.820746942682E-02  0.894298658788E-02  0.974169315946E-02
  0.106086759211E-01  0.115493891322E-01  0.125696759734E-01  0.136757906087E-01  0.148744207986E-01
  0.161727109810E-01  0.175782857178E-01  0.190992733893E-01  0.207443299978E-01  0.225226629195E-01
  0.244440544253E-01  0.265188847619E-01  0.287581545653E-01  0.311735063509E-01  0.337772447974E-01
  0.365823555183E-01  0.396025219830E-01  0.428521402190E-01  0.463463308887E-01  0.501009482832E-01
  0.541325857118E-01  0.584585766696E-01  0.630969910559E-01  0.680666255716E-01  0.733869872822E-01
  0.790782692193E-01  0.851613168505E-01  0.916575843099E-01  0.985890794775E-01  0.105978297292E+00
  0.113848141032E+00  0.122221831624E+00  0.131122805270E+00  0.140574599721E+00  0.150600729342E+00
  0.161224548700E+00  0.172469103951E+00  0.184356970969E+00  0.196910079140E+00  0.210149520079E+00
  0.224095340902E+00  0.238766322166E+00  0.254179740793E+00  0.270351118507E+00  0.287293956484E+00
  0.305019457055E+00  0.323536233661E+00  0.342850010592E+00  0.362963314514E+00  0.383875160321E+00
  0.405580734393E+00  0.428071078937E+00  0.451332781702E+00  0.475347675932E+00  0.500092555977E+00
  0.525538914457E+00  0.551652707168E+00  0.578394152114E+00  0.605717569002E+00  0.633571265341E+00
  0.661897475130E+00  0.690632356152E+00  0.719706052661E+00  0.749042832231E+00  0.778561309005E+00
  0.808174770407E+00  0.837791628092E+00  0.867316011362E+00  0.896648502234E+00  0.925686963096E+00
  0.954327323172E+00  0.982464089678E+00  0.100999030045E+01  0.103679674615E+01  0.106277064083E+01
  0.108779443549E+01  0.111174582994E+01  0.113449974097E+01  0.115593190112E+01  0.117592274751E+01
  0.119436036104E+01  0.121114217942E+01  0.122617593667E+01  0.123938035483E+01  0.125068586716E+01
  0.126003541765E+01  0.126738525925E+01  0.127270563754E+01  0.127598126388E+01  0.127721152173E+01
  0.127641038901E+01  0.127360608995E+01  0.126884050862E+01  0.126216840266E+01  0.125365645977E+01
  0.124338223775E+01  0.123143302533E+01  0.121790466044E+01  0.120290033583E+01  0.118652942031E+01
  0.116890631901E+01  0.115014939049E+01  0.113037993650E+01  0.110972127336E+01  0.108829789231E+01
  0.106623471114E+01  0.104365641953E+01  0.102068691568E+01  0.997448835569E+00  0.974063171097E+00
  0.950648979815E+00  0.927323185164E+00  0.904200469703E+00  0.881393263100E+00  0.859011826748E+00
  0.837164435722E+00  0.815957657937E+00  0.795496728950E+00  0.775886020802E+00  0.757229603722E+00
  0.739631902632E+00  0.723198453518E+00  0.708036770423E+00  0.694257338518E+00  0.681974753722E+00
  0.671309032367E+00  0.662387117396E+00  0.655344608316E+00  0.650327745912E+00  0.000000000000E+00
  0.000000000000E+00  0.000000000000E+00  0.000000000000E+00  0.000000000000E+00  0.000000000000E+00
  0.000000000000E+00  0.000000000000E+00  0.000000000000E+00  0.000000000000E+00  0.000000000000E+00
  0.000000000000E+00  0.000000000000E+00  0.000000000000E+00  0.000000000000E+00  0.000000000000E+00
  0.000000000000E+00  0.000000000000E+00  0.000000000000E+00  0.000000000000E+00  0.000000000000E+00
  0.000000000000E+00  0.000000000000E+00  0.000000000000E+00  0.000000000000E+00  0.000000000000E+00
  0.000000000000E+00  0.000000000000E+00  0.000000000000E+00  0.000000000000E+00
 pseudo wavefunction
  0.137727917315E-04  0.142206485695E-04  0.146830685955E-04  0.151605253684E-04  0.156535078455E-04
  0.161625208844E-04  0.166880857588E-04  0.172307406934E-04  0.177910414145E-04  0.183695617193E-04
  0.189668940632E-04  0.195836501671E-04  0.202204616435E-04  0.208779806433E-04  0.215568805237E-04
  0.222578565381E-04  0.229816265476E-04  0.237289317563E-04  0.245005374707E-04  0.252972338831E-04
  0.261198368808E-04  0.269691888820E-04  0.278461596982E-04  0.287516474249E-04  0.296865793618E-04
  0.306519129619E-04  0.316486368123E-04  0.326777716467E-04  0.337403713905E-04  0.348375242403E-04
  0.359703537783E-04  0.371400201228E-04  0.383477211164E-04  0.395946935528E-04  0.408822144434E-04
  0.422116023249E-04  0.435842186097E-04  0.450014689802E-04  0.464648048285E-04  0.479757247425E-04
  0.495357760407E-04  0.511465563570E-04  0.528097152767E-04  0.545269560261E-04  0.563000372163E-04
  0.581307746448E-04  0.600210431549E-04  0.619727785555E-04  0.639879796041E-04  0.660687100535E-04
  0.682171007654E-04  0.704353518927E-04  0.727257351328E-04  0.750905960542E-04  0.775323564987E-04
  0.800535170614E-04  0.826566596523E-04  0.853444501402E-04  0.881196410831E-04  0.909850745472E-04
  0.939436850179E-04  0.969985024051E-04  0.100152655146E-03  0.103409373411E-03  0.106771992409E-03
  0.110243955807E-03  0.113828819252E-03  0.117530254021E-03  0.121352050772E-03  0.125298123433E-03
  0.129372513208E-03  0.133579392718E-03  0.137923070274E-03  0.142407994288E-03  0.147038757836E-03
  0.151820103353E-03  0.156756927501E-03  0.161854286177E-03  0.167117399698E-03  0.172551658143E-03
  0.178162626881E-03  0.183956052268E-03  0.189937867533E-03  0.196114198862E-03  0.202491371668E-03
  0.209075917076E-03  0.215874578615E-03  0.222894319121E-03  0.230142327881E-03  0.237626027990E-03
  0.245353083967E-03  0.253331409600E-03  0.261569176065E-03  0.270074820291E-03  0.278857053615E-03
  0.287924870706E-03  0.297287558786E-03  0.306954707150E-03  0.316936216997E-03  0.327242311578E-03
  0.337883546682E-03  0.348870821454E-03  0.360215389578E-03  0.371928870809E-03  0.384023262901E-03
  0.396510953905E-03  0.409404734880E-03  0.422717813016E-03  0.436463825187E-03  0.450656851940E-03
  0.465311431954E-03  0.480442576955E-03  0.496065787135E-03  0.512197067065E-03  0.528852942129E-03
  0.546050475503E-03  0.563807285683E-03  0.582141564591E-03  0.601072096271E-03  0.620618276203E-03
  0.640800131247E-03  0.661638340247E-03  0.683154255299E-03  0.705369923739E-03  0.728308110835E-03
  0.751992323235E-03  0.776446833191E-03  0.801696703573E-03  0.827767813717E-03  0.854686886122E-03
  0.882481514033E-03  0.911180189935E-03  0.940812334996E-03  0.971408329480E-03  0.100299954418E-02
  0.103561837290E-02  0.106929826600E-02  0.110407376507E-02  0.113998053879E-02  0.117705541995E-02
  0.121533644377E-02  0.125486288740E-02  0.129567531090E-02  0.133781559950E-02  0.138132700730E-02
  0.142625420252E-02  0.147264331422E-02  0.152054198064E-02  0.156999939920E-02  0.162106637825E-02
  0.167379539055E-02  0.172824062861E-02  0.178445806201E-02  0.184250549664E-02  0.190244263611E-02
  0.196433114522E-02  0.202823471574E-02  0.209421913454E-02  0.216235235411E-02  0.223270456566E-02
  0.230534827482E-02  0.238035838014E-02  0.245781225445E-02  0.253778982919E-02  0.262037368197E-02
  0.270564912726E-02  0.279370431068E-02  0.288463030672E-02  0.297852122033E-02  0.307547429238E-02
  0.317559000929E-02  0.327897221696E-02  0.338572823928E-02  0.349596900140E-02  0.360980915804E-02
  0.372736722713E-02  0.384876572899E-02  0.397413133144E-02  0.410359500109E-02  0.423729216125E-02
  0.437536285679E-02  0.451795192630E-02  0.466520918216E-02  0.481728959879E-02  0.497435350974E-02
  0.513656681413E-02  0.530410119302E-02  0.547713433638E-02  0.565585018131E-02  0.584043916238E-02
  0.603109847478E-02  0.622803235131E-02  0.643145235399E-02  0.664157768158E-02  0.685863549392E-02
  0.708286125456E-02  0.731449909276E-02  0.755380218667E-02  0.780103316893E-02  0.805646455674E-02
  0.832037920809E-02  0.859307080639E-02  0.887484437560E-02  0.916601682842E-02  0.946691755028E-02
  0.977788902194E-02  0.100992874839E-01  0.104314836465E-01  0.107748634486E-01  0.111298288704E-01
  0.114967988037E-01  0.118762099851E-01  0.122685179978E-01  0.126741983475E-01  0.130937476192E-01
  0.135276847218E-01  0.139765522288E-01  0.144409178222E-01  0.149213758509E-01  0.154185490117E-01
  0.159330901651E-01  0.164656842980E-01  0.170170506457E-01  0.175879449876E-01  0.181791621335E-01
  0.187915386156E-01  0.194259556063E-01  0.200833420813E-01  0.207646782504E-01  0.214709992789E-01
  0.222033993275E-01  0.229630359372E-01  0.237511347903E-01  0.245689948818E-01  0.254179941358E-01
  0.262995955064E-01  0.272153536056E-01  0.281669219035E-01  0.291560605488E-01  0.301846448641E-01
  0.312546745708E-01  0.323682838055E-01  0.335277519919E-01  0.347355156377E-01  0.359941811301E-01
  0.373065386074E-01  0.386755769891E-01  0.401045002516E-01  0.415967450387E-01  0.431559997020E-01
  0.447862248686E-01  0.464916756352E-01  0.482769254895E-01  0.501468920619E-01  0.521068648068E-01
  0.541625347102E-01  0.563200261171E-01  0.585859307609E-01  0.609673440658E-01  0.634719037799E-01
  0.661078309696E-01  0.688839733859E-01  0.718098511703E-01  0.748957048332E-01  0.781525453762E-01
  0.815922063719E-01  0.852273977296E-01  0.890717607850E-01  0.931399242377E-01  0.974475603237E-01
  0.102011440457E+00  0.106849489383E+00  0.111980836682E+00  0.117425864185E+00  0.123206247626E+00
  0.129344990460E+00  0.135866447455E+00  0.142796335226E+00  0.150161726385E+00  0.157991023484E+00
  0.166313908310E+00  0.175161261494E+00  0.184565046665E+00  0.194558152683E+00  0.205174186696E+00
  0.216447210008E+00  0.228411407945E+00  0.241100684184E+00  0.254548169354E+00  0.268785633176E+00
  0.283842789109E+00  0.299746480425E+00  0.316519737003E+00  0.334180693048E+00  0.352741357501E+00
  0.372206231373E+00  0.392570769771E+00  0.413819691241E+00  0.435925143494E+00  0.458844742907E+00
  0.482519515649E+00  0.506871781205E+00  0.531803034657E+00  0.557191902497E+00  0.582892268123E+00
  0.608731687186E+00  0.634510239462E+00  0.659999991905E+00  0.684945275898E+00  0.709064008547E+00
  0.732050310472E+00  0.753578687456E+00  0.773310045842E+00  0.790892500148E+00  0.806049004267E+00
  0.818686825385E+00  0.828781401132E+00  0.836320547779E+00  0.841304463492E+00  0.843745767167E+00
  0.843669560315E+00  0.841113497126E+00  0.836127840363E+00  0.828775480054E+00  0.819131898162E+00
  0.807285051156E+00  0.793335155760E+00  0.777394350478E+00  0.759586210168E+00  0.740045085622E+00
  0.718915241436E+00  0.696349767870E+00  0.672509252112E+00  0.647560209246E+00  0.621673303545E+00
  0.595021350088E+00  0.567777305811E+00  0.540112150250E+00  0.512192894771E+00  0.484180757969E+00
  0.456229597956E+00  0.428484659387E+00  0.401081663436E+00  0.374146236846E+00  0.347793645373E+00
  0.322128770712E+00  0.297246251436E+00  0.273230699973E+00  0.250156911094E+00
 ae wavefunction
 -0.102067331048E-02 -0.105306730548E-02 -0.108648653405E-02 -0.112096325764E-02 -0.115653074099E-02
 -0.119322328264E-02 -0.123107624621E-02 -0.127012609264E-02 -0.131041041332E-02 -0.135196796419E-02
 -0.139483870071E-02 -0.143906381391E-02 -0.148468576743E-02 -0.153174833549E-02 -0.158029664201E-02
 -0.163037720080E-02 -0.168203795674E-02 -0.173532832816E-02 -0.179029925037E-02 -0.184700322025E-02
 -0.190549434217E-02 -0.196582837493E-02 -0.202806278012E-02 -0.209225677157E-02 -0.215847136616E-02
 -0.222676943588E-02 -0.229721576122E-02 -0.236987708592E-02 -0.244482217296E-02 -0.252212186207E-02
 -0.260184912852E-02 -0.268407914333E-02 -0.276888933495E-02 -0.285635945230E-02 -0.294657162934E-02
 -0.303961045096E-02 -0.313556302048E-02 -0.323451902855E-02 -0.333657082348E-02 -0.344181348314E-02
 -0.355034488824E-02 -0.366226579713E-02 -0.377767992205E-02 -0.389669400678E-02 -0.401941790581E-02
 -0.414596466480E-02 -0.427645060256E-02 -0.441099539421E-02 -0.454972215584E-02 -0.469275753028E-02
 -0.484023177422E-02 -0.499227884638E-02 -0.514903649689E-02 -0.531064635761E-02 -0.547725403348E-02
 -0.564900919462E-02 -0.582606566929E-02 -0.600858153745E-02 -0.619671922482E-02 -0.639064559735E-02
 -0.659053205590E-02 -0.679655463100E-02 -0.700889407751E-02 -0.722773596890E-02 -0.745327079111E-02
 -0.768569403550E-02 -0.792520629096E-02 -0.817201333456E-02 -0.842632622069E-02 -0.868836136824E-02
 -0.895834064559E-02 -0.923649145280E-02 -0.952304680085E-02 -0.981824538736E-02 -0.101223316683E-01
 -0.104355559251E-01 -0.107581743272E-01 -0.110904489881E-01 -0.114326480160E-01 -0.117850455569E-01
 -0.121479218305E-01 -0.125215631574E-01 -0.129062619767E-01 -0.133023168540E-01 -0.137100324780E-01
 -0.141297196449E-01 -0.145616952297E-01 -0.150062821431E-01 -0.154638092724E-01 -0.159346114065E-01
 -0.164190291413E-01 -0.169174087661E-01 -0.174301021285E-01 -0.179574664765E-01 -0.184998642751E-01
 -0.190576629969E-01 -0.196312348837E-01 -0.202209566776E-01 -0.208272093189E-01 -0.214503776088E-01
 -0.220908498338E-01 -0.227490173509E-01 -0.234252741279E-01 -0.241200162390E-01 -0.248336413108E-01
 -0.255665479154E-01 -0.263191349084E-01 -0.270918007076E-01 -0.278849425078E-01 -0.286989554297E-01
 -0.295342315973E-01 -0.303911591396E-01 -0.312701211134E-01 -0.321714943409E-01 -0.330956481587E-01
 -0.340429430718E-01 -0.350137293089E-01 -0.360083452719E-01 -0.370271158757E-01 -0.380703507713E-01
 -0.391383424461E-01 -0.402313641970E-01 -0.413496679673E-01 -0.424934820432E-01 -0.436630086028E-01
 -0.448584211094E-01 -0.460798615446E-01 -0.473274374726E-01 -0.486012189292E-01 -0.499012351289E-01
 -0.512274709830E-01 -0.525798634210E-01 -0.539582975103E-01 -0.553626023658E-01 -0.567925468435E-01
 -0.582478350131E-01 -0.597281014022E-01 -0.612329060078E-01 -0.627617290700E-01 -0.643139656041E-01
 -0.658889196869E-01 -0.674857984961E-01 -0.691037060988E-01 -0.707416369921E-01 -0.723984693935E-01
 -0.740729582855E-01 -0.757637282176E-01 -0.774692658714E-01 -0.791879123980E-01 -0.809178555362E-01
 -0.826571215257E-01 -0.844035668303E-01 -0.861548696903E-01 -0.879085215252E-01 -0.896618182144E-01
 -0.914118512837E-01 -0.931554990336E-01 -0.948894176478E-01 -0.966100323255E-01 -0.983135284893E-01
 -0.999958431216E-01 -0.101652656295E+00 -0.103279382961E+00 -0.104871165081E+00 -0.106422864173E+00
 -0.107929054375E+00 -0.109384016123E+00 -0.110781730550E+00 -0.112115874727E+00 -0.113379817879E+00
 -0.114566618709E+00 -0.115669023977E+00 -0.116679468503E+00 -0.117590076756E+00 -0.118392666215E+00
 -0.119078752688E+00 -0.119639557806E+00 -0.120066018880E+00 -0.120348801376E+00 -0.120478314210E+00
 -0.120444728134E+00 -0.120237997432E+00 -0.119847885205E+00 -0.119263992498E+00 -0.118475791529E+00
 -0.117472663286E+00 -0.116243939763E+00 -0.114778951079E+00 -0.113067077748E+00 -0.111097808325E+00
 -0.108860802662E+00 -0.106345960971E+00 -0.103543498877E+00 -0.100444028608E+00 -0.970386464300E-01
 -0.933190263936E-01 -0.892775204148E-01 -0.849072646399E-01 -0.802022919919E-01 -0.751576507150E-01
 -0.697695286507E-01 -0.640353828870E-01 -0.579540743177E-01 -0.515260065334E-01 -0.447532683406E-01
 -0.376397790649E-01 -0.301914356461E-01 -0.224162603722E-01 -0.143245479387E-01 -0.592901036275E-02
  0.275508185688E-02  0.117097640472E-01  0.209142489031E-01  0.303448070405E-01  0.399746583107E-01
  0.497738756171E-01  0.597093030552E-01  0.697444904285E-01  0.798396466178E-01  0.899516148671E-01
  0.100033873691E+00  0.110036567670E+00  0.119906572716E+00  0.129587600376E+00  0.139020345242E+00
  0.148142678765E+00  0.156889891725E+00  0.165194986816E+00  0.172989022236E+00  0.180201506970E+00
  0.186760848286E+00  0.192594851700E+00  0.197631273165E+00  0.201798422547E+00  0.205025816658E+00
  0.207244879330E+00  0.208389685134E+00  0.208397742551E+00  0.207210811523E+00  0.204775749344E+00
  0.201045377921E+00  0.195979364307E+00  0.189545105355E+00  0.181718606163E+00  0.172485340801E+00
  0.161841082711E+00  0.149792691013E+00  0.136358838043E+00  0.121570662638E+00  0.105472333216E+00
  0.881215045282E-01  0.695896522554E-01  0.499622702177E-01  0.293389158540E-01  0.783309045864E-02
 -0.144280588023E-01 -0.373042279800E-01 -0.606426491061E-01 -0.842789965154E-01 -0.108038507300E+00
 -0.131737295185E+00 -0.155183802667E+00 -0.178180300510E+00 -0.200524337892E+00 -0.222010109680E+00
 -0.242429848374E+00 -0.261575498025E+00 -0.279240929302E+00 -0.295224705468E+00 -0.309333083373E+00
 -0.321382859210E+00 -0.331203876101E+00 -0.338641225851E+00 -0.343557235520E+00 -0.345833284598E+00
 -0.345371439504E+00 -0.342095857868E+00 -0.335953906239E+00 -0.326916944551E+00 -0.314980749695E+00
 -0.300165570709E+00 -0.282515825467E+00 -0.262099461667E+00 -0.239007012826E+00 -0.213350385650E+00
 -0.185261417781E+00 -0.154890245891E+00 -0.122403524265E+00 -0.879825321719E-01 -0.518212063809E-01
 -0.141241321847E-01  0.248954771887E-01  0.650177860698E-01  0.106018303647E+00  0.147669792921E+00
  0.189744103879E+00  0.232013915942E+00  0.274254376620E+00  0.316244625835E+00  0.357769196592E+00
  0.398619286385E+00  0.438593895272E+00  0.477500830172E+00  0.515157577783E+00  0.551392050986E+00
  0.586043215418E+00  0.618961603803E+00  0.650009725390E+00  0.679062377339E+00  0.706006864113E+00
  0.730743131944E+00  0.753183826881E+00  0.773254289087E+00  0.790892500148E+00  0.806049004267E+00
  0.818686825385E+00  0.828781401132E+00  0.836320547779E+00  0.841304463492E+00  0.843745767167E+00
  0.843669560315E+00  0.841113497126E+00  0.836127840363E+00  0.828775480054E+00  0.819131898162E+00
  0.807285051156E+00  0.793335155760E+00  0.777394350478E+00  0.759586210168E+00  0.740045085622E+00
  0.718915241436E+00  0.696349767870E+00  0.672509252112E+00  0.647560209246E+00  0.621673303545E+00
  0.595021350088E+00  0.567777305811E+00  0.540112150250E+00  0.512192894771E+00  0.484180757969E+00
  0.456229597956E+00  0.428484659387E+00  0.401081663436E+00  0.374146236846E+00  0.347793645373E+00
  0.322128770712E+00  0.297246251436E+00  0.273230699973E+00  0.250156911094E+00
 pseudo wavefunction
  0.408057243940E-04  0.421326247814E-04  0.435026726620E-04  0.449172710849E-04  0.463778687230E-04
  0.478859613563E-04  0.494430934039E-04  0.510508595057E-04  0.527109061552E-04  0.544249333860E-04
  0.561946965124E-04  0.580220079273E-04  0.599087389583E-04  0.618568217836E-04  0.638682514115E-04
  0.659450877227E-04  0.680894575806E-04  0.703035570085E-04  0.725896534394E-04  0.749500880376E-04
  0.773872780961E-04  0.799037195128E-04  0.825019893458E-04  0.851847484530E-04  0.879547442169E-04
  0.908148133585E-04  0.937678848417E-04  0.968169828736E-04  0.999652300011E-04  0.103215850309E-03
  0.106572172721E-03  0.110037634411E-03  0.113615784320E-03  0.117310286792E-03  0.121124925329E-03
  0.125063606462E-03  0.129130363753E-03  0.133329361927E-03  0.137664901136E-03  0.142141421362E-03
  0.146763506967E-03  0.151535891383E-03  0.156463461966E-03  0.161551264997E-03  0.166804510847E-03
  0.172228579323E-03  0.177829025166E-03  0.183611583748E-03  0.189582176943E-03  0.195746919190E-03
  0.202112123758E-03  0.208684309210E-03  0.215470206080E-03  0.222476763764E-03  0.229711157639E-03
  0.237180796412E-03  0.244893329706E-03  0.252856655894E-03  0.261078930193E-03  0.269568573011E-03
  0.278334278571E-03  0.287385023819E-03  0.296730077619E-03  0.306379010238E-03  0.316341703158E-03
  0.326628359189E-03  0.337249512925E-03  0.348216041527E-03  0.359539175872E-03  0.371230512047E-03
  0.383302023234E-03  0.395766071971E-03  0.408635422813E-03  0.421923255408E-03  0.435643177997E-03
  0.449809241355E-03  0.464435953180E-03  0.479538292956E-03  0.495131727298E-03  0.511232225793E-03
  0.527856277365E-03  0.545020907158E-03  0.562743693988E-03  0.581042788342E-03  0.599936930979E-03
  0.619445472129E-03  0.639588391318E-03  0.660386317840E-03  0.681860551890E-03  0.704033086396E-03
  0.726926629548E-03  0.750564628074E-03  0.774971291261E-03  0.800171615770E-03  0.826191411255E-03
  0.853057326809E-03  0.880796878286E-03  0.909438476503E-03  0.939011456360E-03  0.969546106918E-03
  0.100107370245E-02  0.103362653451E-02  0.106723794503E-02  0.110194236054E-02  0.113777532744E-02
  0.117477354848E-02  0.121297492041E-02  0.125241857285E-02  0.129314490842E-02  0.133519564424E-02
  0.137861385469E-02  0.142344401568E-02  0.146973205025E-02  0.151752537575E-02  0.156687295253E-02
  0.161782533423E-02  0.167043471968E-02  0.172475500658E-02  0.178084184686E-02  0.183875270388E-02
  0.189854691154E-02  0.196028573530E-02  0.202403243516E-02  0.208985233083E-02  0.215781286892E-02
  0.222798369239E-02  0.230043671232E-02  0.237524618199E-02  0.245248877346E-02  0.253224365659E-02
  0.261459258079E-02  0.269961995939E-02  0.278741295684E-02  0.287806157879E-02  0.297165876515E-02
  0.306830048631E-02  0.316808584245E-02  0.327111716632E-02  0.337750012925E-02  0.348734385094E-02
  0.360076101273E-02  0.371786797483E-02  0.383878489735E-02  0.396363586560E-02  0.409254901941E-02
  0.422565668706E-02  0.436309552357E-02  0.450500665383E-02  0.465153582060E-02  0.480283353753E-02
  0.495905524753E-02  0.512036148658E-02  0.528691805317E-02  0.545889618373E-02  0.563647273414E-02
  0.581983036761E-02  0.600915774922E-02  0.620464974732E-02  0.640650764216E-02  0.661493934192E-02
  0.683015960664E-02  0.705239028015E-02  0.728186053056E-02  0.751880709952E-02  0.776347456075E-02
  0.801611558820E-02  0.827699123428E-02  0.854637121861E-02  0.882453422782E-02  0.911176822695E-02
  0.940837078288E-02  0.971464940051E-02  0.100309218723E-01  0.103575166418E-01  0.106947731819E-01
  0.110430423886E-01  0.114026869914E-01  0.117740819800E-01  0.121576150506E-01  0.125536870701E-01
  0.129627125612E-01  0.133851202090E-01  0.138213533900E-01  0.142718707256E-01  0.147371466609E-01
  0.152176720708E-01  0.157139548948E-01  0.162265208029E-01  0.167559138938E-01  0.173026974285E-01
  0.178674546008E-01  0.184507893479E-01  0.190533272033E-01  0.196757161957E-01  0.203186277965E-01
  0.209827579198E-01  0.216688279787E-01  0.223775860018E-01  0.231098078153E-01  0.238662982942E-01
  0.246478926900E-01  0.254554580383E-01  0.262898946554E-01  0.271521377284E-01  0.280431590083E-01
  0.289639686131E-01  0.299156169509E-01  0.308991967723E-01  0.319158453624E-01  0.329667468858E-01
  0.340531348949E-01  0.351762950183E-01  0.363375678415E-01  0.375383519994E-01  0.387801074961E-01
  0.400643592739E-01  0.413927010511E-01  0.427667994535E-01  0.441883984643E-01  0.456593242202E-01
  0.471814901846E-01  0.487569027294E-01  0.503876671634E-01  0.520759942436E-01  0.538242072136E-01
  0.556347494141E-01  0.575101925155E-01  0.594532454263E-01  0.614667639354E-01  0.635537611521E-01
  0.657174188114E-01  0.679610995177E-01  0.702883600070E-01  0.727029655119E-01  0.752089053209E-01
  0.778104096293E-01  0.805119677874E-01  0.833183480561E-01  0.862346189877E-01  0.892661725596E-01
  0.924187491893E-01  0.956984647730E-01  0.991118398898E-01  0.102665831324E+00  0.106367866059E+00
  0.110225877905E+00  0.114248346912E+00  0.118444341745E+00  0.122823565157E+00  0.127396402735E+00
  0.132173975038E+00  0.137168193270E+00  0.142391818586E+00  0.147858525107E+00  0.153582966678E+00
  0.159580847376E+00  0.165868995674E+00  0.172465442135E+00  0.179389500380E+00  0.186661850983E+00
  0.194304627796E+00  0.202341506042E+00  0.210797791301E+00  0.219700508307E+00  0.229078488142E+00
  0.238962452126E+00  0.249385090273E+00  0.260381131751E+00  0.271987404231E+00  0.284242878411E+00
  0.297188693288E+00  0.310868156937E+00  0.325326716643E+00  0.340611891179E+00  0.356773156874E+00
  0.373861777763E+00  0.391930568727E+00  0.411033578869E+00  0.431225680705E+00  0.452562048860E+00
  0.475097510016E+00  0.498885743810E+00  0.523978312346E+00  0.550423493939E+00  0.578264894827E+00
  0.607539810968E+00  0.638277310756E+00  0.670496008918E+00  0.704201502014E+00  0.739383437375E+00
  0.776012190189E+00  0.814035128343E+00  0.853372451962E+00  0.893912605109E+00  0.935507271348E+00
  0.977965983739E+00  0.102105040407E+01  0.106446835663E+01  0.110786773945E+01  0.115083048146E+01
  0.119286676801E+01  0.123340981998E+01  0.127181158324E+01  0.130733976435E+01  0.133917673374E+01
  0.136642090548E+01  0.138809128924E+01  0.140313598723E+01  0.141044546839E+01  0.140887148078E+01
  0.139725244560E+01  0.137444609379E+01  0.133936993501E+01  0.129104986556E+01  0.122875109533E+01
  0.115222072399E+01  0.106143261233E+01  0.956525439356E+00  0.837825589230E+00  0.000000000000E+00
  0.000000000000E+00  0.000000000000E+00  0.000000000000E+00  0.000000000000E+00  0.000000000000E+00
  0.000000000000E+00  0.000000000000E+00  0.000000000000E+00  0.000000000000E+00  0.000000000000E+00
  0.000000000000E+00  0.000000000000E+00  0.000000000000E+00  0.000000000000E+00  0.000000000000E+00
  0.000000000000E+00  0.000000000000E+00  0.000000000000E+00  0.000000000000E+00  0.000000000000E+00
  0.000000000000E+00  0.000000000000E+00  0.000000000000E+00  0.000000000000E+00  0.000000000000E+00
  0.000000000000E+00  0.000000000000E+00  0.000000000000E+00  0.000000000000E+00
 ae wavefunction
 -0.234704302906E-02 -0.242153316736E-02 -0.249838083436E-02 -0.257766021536E-02 -0.265944780275E-02
 -0.274382246610E-02 -0.283086552418E-02 -0.292066081903E-02 -0.301329479216E-02 -0.310885656292E-02
 -0.320743800902E-02 -0.330913384935E-02 -0.341404172912E-02 -0.352226230727E-02 -0.363389934637E-02
 -0.374905980500E-02 -0.386785393251E-02 -0.399039536646E-02 -0.411680123267E-02 -0.424719224785E-02
 -0.438169282501E-02 -0.452043118167E-02 -0.466353945078E-02 -0.481115379462E-02 -0.496341452157E-02
 -0.512046620584E-02 -0.528245781023E-02 -0.544954281196E-02 -0.562187933157E-02 -0.579963026503E-02
 -0.598296341895E-02 -0.617205164912E-02 -0.636707300221E-02 -0.656821086086E-02 -0.677565409197E-02
 -0.698959719847E-02 -0.721024047434E-02 -0.743779016306E-02 -0.767245861945E-02 -0.791446447485E-02
 -0.816403280575E-02 -0.842139530570E-02 -0.868679046069E-02 -0.896046372773E-02 -0.924266771679E-02
 -0.953366237597E-02 -0.983371517981E-02 -0.101431013207E-01 -0.104621039036E-01 -0.107910141428E-01
 -0.111301315628E-01 -0.114797642009E-01 -0.118402288125E-01 -0.122118510790E-01 -0.125949658178E-01
 -0.129899171941E-01 -0.133970589344E-01 -0.138167545422E-01 -0.142493775135E-01 -0.146953115548E-01
 -0.151549508002E-01 -0.156287000297E-01 -0.161169748866E-01 -0.166202020944E-01 -0.171388196723E-01
 -0.176732771497E-01 -0.182240357771E-01 -0.187915687350E-01 -0.193763613386E-01 -0.199789112387E-01
 -0.205997286165E-01 -0.212393363729E-01 -0.218982703108E-01 -0.225770793088E-01 -0.232763254862E-01
 -0.239965843577E-01 -0.247384449763E-01 -0.255025100629E-01 -0.262893961223E-01 -0.270997335427E-01
 -0.279341666775E-01 -0.287933539078E-01 -0.296779676836E-01 -0.305886945415E-01 -0.315262350968E-01
 -0.324913040074E-01 -0.334846299081E-01 -0.345069553108E-01 -0.355590364694E-01 -0.366416432056E-01
 -0.377555586928E-01 -0.389015791940E-01 -0.400805137511E-01 -0.412931838208E-01 -0.425404228539E-01
 -0.438230758126E-01 -0.451419986228E-01 -0.464980575546E-01 -0.478921285276E-01 -0.493250963351E-01
 -0.507978537804E-01 -0.523113007211E-01 -0.538663430133E-01 -0.554638913504E-01 -0.571048599880E-01
 -0.587901653490E-01 -0.605207245003E-01 -0.622974534923E-01 -0.641212655545E-01 -0.659930691362E-01
 -0.679137657840E-01 -0.698842478467E-01 -0.719053959952E-01 -0.739780765502E-01 -0.761031386028E-01
 -0.782814109192E-01 -0.805136986161E-01 -0.828007795949E-01 -0.851434007213E-01 -0.875422737376E-01
 -0.899980708931E-01 -0.925114202796E-01 -0.950829008563E-01 -0.977130371502E-01 -0.100402293616E+00
 -0.103151068639E+00 -0.105959688173E+00 -0.108828398980E+00 -0.111757361477E+00 -0.114746642159E+00
 -0.117796205586E+00 -0.120905905923E+00 -0.124075478008E+00 -0.127304527941E+00 -0.130592523179E+00
 -0.133938782115E+00 -0.137342463137E+00 -0.140802553147E+00 -0.144317855538E+00 -0.147886977609E+00
 -0.151508317421E+00 -0.155180050076E+00 -0.158900113425E+00 -0.162666193204E+00 -0.166475707591E+00
 -0.170325791202E+00 -0.174213278522E+00 -0.178134686795E+00 -0.182086198390E+00 -0.186063642658E+00
 -0.190062477319E+00 -0.194077769411E+00 -0.198104175847E+00 -0.202135923623E+00 -0.206166789747E+00
 -0.210190080950E+00 -0.214198613263E+00 -0.218184691544E+00 -0.222140089065E+00 -0.226056027267E+00
 -0.229923155810E+00 -0.233731533074E+00 -0.237470607246E+00 -0.241129198201E+00 -0.244695480331E+00
 -0.248156966576E+00 -0.251500493850E+00 -0.254712210142E+00 -0.257777563554E+00 -0.260681293573E+00
 -0.263407424897E+00 -0.265939264163E+00 -0.268259399936E+00 -0.270349706363E+00 -0.272191350901E+00
 -0.273764806568E+00 -0.275049869177E+00 -0.276025680054E+00 -0.276670754752E+00 -0.276963018297E+00
 -0.276879847517E+00 -0.276398121050E+00 -0.275494277596E+00 -0.274144383030E+00 -0.272324206986E+00
 -0.270009309515E+00 -0.267175138437E+00 -0.263797137973E+00 -0.259850869255E+00 -0.255312143255E+00
 -0.250157166656E+00 -0.244362701152E+00 -0.237906236569E+00 -0.230766178181E+00 -0.222922048449E+00
 -0.214354703372E+00 -0.205046563476E+00 -0.194981859353E+00 -0.184146891520E+00 -0.172530304167E+00
 -0.160123372201E+00 -0.146920300761E+00 -0.132918536140E+00 -0.118119086798E+00 -0.102526852832E+00
 -0.861509619817E-01 -0.690051098683E-01 -0.511079018304E-01 -0.324831933135E-01 -0.131604254299E-01
  0.682504802632E-02  0.274316460644E-01  0.486112625698E-01  0.703089890741E-01  0.924628622800E-01
  0.115003640387E+00  0.137854612449E+00  0.160931445555E+00  0.184142075583E+00  0.207386648679E+00
  0.230557522056E+00  0.253539334048E+00  0.276209154072E+00  0.298436723117E+00  0.320084794295E+00
  0.341009581117E+00  0.361061318916E+00  0.380084942859E+00  0.397920884852E+00  0.414405991068E+00
  0.429374561526E+00  0.442659512535E+00  0.454093661625E+00  0.463511133081E+00  0.470748880302E+00
  0.475648319395E+00  0.478057066418E+00  0.477830768827E+00  0.474835019552E+00  0.468947340026E+00
  0.460059216100E+00  0.448078168329E+00  0.432929835457E+00  0.414560047226E+00  0.392936859829E+00
  0.368052524597E+00  0.339925357871E+00  0.308601477641E+00  0.274156370659E+00  0.236696252383E+00
  0.196359181696E+00  0.153315892702E+00  0.107770307224E+00  0.599596933763E-01  0.101544373445E-01
 -0.413426035240E-01 -0.941971981632E-01 -0.148045320980E+00 -0.202495237704E+00 -0.257130100930E+00
 -0.311511008726E+00 -0.365180399890E+00 -0.417665577732E+00 -0.468482143438E+00 -0.517137269946E+00
 -0.563133075491E+00 -0.605970699653E+00 -0.645155680228E+00 -0.680204644041E+00 -0.710652572234E+00
 -0.736059737850E+00 -0.756017900023E+00 -0.770155836150E+00 -0.778144423781E+00 -0.779701376761E+00
 -0.774595602655E+00 -0.762651069674E+00 -0.743750052042E+00 -0.717835646194E+00 -0.684913494620E+00
 -0.645052700874E+00 -0.598385958965E+00 -0.545108949470E+00 -0.485479072208E+00 -0.419813597282E+00
 -0.348487321189E+00 -0.271929815573E+00 -0.190622354842E+00 -0.105094602790E+00 -0.159211316138E-01
  0.762821626309E-01  0.170861694833E+00  0.267129833089E+00  0.364368517153E+00  0.461832832545E+00
  0.558754530107E+00  0.654345491594E+00  0.747801151316E+00  0.838303896382E+00  0.925026477280E+00
  0.100713547754E+01  0.108379490273E+01  0.115416996630E+01  0.121743116587E+01  0.127275875748E+01
  0.131934774888E+01  0.135641354249E+01  0.138319836561E+01  0.139897863056E+01  0.140307336954E+01
  0.139485389319E+01  0.137375482114E+01  0.133928663164E+01  0.129104986556E+01  0.122875109533E+01
  0.115222072399E+01  0.106143261233E+01  0.956525439356E+00  0.837825589230E+00  0.000000000000E+00
  0.000000000000E+00  0.000000000000E+00  0.000000000000E+00  0.000000000000E+00  0.000000000000E+00
  0.000000000000E+00  0.000000000000E+00  0.000000000000E+00  0.000000000000E+00  0.000000000000E+00
  0.000000000000E+00  0.000000000000E+00  0.000000000000E+00  0.000000000000E+00  0.000000000000E+00
  0.000000000000E+00  0.000000000000E+00  0.000000000000E+00  0.000000000000E+00  0.000000000000E+00
  0.000000000000E+00  0.000000000000E+00  0.000000000000E+00  0.000000000000E+00  0.000000000000E+00
  0.000000000000E+00  0.000000000000E+00  0.000000000000E+00  0.000000000000E+00
 End of Dataset
