       N       E                     dE             d eps       ncg     rms          rms(c)
DAV:   1     0.342969108154E+02    0.34297E+02   -0.67092E+03 18080   0.128E+03
DAV:   2     0.547715003777E+01   -0.28820E+02   -0.28295E+02 19030   0.199E+02
DAV:   3    -0.597685110475E+01   -0.11454E+02   -0.11346E+02 35558   0.682E+01
DAV:   4    -0.650707935132E+01   -0.53023E+00   -0.52945E+00 20924   0.259E+01
DAV:   5    -0.656004672387E+01   -0.52967E-01   -0.52952E-01 30666   0.550E+00    0.535E-01
DAV:   6    -0.655155037970E+01    0.84963E-02   -0.11212E-02 26040   0.114E+00    0.310E-01
DAV:   7    -0.654675319036E+01    0.47972E-02   -0.11287E-02 32024   0.681E-01    0.102E-01
DAV:   8    -0.654681028190E+01   -0.57092E-04   -0.80132E-04 21494   0.349E-01    0.261E-02
DAV:   9    -0.654680028762E+01    0.99943E-05   -0.98721E-05 26620   0.129E-01    0.686E-03
DAV:  10    -0.654679962480E+01    0.66282E-06   -0.12431E-05 25376   0.450E-02    0.500E-03
DAV:  11    -0.654679801510E+01    0.16097E-05   -0.46036E-07 12040   0.892E-03    0.327E-04
DAV:  12    -0.654679812998E+01   -0.11488E-06   -0.13271E-07 10178   0.511E-03
   1 F= -.65467981E+01 E0= -.65466773E+01  d E =-.241617E-03
