       N       E                     dE             d eps       ncg     rms          rms(c)
DAV:   1    -0.153580202626E+01   -0.15358E+01   -0.80604E+02  7400   0.579E+01
DAV:   2    -0.190390594612E+01   -0.36810E+00   -0.36776E+00 10120   0.381E+00
DAV:   3    -0.190400200828E+01   -0.96062E-04   -0.96062E-04  6920   0.693E-02
DAV:   4    -0.190400201351E+01   -0.52257E-08   -0.52201E-08 11760   0.439E-04
DAV:   5    -0.190400201350E+01    0.11141E-10   -0.16212E-13  6760   0.383E-07    0.213E-01
DAV:   6    -0.190290724285E+01    0.10948E-02   -0.29875E-04  9080   0.133E-02    0.122E-01
DAV:   7    -0.190234933957E+01    0.55790E-03   -0.72027E-04  9120   0.206E-02    0.288E-02
DAV:   8    -0.190234729344E+01    0.20461E-05   -0.29409E-06  8160   0.188E-03
   1 F= -.19023473E+01 E0= -.19022051E+01  d E =-.190235E+01
