 vasp.6.5.1 10Mar25 (build May 29 2025 22:39:37) complex                         
 executed on              LinuxNV date 2026.03.09  16:36:40
 running    1 mpi-ranks, with    1 threads/rank, on    1 nodes
 distrk:  each k-point on    1 cores,    1 groups
 distr:  one band on NCORE=   1 cores,    1 groups
 Offloading initialized ...    1 GPUs detected


--------------------------------------------------------------------------------------------------------


 INCAR:
   LCHARG = .FALSE.
   LWAVE = .FALSE.
   ISTART = 0
   ICHARG = 2
   KSPACING = 0.1
   KGAMMA = .TRUE.
   GGA = PE
   ENCUT = 600
   ALGO = Normal
   NELM = 120
   EDIFF = 1E-06
   SIGMA = 0.02
   ISMEAR = 0
   PREC = Accurate
   NSW = 1
   IBRION = -1
   LREAL = A

 POTCAR:    PAW_PBE Li_sv 10Sep2004               
 POTCAR:    PAW_PBE Li_sv 10Sep2004               
   VRHFIN =Li: 1s2s2p                                                                               
   LEXCH  = PE                                                                                      
   EATOM  =   202.7858 eV,   14.9043 Ry                                                             
                                                                                                    
   TITEL  = PAW_PBE Li_sv 10Sep2004                                                                 
   LULTRA =        F    use ultrasoft PP ?                                                          
   IUNSCR =        0    unscreen: 0-lin 1-nonlin 2-no                                               
   RPACOR =    0.000    partial core radius                                                         
   POMASS =    7.010; ZVAL   =    3.000    mass and valenz                                          
   RCORE  =    1.700    outmost cutoff radius                                                       
   RWIGS  =    2.050; RWIGS  =    1.085    wigner-seitz radius (au A)                               
   ENMAX  =  499.034; ENMIN  =  374.276 eV                                                          
   ICORE  =        2    local potential                                                             
   LCOR   =        T    correct aug charges                                                         
   LPAW   =        T    paw PP                                                                      
   EAUG   =  628.945                                                                                
   RMAX   =    1.732    core radius for proj-oper                                                   
   RAUG   =    1.300    factor for augmentation sphere                                              
   RDEP   =    1.728    radius for radial grids                                                     
   RDEPT  =    1.329    core radius for aug-charge                                                  
                                                                                                    
   Atomic configuration                                                                             
    4 entries                                                                                       
     n  l   j            E        occ.                                                              
     1  0  0.50       -51.8549   2.0000                                                             
     2  0  0.50        -2.8742   1.0000                                                             
     2  1  0.50        -1.3606   0.0000                                                             
     3  2  1.50        -1.3606   0.0000                                                             
   Description                                                                                      
     l       E           TYP  RCUT    TYP  RCUT                                                     
     0    -51.8548813     23  1.400                                                                 
     0     -2.8742052     23  1.700                                                                 
     1     -1.3605826     23  1.400                                                                 
     2     -1.3605826     23  1.400                                                                 
  local pseudopotential read in
  atomic valenz-charges read in
  non local Contribution for L=            0  read in
    real space projection operators read in
  non local Contribution for L=            0  read in
    real space projection operators read in
  non local Contribution for L=            1  read in
    real space projection operators read in
    PAW grid and wavefunctions read in
 
   number of l-projection  operators is LMAX  =            3
   number of lm-projection operators is LMMAX =            5
 
 -----------------------------------------------------------------------------
|                                                                             |
|               ----> ADVICE to this user running VASP <----                  |
|                                                                             |
|     You have a (more or less) 'small supercell' and for smaller cells       |
|     it is recommended to use the reciprocal-space projection scheme!        |
|     The real-space optimization is not efficient for small cells and it     |
|     is also less accurate ...                                               |
|     Therefore, set LREAL=.FALSE. in the INCAR file.                         |
|                                                                             |
 -----------------------------------------------------------------------------

 Optimization of the real space projectors (new method)

 maximal supplied QI-value         = 22.11
 optimisation between [QCUT,QGAM] = [ 12.38, 24.98] = [ 42.93,174.79] Ry 
 Optimized for a Real-space Cutoff    1.03 Angstroem

   l    n(q)    QCUT    max X(q) W(low)/X(q) W(high)/X(q)  e(spline) 
   0      8    12.381    10.506    0.81E-04    0.12E-04    0.14E-07
   0      8    12.381     8.367    0.18E-03    0.27E-04    0.28E-07
   1      7    12.381     8.983    0.49E-04    0.18E-03    0.14E-06
  PAW_PBE Li_sv 10Sep2004               :
 energy of atom  1       EATOM= -202.7858
 kinetic energy error for atom=    0.0100 (will be added to EATOM!!)
 
 
 POSCAR: Li
  positions in direct lattice
  No initial velocities read in


 exchange-correlation table for PE
   RHO(1)=    0.500       N(1)  =     2000
   RHO(2)=  100.500       N(2)  =     4000
 


--------------------------------------------------------------------------------------------------------


 ion  position               nearest neighbor table
   1  0.833  0.126  0.626-
   2  0.357  0.374  0.374-
   3  0.120  0.626  0.874-
   4  0.596  0.874  0.126-
 
  LATTYP: Found a simple tetragonal cell.
 ALAT       =     4.4436470441
 C/A-ratio  =     1.0500000000
  
  Lattice vectors:
  
 A1 = (   0.0000000000,   4.4436470441,   0.0000000000)
 A2 = (   0.0000000000,   0.0000000000,   4.4436470441)
 A3 = (   4.6658293963,   0.0000000000,   0.0000000000)


Analysis of symmetry for initial positions (statically):
=====================================================================
 Subroutine PRICEL returns:
 Original cell was already a primitive cell.
 

 Routine SETGRP: Setting up the symmetry group for a 
 simple tetragonal supercell.


 Subroutine GETGRP returns: Found  2 space group operations
 (whereof  1 operations were pure point group operations)
 out of a pool of 16 trial point group operations.


The static configuration has the point symmetry C_1 .
 The point group associated with its full space group is C_2 .


Analysis of symmetry for dynamics (positions and initial velocities):
=====================================================================
 Subroutine PRICEL returns:
 Original cell was already a primitive cell.
 

 Routine SETGRP: Setting up the symmetry group for a 
 simple tetragonal supercell.


 Subroutine GETGRP returns: Found  2 space group operations
 (whereof  1 operations were pure point group operations)
 out of a pool of 16 trial point group operations.


The dynamic configuration has the point symmetry C_1 .
 The point group associated with its full space group is C_2 .


 Subroutine INISYM returns: Found  2 space group operations
 (whereof  1 operations are pure point group operations),
 and found     1 'primitive' translations


----------------------------------------------------------------------------------------

                                     Primitive cell                                     

  volume of cell :      92.1315

  direct lattice vectors                    reciprocal lattice vectors
     4.665829396  0.000000000  0.000000000     0.214324167  0.000000000  0.000000000
     0.000000000  4.443647044  0.000000000     0.000000000  0.225040376  0.000000000
     0.000000000  0.000000000  4.443647044     0.000000000  0.000000000  0.225040376

  length of vectors
     4.665829396  4.443647044  4.443647044     0.214324167  0.225040376  0.225040376

  position of ions in fractional coordinates (direct lattice)
     0.832828145  0.125530448  0.625530448
     0.356637669  0.374469552  0.374469552
     0.119552807  0.625530448  0.874469552
     0.595743284  0.874469552  0.125530448

  ion indices of the primitive-cell ions
   primitive index   ion index
                 1           1
                 2           2
                 3           3
                 4           4

----------------------------------------------------------------------------------------

 
 -----------------------------------------------------------------------------
|                                                                             |
|           W    W    AA    RRRRR   N    N  II  N    N   GGGG   !!!           |
|           W    W   A  A   R    R  NN   N  II  NN   N  G    G  !!!           |
|           W    W  A    A  R    R  N N  N  II  N N  N  G       !!!           |
|           W WW W  AAAAAA  RRRRR   N  N N  II  N  N N  G  GGG   !            |
|           WW  WW  A    A  R   R   N   NN  II  N   NN  G    G                |
|           W    W  A    A  R    R  N    N  II  N    N   GGGG   !!!           |
|                                                                             |
|     The requested file  could not be found or opened for reading            |
|     k-point information. Automatic k-point generation is used as a          |
|     fallback, which may lead to unwanted results.                           |
|                                                                             |
 -----------------------------------------------------------------------------

 

Automatic generation of k-mesh.
 Grid dimensions derived from KSPACING:
 generate k-points for:   14   15   15

 Generating k-lattice:

  Cartesian coordinates                     Fractional coordinates (reciprocal lattice)
     0.015308869  0.000000000  0.000000000     0.071428571  0.000000000  0.000000000
     0.000000000  0.015002692  0.000000000     0.000000000  0.066666667  0.000000000
     0.000000000  0.000000000  0.015002692     0.000000000  0.000000000  0.066666667

  Length of vectors
     0.015308869  0.015002692  0.015002692

  Shift w.r.t. Gamma in fractional coordinates (k-lattice)
     0.000000000  0.000000000  0.000000000

 
 Subroutine IBZKPT returns following result:
 ===========================================
 
 Found    848 irreducible k-points:
 
 Following reciprocal coordinates:
            Coordinates               Weight
  0.000000  0.000000  0.000000      1.000000
  0.071429  0.000000  0.000000      2.000000
  0.142857  0.000000  0.000000      2.000000
  0.214286  0.000000  0.000000      2.000000
  0.285714  0.000000  0.000000      2.000000
  0.357143  0.000000  0.000000      2.000000
  0.428571  0.000000  0.000000      2.000000
  0.500000  0.000000  0.000000      1.000000
  0.000000  0.066667  0.000000      2.000000
  0.000000  0.000000  0.066667      2.000000
  0.071429  0.066667  0.000000      4.000000
  0.071429  0.000000  0.066667      2.000000
  0.071429  0.000000 -0.066667      2.000000
  0.142857  0.066667  0.000000      4.000000
  0.142857  0.000000  0.066667      2.000000
  0.142857  0.000000 -0.066667      2.000000
  0.214286  0.066667  0.000000      4.000000
  0.214286  0.000000  0.066667      2.000000
  0.214286  0.000000 -0.066667      2.000000
  0.285714  0.066667  0.000000      4.000000
  0.285714  0.000000  0.066667      2.000000
  0.285714  0.000000 -0.066667      2.000000
  0.357143  0.066667  0.000000      4.000000
  0.357143  0.000000  0.066667      2.000000
  0.357143  0.000000 -0.066667      2.000000
  0.428571  0.066667  0.000000      4.000000
  0.428571  0.000000  0.066667      2.000000
  0.428571  0.000000 -0.066667      2.000000
  0.500000  0.066667  0.000000      2.000000
  0.500000  0.000000  0.066667      2.000000
  0.000000  0.133333  0.000000      2.000000
  0.000000  0.000000  0.133333      2.000000
  0.071429  0.133333  0.000000      4.000000
  0.071429  0.000000  0.133333      2.000000
  0.071429  0.000000 -0.133333      2.000000
  0.142857  0.133333  0.000000      4.000000
  0.142857  0.000000  0.133333      2.000000
  0.142857  0.000000 -0.133333      2.000000
  0.214286  0.133333  0.000000      4.000000
  0.214286  0.000000  0.133333      2.000000
  0.214286  0.000000 -0.133333      2.000000
  0.285714  0.133333  0.000000      4.000000
  0.285714  0.000000  0.133333      2.000000
  0.285714  0.000000 -0.133333      2.000000
  0.357143  0.133333  0.000000      4.000000
  0.357143  0.000000  0.133333      2.000000
  0.357143  0.000000 -0.133333      2.000000
  0.428571  0.133333  0.000000      4.000000
  0.428571  0.000000  0.133333      2.000000
  0.428571  0.000000 -0.133333      2.000000
  0.500000  0.133333  0.000000      2.000000
  0.500000  0.000000  0.133333      2.000000
  0.000000  0.200000  0.000000      2.000000
  0.000000  0.000000  0.200000      2.000000
  0.071429  0.200000  0.000000      4.000000
  0.071429  0.000000  0.200000      2.000000
  0.071429  0.000000 -0.200000      2.000000
  0.142857  0.200000  0.000000      4.000000
  0.142857  0.000000  0.200000      2.000000
  0.142857  0.000000 -0.200000      2.000000
  0.214286  0.200000  0.000000      4.000000
  0.214286  0.000000  0.200000      2.000000
  0.214286  0.000000 -0.200000      2.000000
  0.285714  0.200000  0.000000      4.000000
  0.285714  0.000000  0.200000      2.000000
  0.285714  0.000000 -0.200000      2.000000
  0.357143  0.200000  0.000000      4.000000
  0.357143  0.000000  0.200000      2.000000
  0.357143  0.000000 -0.200000      2.000000
  0.428571  0.200000  0.000000      4.000000
  0.428571  0.000000  0.200000      2.000000
  0.428571  0.000000 -0.200000      2.000000
  0.500000  0.200000  0.000000      2.000000
  0.500000  0.000000  0.200000      2.000000
  0.000000  0.266667  0.000000      2.000000
  0.000000  0.000000  0.266667      2.000000
  0.071429  0.266667  0.000000      4.000000
  0.071429  0.000000  0.266667      2.000000
  0.071429  0.000000 -0.266667      2.000000
  0.142857  0.266667  0.000000      4.000000
  0.142857  0.000000  0.266667      2.000000
  0.142857  0.000000 -0.266667      2.000000
  0.214286  0.266667  0.000000      4.000000
  0.214286  0.000000  0.266667      2.000000
  0.214286  0.000000 -0.266667      2.000000
  0.285714  0.266667  0.000000      4.000000
  0.285714  0.000000  0.266667      2.000000
  0.285714  0.000000 -0.266667      2.000000
  0.357143  0.266667  0.000000      4.000000
  0.357143  0.000000  0.266667      2.000000
  0.357143  0.000000 -0.266667      2.000000
  0.428571  0.266667  0.000000      4.000000
  0.428571  0.000000  0.266667      2.000000
  0.428571  0.000000 -0.266667      2.000000
  0.500000  0.266667  0.000000      2.000000
  0.500000  0.000000  0.266667      2.000000
  0.000000  0.333333  0.000000      2.000000
  0.000000  0.000000  0.333333      2.000000
  0.071429  0.333333  0.000000      4.000000
  0.071429  0.000000  0.333333      2.000000
  0.071429  0.000000 -0.333333      2.000000
  0.142857  0.333333  0.000000      4.000000
  0.142857  0.000000  0.333333      2.000000
  0.142857  0.000000 -0.333333      2.000000
  0.214286  0.333333  0.000000      4.000000
  0.214286  0.000000  0.333333      2.000000
  0.214286  0.000000 -0.333333      2.000000
  0.285714  0.333333  0.000000      4.000000
  0.285714  0.000000  0.333333      2.000000
  0.285714  0.000000 -0.333333      2.000000
  0.357143  0.333333  0.000000      4.000000
  0.357143  0.000000  0.333333      2.000000
  0.357143  0.000000 -0.333333      2.000000
  0.428571  0.333333  0.000000      4.000000
  0.428571  0.000000  0.333333      2.000000
  0.428571  0.000000 -0.333333      2.000000
  0.500000  0.333333  0.000000      2.000000
  0.500000  0.000000  0.333333      2.000000
  0.000000  0.400000  0.000000      2.000000
  0.000000  0.000000  0.400000      2.000000
  0.071429  0.400000  0.000000      4.000000
  0.071429  0.000000  0.400000      2.000000
  0.071429  0.000000 -0.400000      2.000000
  0.142857  0.400000  0.000000      4.000000
  0.142857  0.000000  0.400000      2.000000
  0.142857  0.000000 -0.400000      2.000000
  0.214286  0.400000  0.000000      4.000000
  0.214286  0.000000  0.400000      2.000000
  0.214286  0.000000 -0.400000      2.000000
  0.285714  0.400000  0.000000      4.000000
  0.285714  0.000000  0.400000      2.000000
  0.285714  0.000000 -0.400000      2.000000
  0.357143  0.400000  0.000000      4.000000
  0.357143  0.000000  0.400000      2.000000
  0.357143  0.000000 -0.400000      2.000000
  0.428571  0.400000  0.000000      4.000000
  0.428571  0.000000  0.400000      2.000000
  0.428571  0.000000 -0.400000      2.000000
  0.500000  0.400000  0.000000      2.000000
  0.500000  0.000000  0.400000      2.000000
  0.000000  0.466667  0.000000      2.000000
  0.000000  0.000000  0.466667      2.000000
  0.071429  0.466667  0.000000      4.000000
  0.071429  0.000000  0.466667      2.000000
  0.071429  0.000000 -0.466667      2.000000
  0.142857  0.466667  0.000000      4.000000
  0.142857  0.000000  0.466667      2.000000
  0.142857  0.000000 -0.466667      2.000000
  0.214286  0.466667  0.000000      4.000000
  0.214286  0.000000  0.466667      2.000000
  0.214286  0.000000 -0.466667      2.000000
  0.285714  0.466667  0.000000      4.000000
  0.285714  0.000000  0.466667      2.000000
  0.285714  0.000000 -0.466667      2.000000
  0.357143  0.466667  0.000000      4.000000
  0.357143  0.000000  0.466667      2.000000
  0.357143  0.000000 -0.466667      2.000000
  0.428571  0.466667  0.000000      4.000000
  0.428571  0.000000  0.466667      2.000000
  0.428571  0.000000 -0.466667      2.000000
  0.500000  0.466667  0.000000      2.000000
  0.500000  0.000000  0.466667      2.000000
  0.000000  0.066667  0.066667      4.000000
  0.071429  0.066667  0.066667      4.000000
  0.071429 -0.066667 -0.066667      4.000000
  0.142857  0.066667  0.066667      4.000000
  0.142857 -0.066667 -0.066667      4.000000
  0.214286  0.066667  0.066667      4.000000
  0.214286 -0.066667 -0.066667      4.000000
  0.285714  0.066667  0.066667      4.000000
  0.285714 -0.066667 -0.066667      4.000000
  0.357143  0.066667  0.066667      4.000000
  0.357143 -0.066667 -0.066667      4.000000
  0.428571  0.066667  0.066667      4.000000
  0.428571 -0.066667 -0.066667      4.000000
  0.500000  0.066667  0.066667      4.000000
  0.000000  0.133333  0.066667      4.000000
  0.000000 -0.066667  0.133333      4.000000
  0.071429  0.133333  0.066667      4.000000
  0.071429 -0.066667  0.133333      4.000000
  0.071429 -0.133333 -0.066667      4.000000
  0.071429  0.066667 -0.133333      4.000000
  0.142857  0.133333  0.066667      4.000000
  0.142857 -0.066667  0.133333      4.000000
  0.142857 -0.133333 -0.066667      4.000000
  0.142857  0.066667 -0.133333      4.000000
  0.214286  0.133333  0.066667      4.000000
  0.214286 -0.066667  0.133333      4.000000
  0.214286 -0.133333 -0.066667      4.000000
  0.214286  0.066667 -0.133333      4.000000
  0.285714  0.133333  0.066667      4.000000
  0.285714 -0.066667  0.133333      4.000000
  0.285714 -0.133333 -0.066667      4.000000
  0.285714  0.066667 -0.133333      4.000000
  0.357143  0.133333  0.066667      4.000000
  0.357143 -0.066667  0.133333      4.000000
  0.357143 -0.133333 -0.066667      4.000000
  0.357143  0.066667 -0.133333      4.000000
  0.428571  0.133333  0.066667      4.000000
  0.428571 -0.066667  0.133333      4.000000
  0.428571 -0.133333 -0.066667      4.000000
  0.428571  0.066667 -0.133333      4.000000
  0.500000  0.133333  0.066667      4.000000
  0.500000 -0.066667  0.133333      4.000000
  0.000000  0.200000  0.066667      4.000000
  0.000000 -0.066667  0.200000      4.000000
  0.071429  0.200000  0.066667      4.000000
  0.071429 -0.066667  0.200000      4.000000
  0.071429 -0.200000 -0.066667      4.000000
  0.071429  0.066667 -0.200000      4.000000
  0.142857  0.200000  0.066667      4.000000
  0.142857 -0.066667  0.200000      4.000000
  0.142857 -0.200000 -0.066667      4.000000
  0.142857  0.066667 -0.200000      4.000000
  0.214286  0.200000  0.066667      4.000000
  0.214286 -0.066667  0.200000      4.000000
  0.214286 -0.200000 -0.066667      4.000000
  0.214286  0.066667 -0.200000      4.000000
  0.285714  0.200000  0.066667      4.000000
  0.285714 -0.066667  0.200000      4.000000
  0.285714 -0.200000 -0.066667      4.000000
  0.285714  0.066667 -0.200000      4.000000
  0.357143  0.200000  0.066667      4.000000
  0.357143 -0.066667  0.200000      4.000000
  0.357143 -0.200000 -0.066667      4.000000
  0.357143  0.066667 -0.200000      4.000000
  0.428571  0.200000  0.066667      4.000000
  0.428571 -0.066667  0.200000      4.000000
  0.428571 -0.200000 -0.066667      4.000000
  0.428571  0.066667 -0.200000      4.000000
  0.500000  0.200000  0.066667      4.000000
  0.500000 -0.066667  0.200000      4.000000
  0.000000  0.266667  0.066667      4.000000
  0.000000 -0.066667  0.266667      4.000000
  0.071429  0.266667  0.066667      4.000000
  0.071429 -0.066667  0.266667      4.000000
  0.071429 -0.266667 -0.066667      4.000000
  0.071429  0.066667 -0.266667      4.000000
  0.142857  0.266667  0.066667      4.000000
  0.142857 -0.066667  0.266667      4.000000
  0.142857 -0.266667 -0.066667      4.000000
  0.142857  0.066667 -0.266667      4.000000
  0.214286  0.266667  0.066667      4.000000
  0.214286 -0.066667  0.266667      4.000000
  0.214286 -0.266667 -0.066667      4.000000
  0.214286  0.066667 -0.266667      4.000000
  0.285714  0.266667  0.066667      4.000000
  0.285714 -0.066667  0.266667      4.000000
  0.285714 -0.266667 -0.066667      4.000000
  0.285714  0.066667 -0.266667      4.000000
  0.357143  0.266667  0.066667      4.000000
  0.357143 -0.066667  0.266667      4.000000
  0.357143 -0.266667 -0.066667      4.000000
  0.357143  0.066667 -0.266667      4.000000
  0.428571  0.266667  0.066667      4.000000
  0.428571 -0.066667  0.266667      4.000000
  0.428571 -0.266667 -0.066667      4.000000
  0.428571  0.066667 -0.266667      4.000000
  0.500000  0.266667  0.066667      4.000000
  0.500000 -0.066667  0.266667      4.000000
  0.000000  0.333333  0.066667      4.000000
  0.000000 -0.066667  0.333333      4.000000
  0.071429  0.333333  0.066667      4.000000
  0.071429 -0.066667  0.333333      4.000000
  0.071429 -0.333333 -0.066667      4.000000
  0.071429  0.066667 -0.333333      4.000000
  0.142857  0.333333  0.066667      4.000000
  0.142857 -0.066667  0.333333      4.000000
  0.142857 -0.333333 -0.066667      4.000000
  0.142857  0.066667 -0.333333      4.000000
  0.214286  0.333333  0.066667      4.000000
  0.214286 -0.066667  0.333333      4.000000
  0.214286 -0.333333 -0.066667      4.000000
  0.214286  0.066667 -0.333333      4.000000
  0.285714  0.333333  0.066667      4.000000
  0.285714 -0.066667  0.333333      4.000000
  0.285714 -0.333333 -0.066667      4.000000
  0.285714  0.066667 -0.333333      4.000000
  0.357143  0.333333  0.066667      4.000000
  0.357143 -0.066667  0.333333      4.000000
  0.357143 -0.333333 -0.066667      4.000000
  0.357143  0.066667 -0.333333      4.000000
  0.428571  0.333333  0.066667      4.000000
  0.428571 -0.066667  0.333333      4.000000
  0.428571 -0.333333 -0.066667      4.000000
  0.428571  0.066667 -0.333333      4.000000
  0.500000  0.333333  0.066667      4.000000
  0.500000 -0.066667  0.333333      4.000000
  0.000000  0.400000  0.066667      4.000000
  0.000000 -0.066667  0.400000      4.000000
  0.071429  0.400000  0.066667      4.000000
  0.071429 -0.066667  0.400000      4.000000
  0.071429 -0.400000 -0.066667      4.000000
  0.071429  0.066667 -0.400000      4.000000
  0.142857  0.400000  0.066667      4.000000
  0.142857 -0.066667  0.400000      4.000000
  0.142857 -0.400000 -0.066667      4.000000
  0.142857  0.066667 -0.400000      4.000000
  0.214286  0.400000  0.066667      4.000000
  0.214286 -0.066667  0.400000      4.000000
  0.214286 -0.400000 -0.066667      4.000000
  0.214286  0.066667 -0.400000      4.000000
  0.285714  0.400000  0.066667      4.000000
  0.285714 -0.066667  0.400000      4.000000
  0.285714 -0.400000 -0.066667      4.000000
  0.285714  0.066667 -0.400000      4.000000
  0.357143  0.400000  0.066667      4.000000
  0.357143 -0.066667  0.400000      4.000000
  0.357143 -0.400000 -0.066667      4.000000
  0.357143  0.066667 -0.400000      4.000000
  0.428571  0.400000  0.066667      4.000000
  0.428571 -0.066667  0.400000      4.000000
  0.428571 -0.400000 -0.066667      4.000000
  0.428571  0.066667 -0.400000      4.000000
  0.500000  0.400000  0.066667      4.000000
  0.500000 -0.066667  0.400000      4.000000
  0.000000  0.466667  0.066667      4.000000
  0.000000 -0.066667  0.466667      4.000000
  0.071429  0.466667  0.066667      4.000000
  0.071429 -0.066667  0.466667      4.000000
  0.071429 -0.466667 -0.066667      4.000000
  0.071429  0.066667 -0.466667      4.000000
  0.142857  0.466667  0.066667      4.000000
  0.142857 -0.066667  0.466667      4.000000
  0.142857 -0.466667 -0.066667      4.000000
  0.142857  0.066667 -0.466667      4.000000
  0.214286  0.466667  0.066667      4.000000
  0.214286 -0.066667  0.466667      4.000000
  0.214286 -0.466667 -0.066667      4.000000
  0.214286  0.066667 -0.466667      4.000000
  0.285714  0.466667  0.066667      4.000000
  0.285714 -0.066667  0.466667      4.000000
  0.285714 -0.466667 -0.066667      4.000000
  0.285714  0.066667 -0.466667      4.000000
  0.357143  0.466667  0.066667      4.000000
  0.357143 -0.066667  0.466667      4.000000
  0.357143 -0.466667 -0.066667      4.000000
  0.357143  0.066667 -0.466667      4.000000
  0.428571  0.466667  0.066667      4.000000
  0.428571 -0.066667  0.466667      4.000000
  0.428571 -0.466667 -0.066667      4.000000
  0.428571  0.066667 -0.466667      4.000000
  0.500000  0.466667  0.066667      4.000000
  0.500000 -0.066667  0.466667      4.000000
  0.000000  0.133333  0.133333      4.000000
  0.071429  0.133333  0.133333      4.000000
  0.071429 -0.133333 -0.133333      4.000000
  0.142857  0.133333  0.133333      4.000000
  0.142857 -0.133333 -0.133333      4.000000
  0.214286  0.133333  0.133333      4.000000
  0.214286 -0.133333 -0.133333      4.000000
  0.285714  0.133333  0.133333      4.000000
  0.285714 -0.133333 -0.133333      4.000000
  0.357143  0.133333  0.133333      4.000000
  0.357143 -0.133333 -0.133333      4.000000
  0.428571  0.133333  0.133333      4.000000
  0.428571 -0.133333 -0.133333      4.000000
  0.500000  0.133333  0.133333      4.000000
  0.000000  0.200000  0.133333      4.000000
  0.000000 -0.133333  0.200000      4.000000
  0.071429  0.200000  0.133333      4.000000
  0.071429 -0.133333  0.200000      4.000000
  0.071429 -0.200000 -0.133333      4.000000
  0.071429  0.133333 -0.200000      4.000000
  0.142857  0.200000  0.133333      4.000000
  0.142857 -0.133333  0.200000      4.000000
  0.142857 -0.200000 -0.133333      4.000000
  0.142857  0.133333 -0.200000      4.000000
  0.214286  0.200000  0.133333      4.000000
  0.214286 -0.133333  0.200000      4.000000
  0.214286 -0.200000 -0.133333      4.000000
  0.214286  0.133333 -0.200000      4.000000
  0.285714  0.200000  0.133333      4.000000
  0.285714 -0.133333  0.200000      4.000000
  0.285714 -0.200000 -0.133333      4.000000
  0.285714  0.133333 -0.200000      4.000000
  0.357143  0.200000  0.133333      4.000000
  0.357143 -0.133333  0.200000      4.000000
  0.357143 -0.200000 -0.133333      4.000000
  0.357143  0.133333 -0.200000      4.000000
  0.428571  0.200000  0.133333      4.000000
  0.428571 -0.133333  0.200000      4.000000
  0.428571 -0.200000 -0.133333      4.000000
  0.428571  0.133333 -0.200000      4.000000
  0.500000  0.200000  0.133333      4.000000
  0.500000 -0.133333  0.200000      4.000000
  0.000000  0.266667  0.133333      4.000000
  0.000000 -0.133333  0.266667      4.000000
  0.071429  0.266667  0.133333      4.000000
  0.071429 -0.133333  0.266667      4.000000
  0.071429 -0.266667 -0.133333      4.000000
  0.071429  0.133333 -0.266667      4.000000
  0.142857  0.266667  0.133333      4.000000
  0.142857 -0.133333  0.266667      4.000000
  0.142857 -0.266667 -0.133333      4.000000
  0.142857  0.133333 -0.266667      4.000000
  0.214286  0.266667  0.133333      4.000000
  0.214286 -0.133333  0.266667      4.000000
  0.214286 -0.266667 -0.133333      4.000000
  0.214286  0.133333 -0.266667      4.000000
  0.285714  0.266667  0.133333      4.000000
  0.285714 -0.133333  0.266667      4.000000
  0.285714 -0.266667 -0.133333      4.000000
  0.285714  0.133333 -0.266667      4.000000
  0.357143  0.266667  0.133333      4.000000
  0.357143 -0.133333  0.266667      4.000000
  0.357143 -0.266667 -0.133333      4.000000
  0.357143  0.133333 -0.266667      4.000000
  0.428571  0.266667  0.133333      4.000000
  0.428571 -0.133333  0.266667      4.000000
  0.428571 -0.266667 -0.133333      4.000000
  0.428571  0.133333 -0.266667      4.000000
  0.500000  0.266667  0.133333      4.000000
  0.500000 -0.133333  0.266667      4.000000
  0.000000  0.333333  0.133333      4.000000
  0.000000 -0.133333  0.333333      4.000000
  0.071429  0.333333  0.133333      4.000000
  0.071429 -0.133333  0.333333      4.000000
  0.071429 -0.333333 -0.133333      4.000000
  0.071429  0.133333 -0.333333      4.000000
  0.142857  0.333333  0.133333      4.000000
  0.142857 -0.133333  0.333333      4.000000
  0.142857 -0.333333 -0.133333      4.000000
  0.142857  0.133333 -0.333333      4.000000
  0.214286  0.333333  0.133333      4.000000
  0.214286 -0.133333  0.333333      4.000000
  0.214286 -0.333333 -0.133333      4.000000
  0.214286  0.133333 -0.333333      4.000000
  0.285714  0.333333  0.133333      4.000000
  0.285714 -0.133333  0.333333      4.000000
  0.285714 -0.333333 -0.133333      4.000000
  0.285714  0.133333 -0.333333      4.000000
  0.357143  0.333333  0.133333      4.000000
  0.357143 -0.133333  0.333333      4.000000
  0.357143 -0.333333 -0.133333      4.000000
  0.357143  0.133333 -0.333333      4.000000
  0.428571  0.333333  0.133333      4.000000
  0.428571 -0.133333  0.333333      4.000000
  0.428571 -0.333333 -0.133333      4.000000
  0.428571  0.133333 -0.333333      4.000000
  0.500000  0.333333  0.133333      4.000000
  0.500000 -0.133333  0.333333      4.000000
  0.000000  0.400000  0.133333      4.000000
  0.000000 -0.133333  0.400000      4.000000
  0.071429  0.400000  0.133333      4.000000
  0.071429 -0.133333  0.400000      4.000000
  0.071429 -0.400000 -0.133333      4.000000
  0.071429  0.133333 -0.400000      4.000000
  0.142857  0.400000  0.133333      4.000000
  0.142857 -0.133333  0.400000      4.000000
  0.142857 -0.400000 -0.133333      4.000000
  0.142857  0.133333 -0.400000      4.000000
  0.214286  0.400000  0.133333      4.000000
  0.214286 -0.133333  0.400000      4.000000
  0.214286 -0.400000 -0.133333      4.000000
  0.214286  0.133333 -0.400000      4.000000
  0.285714  0.400000  0.133333      4.000000
  0.285714 -0.133333  0.400000      4.000000
  0.285714 -0.400000 -0.133333      4.000000
  0.285714  0.133333 -0.400000      4.000000
  0.357143  0.400000  0.133333      4.000000
  0.357143 -0.133333  0.400000      4.000000
  0.357143 -0.400000 -0.133333      4.000000
  0.357143  0.133333 -0.400000      4.000000
  0.428571  0.400000  0.133333      4.000000
  0.428571 -0.133333  0.400000      4.000000
  0.428571 -0.400000 -0.133333      4.000000
  0.428571  0.133333 -0.400000      4.000000
  0.500000  0.400000  0.133333      4.000000
  0.500000 -0.133333  0.400000      4.000000
  0.000000  0.466667  0.133333      4.000000
  0.000000 -0.133333  0.466667      4.000000
  0.071429  0.466667  0.133333      4.000000
  0.071429 -0.133333  0.466667      4.000000
  0.071429 -0.466667 -0.133333      4.000000
  0.071429  0.133333 -0.466667      4.000000
  0.142857  0.466667  0.133333      4.000000
  0.142857 -0.133333  0.466667      4.000000
  0.142857 -0.466667 -0.133333      4.000000
  0.142857  0.133333 -0.466667      4.000000
  0.214286  0.466667  0.133333      4.000000
  0.214286 -0.133333  0.466667      4.000000
  0.214286 -0.466667 -0.133333      4.000000
  0.214286  0.133333 -0.466667      4.000000
  0.285714  0.466667  0.133333      4.000000
  0.285714 -0.133333  0.466667      4.000000
  0.285714 -0.466667 -0.133333      4.000000
  0.285714  0.133333 -0.466667      4.000000
  0.357143  0.466667  0.133333      4.000000
  0.357143 -0.133333  0.466667      4.000000
  0.357143 -0.466667 -0.133333      4.000000
  0.357143  0.133333 -0.466667      4.000000
  0.428571  0.466667  0.133333      4.000000
  0.428571 -0.133333  0.466667      4.000000
  0.428571 -0.466667 -0.133333      4.000000
  0.428571  0.133333 -0.466667      4.000000
  0.500000  0.466667  0.133333      4.000000
  0.500000 -0.133333  0.466667      4.000000
  0.000000  0.200000  0.200000      4.000000
  0.071429  0.200000  0.200000      4.000000
  0.071429 -0.200000 -0.200000      4.000000
  0.142857  0.200000  0.200000      4.000000
  0.142857 -0.200000 -0.200000      4.000000
  0.214286  0.200000  0.200000      4.000000
  0.214286 -0.200000 -0.200000      4.000000
  0.285714  0.200000  0.200000      4.000000
  0.285714 -0.200000 -0.200000      4.000000
  0.357143  0.200000  0.200000      4.000000
  0.357143 -0.200000 -0.200000      4.000000
  0.428571  0.200000  0.200000      4.000000
  0.428571 -0.200000 -0.200000      4.000000
  0.500000  0.200000  0.200000      4.000000
  0.000000  0.266667  0.200000      4.000000
  0.000000 -0.200000  0.266667      4.000000
  0.071429  0.266667  0.200000      4.000000
  0.071429 -0.200000  0.266667      4.000000
  0.071429 -0.266667 -0.200000      4.000000
  0.071429  0.200000 -0.266667      4.000000
  0.142857  0.266667  0.200000      4.000000
  0.142857 -0.200000  0.266667      4.000000
  0.142857 -0.266667 -0.200000      4.000000
  0.142857  0.200000 -0.266667      4.000000
  0.214286  0.266667  0.200000      4.000000
  0.214286 -0.200000  0.266667      4.000000
  0.214286 -0.266667 -0.200000      4.000000
  0.214286  0.200000 -0.266667      4.000000
  0.285714  0.266667  0.200000      4.000000
  0.285714 -0.200000  0.266667      4.000000
  0.285714 -0.266667 -0.200000      4.000000
  0.285714  0.200000 -0.266667      4.000000
  0.357143  0.266667  0.200000      4.000000
  0.357143 -0.200000  0.266667      4.000000
  0.357143 -0.266667 -0.200000      4.000000
  0.357143  0.200000 -0.266667      4.000000
  0.428571  0.266667  0.200000      4.000000
  0.428571 -0.200000  0.266667      4.000000
  0.428571 -0.266667 -0.200000      4.000000
  0.428571  0.200000 -0.266667      4.000000
  0.500000  0.266667  0.200000      4.000000
  0.500000 -0.200000  0.266667      4.000000
  0.000000  0.333333  0.200000      4.000000
  0.000000 -0.200000  0.333333      4.000000
  0.071429  0.333333  0.200000      4.000000
  0.071429 -0.200000  0.333333      4.000000
  0.071429 -0.333333 -0.200000      4.000000
  0.071429  0.200000 -0.333333      4.000000
  0.142857  0.333333  0.200000      4.000000
  0.142857 -0.200000  0.333333      4.000000
  0.142857 -0.333333 -0.200000      4.000000
  0.142857  0.200000 -0.333333      4.000000
  0.214286  0.333333  0.200000      4.000000
  0.214286 -0.200000  0.333333      4.000000
  0.214286 -0.333333 -0.200000      4.000000
  0.214286  0.200000 -0.333333      4.000000
  0.285714  0.333333  0.200000      4.000000
  0.285714 -0.200000  0.333333      4.000000
  0.285714 -0.333333 -0.200000      4.000000
  0.285714  0.200000 -0.333333      4.000000
  0.357143  0.333333  0.200000      4.000000
  0.357143 -0.200000  0.333333      4.000000
  0.357143 -0.333333 -0.200000      4.000000
  0.357143  0.200000 -0.333333      4.000000
  0.428571  0.333333  0.200000      4.000000
  0.428571 -0.200000  0.333333      4.000000
  0.428571 -0.333333 -0.200000      4.000000
  0.428571  0.200000 -0.333333      4.000000
  0.500000  0.333333  0.200000      4.000000
  0.500000 -0.200000  0.333333      4.000000
  0.000000  0.400000  0.200000      4.000000
  0.000000 -0.200000  0.400000      4.000000
  0.071429  0.400000  0.200000      4.000000
  0.071429 -0.200000  0.400000      4.000000
  0.071429 -0.400000 -0.200000      4.000000
  0.071429  0.200000 -0.400000      4.000000
  0.142857  0.400000  0.200000      4.000000
  0.142857 -0.200000  0.400000      4.000000
  0.142857 -0.400000 -0.200000      4.000000
  0.142857  0.200000 -0.400000      4.000000
  0.214286  0.400000  0.200000      4.000000
  0.214286 -0.200000  0.400000      4.000000
  0.214286 -0.400000 -0.200000      4.000000
  0.214286  0.200000 -0.400000      4.000000
  0.285714  0.400000  0.200000      4.000000
  0.285714 -0.200000  0.400000      4.000000
  0.285714 -0.400000 -0.200000      4.000000
  0.285714  0.200000 -0.400000      4.000000
  0.357143  0.400000  0.200000      4.000000
  0.357143 -0.200000  0.400000      4.000000
  0.357143 -0.400000 -0.200000      4.000000
  0.357143  0.200000 -0.400000      4.000000
  0.428571  0.400000  0.200000      4.000000
  0.428571 -0.200000  0.400000      4.000000
  0.428571 -0.400000 -0.200000      4.000000
  0.428571  0.200000 -0.400000      4.000000
  0.500000  0.400000  0.200000      4.000000
  0.500000 -0.200000  0.400000      4.000000
  0.000000  0.466667  0.200000      4.000000
  0.000000 -0.200000  0.466667      4.000000
  0.071429  0.466667  0.200000      4.000000
  0.071429 -0.200000  0.466667      4.000000
  0.071429 -0.466667 -0.200000      4.000000
  0.071429  0.200000 -0.466667      4.000000
  0.142857  0.466667  0.200000      4.000000
  0.142857 -0.200000  0.466667      4.000000
  0.142857 -0.466667 -0.200000      4.000000
  0.142857  0.200000 -0.466667      4.000000
  0.214286  0.466667  0.200000      4.000000
  0.214286 -0.200000  0.466667      4.000000
  0.214286 -0.466667 -0.200000      4.000000
  0.214286  0.200000 -0.466667      4.000000
  0.285714  0.466667  0.200000      4.000000
  0.285714 -0.200000  0.466667      4.000000
  0.285714 -0.466667 -0.200000      4.000000
  0.285714  0.200000 -0.466667      4.000000
  0.357143  0.466667  0.200000      4.000000
  0.357143 -0.200000  0.466667      4.000000
  0.357143 -0.466667 -0.200000      4.000000
  0.357143  0.200000 -0.466667      4.000000
  0.428571  0.466667  0.200000      4.000000
  0.428571 -0.200000  0.466667      4.000000
  0.428571 -0.466667 -0.200000      4.000000
  0.428571  0.200000 -0.466667      4.000000
  0.500000  0.466667  0.200000      4.000000
  0.500000 -0.200000  0.466667      4.000000
  0.000000  0.266667  0.266667      4.000000
  0.071429  0.266667  0.266667      4.000000
  0.071429 -0.266667 -0.266667      4.000000
  0.142857  0.266667  0.266667      4.000000
  0.142857 -0.266667 -0.266667      4.000000
  0.214286  0.266667  0.266667      4.000000
  0.214286 -0.266667 -0.266667      4.000000
  0.285714  0.266667  0.266667      4.000000
  0.285714 -0.266667 -0.266667      4.000000
  0.357143  0.266667  0.266667      4.000000
  0.357143 -0.266667 -0.266667      4.000000
  0.428571  0.266667  0.266667      4.000000
  0.428571 -0.266667 -0.266667      4.000000
  0.500000  0.266667  0.266667      4.000000
  0.000000  0.333333  0.266667      4.000000
  0.000000 -0.266667  0.333333      4.000000
  0.071429  0.333333  0.266667      4.000000
  0.071429 -0.266667  0.333333      4.000000
  0.071429 -0.333333 -0.266667      4.000000
  0.071429  0.266667 -0.333333      4.000000
  0.142857  0.333333  0.266667      4.000000
  0.142857 -0.266667  0.333333      4.000000
  0.142857 -0.333333 -0.266667      4.000000
  0.142857  0.266667 -0.333333      4.000000
  0.214286  0.333333  0.266667      4.000000
  0.214286 -0.266667  0.333333      4.000000
  0.214286 -0.333333 -0.266667      4.000000
  0.214286  0.266667 -0.333333      4.000000
  0.285714  0.333333  0.266667      4.000000
  0.285714 -0.266667  0.333333      4.000000
  0.285714 -0.333333 -0.266667      4.000000
  0.285714  0.266667 -0.333333      4.000000
  0.357143  0.333333  0.266667      4.000000
  0.357143 -0.266667  0.333333      4.000000
  0.357143 -0.333333 -0.266667      4.000000
  0.357143  0.266667 -0.333333      4.000000
  0.428571  0.333333  0.266667      4.000000
  0.428571 -0.266667  0.333333      4.000000
  0.428571 -0.333333 -0.266667      4.000000
  0.428571  0.266667 -0.333333      4.000000
  0.500000  0.333333  0.266667      4.000000
  0.500000 -0.266667  0.333333      4.000000
  0.000000  0.400000  0.266667      4.000000
  0.000000 -0.266667  0.400000      4.000000
  0.071429  0.400000  0.266667      4.000000
  0.071429 -0.266667  0.400000      4.000000
  0.071429 -0.400000 -0.266667      4.000000
  0.071429  0.266667 -0.400000      4.000000
  0.142857  0.400000  0.266667      4.000000
  0.142857 -0.266667  0.400000      4.000000
  0.142857 -0.400000 -0.266667      4.000000
  0.142857  0.266667 -0.400000      4.000000
  0.214286  0.400000  0.266667      4.000000
  0.214286 -0.266667  0.400000      4.000000
  0.214286 -0.400000 -0.266667      4.000000
  0.214286  0.266667 -0.400000      4.000000
  0.285714  0.400000  0.266667      4.000000
  0.285714 -0.266667  0.400000      4.000000
  0.285714 -0.400000 -0.266667      4.000000
  0.285714  0.266667 -0.400000      4.000000
  0.357143  0.400000  0.266667      4.000000
  0.357143 -0.266667  0.400000      4.000000
  0.357143 -0.400000 -0.266667      4.000000
  0.357143  0.266667 -0.400000      4.000000
  0.428571  0.400000  0.266667      4.000000
  0.428571 -0.266667  0.400000      4.000000
  0.428571 -0.400000 -0.266667      4.000000
  0.428571  0.266667 -0.400000      4.000000
  0.500000  0.400000  0.266667      4.000000
  0.500000 -0.266667  0.400000      4.000000
  0.000000  0.466667  0.266667      4.000000
  0.000000 -0.266667  0.466667      4.000000
  0.071429  0.466667  0.266667      4.000000
  0.071429 -0.266667  0.466667      4.000000
  0.071429 -0.466667 -0.266667      4.000000
  0.071429  0.266667 -0.466667      4.000000
  0.142857  0.466667  0.266667      4.000000
  0.142857 -0.266667  0.466667      4.000000
  0.142857 -0.466667 -0.266667      4.000000
  0.142857  0.266667 -0.466667      4.000000
  0.214286  0.466667  0.266667      4.000000
  0.214286 -0.266667  0.466667      4.000000
  0.214286 -0.466667 -0.266667      4.000000
  0.214286  0.266667 -0.466667      4.000000
  0.285714  0.466667  0.266667      4.000000
  0.285714 -0.266667  0.466667      4.000000
  0.285714 -0.466667 -0.266667      4.000000
  0.285714  0.266667 -0.466667      4.000000
  0.357143  0.466667  0.266667      4.000000
  0.357143 -0.266667  0.466667      4.000000
  0.357143 -0.466667 -0.266667      4.000000
  0.357143  0.266667 -0.466667      4.000000
  0.428571  0.466667  0.266667      4.000000
  0.428571 -0.266667  0.466667      4.000000
  0.428571 -0.466667 -0.266667      4.000000
  0.428571  0.266667 -0.466667      4.000000
  0.500000  0.466667  0.266667      4.000000
  0.500000 -0.266667  0.466667      4.000000
  0.000000  0.333333  0.333333      4.000000
  0.071429  0.333333  0.333333      4.000000
  0.071429 -0.333333 -0.333333      4.000000
  0.142857  0.333333  0.333333      4.000000
  0.142857 -0.333333 -0.333333      4.000000
  0.214286  0.333333  0.333333      4.000000
  0.214286 -0.333333 -0.333333      4.000000
  0.285714  0.333333  0.333333      4.000000
  0.285714 -0.333333 -0.333333      4.000000
  0.357143  0.333333  0.333333      4.000000
  0.357143 -0.333333 -0.333333      4.000000
  0.428571  0.333333  0.333333      4.000000
  0.428571 -0.333333 -0.333333      4.000000
  0.500000  0.333333  0.333333      4.000000
  0.000000  0.400000  0.333333      4.000000
  0.000000 -0.333333  0.400000      4.000000
  0.071429  0.400000  0.333333      4.000000
  0.071429 -0.333333  0.400000      4.000000
  0.071429 -0.400000 -0.333333      4.000000
  0.071429  0.333333 -0.400000      4.000000
  0.142857  0.400000  0.333333      4.000000
  0.142857 -0.333333  0.400000      4.000000
  0.142857 -0.400000 -0.333333      4.000000
  0.142857  0.333333 -0.400000      4.000000
  0.214286  0.400000  0.333333      4.000000
  0.214286 -0.333333  0.400000      4.000000
  0.214286 -0.400000 -0.333333      4.000000
  0.214286  0.333333 -0.400000      4.000000
  0.285714  0.400000  0.333333      4.000000
  0.285714 -0.333333  0.400000      4.000000
  0.285714 -0.400000 -0.333333      4.000000
  0.285714  0.333333 -0.400000      4.000000
  0.357143  0.400000  0.333333      4.000000
  0.357143 -0.333333  0.400000      4.000000
  0.357143 -0.400000 -0.333333      4.000000
  0.357143  0.333333 -0.400000      4.000000
  0.428571  0.400000  0.333333      4.000000
  0.428571 -0.333333  0.400000      4.000000
  0.428571 -0.400000 -0.333333      4.000000
  0.428571  0.333333 -0.400000      4.000000
  0.500000  0.400000  0.333333      4.000000
  0.500000 -0.333333  0.400000      4.000000
  0.000000  0.466667  0.333333      4.000000
  0.000000 -0.333333  0.466667      4.000000
  0.071429  0.466667  0.333333      4.000000
  0.071429 -0.333333  0.466667      4.000000
  0.071429 -0.466667 -0.333333      4.000000
  0.071429  0.333333 -0.466667      4.000000
  0.142857  0.466667  0.333333      4.000000
  0.142857 -0.333333  0.466667      4.000000
  0.142857 -0.466667 -0.333333      4.000000
  0.142857  0.333333 -0.466667      4.000000
  0.214286  0.466667  0.333333      4.000000
  0.214286 -0.333333  0.466667      4.000000
  0.214286 -0.466667 -0.333333      4.000000
  0.214286  0.333333 -0.466667      4.000000
  0.285714  0.466667  0.333333      4.000000
  0.285714 -0.333333  0.466667      4.000000
  0.285714 -0.466667 -0.333333      4.000000
  0.285714  0.333333 -0.466667      4.000000
  0.357143  0.466667  0.333333      4.000000
  0.357143 -0.333333  0.466667      4.000000
  0.357143 -0.466667 -0.333333      4.000000
  0.357143  0.333333 -0.466667      4.000000
  0.428571  0.466667  0.333333      4.000000
  0.428571 -0.333333  0.466667      4.000000
  0.428571 -0.466667 -0.333333      4.000000
  0.428571  0.333333 -0.466667      4.000000
  0.500000  0.466667  0.333333      4.000000
  0.500000 -0.333333  0.466667      4.000000
  0.000000  0.400000  0.400000      4.000000
  0.071429  0.400000  0.400000      4.000000
  0.071429 -0.400000 -0.400000      4.000000
  0.142857  0.400000  0.400000      4.000000
  0.142857 -0.400000 -0.400000      4.000000
  0.214286  0.400000  0.400000      4.000000
  0.214286 -0.400000 -0.400000      4.000000
  0.285714  0.400000  0.400000      4.000000
  0.285714 -0.400000 -0.400000      4.000000
  0.357143  0.400000  0.400000      4.000000
  0.357143 -0.400000 -0.400000      4.000000
  0.428571  0.400000  0.400000      4.000000
  0.428571 -0.400000 -0.400000      4.000000
  0.500000  0.400000  0.400000      4.000000
  0.000000  0.466667  0.400000      4.000000
  0.000000 -0.400000  0.466667      4.000000
  0.071429  0.466667  0.400000      4.000000
  0.071429 -0.400000  0.466667      4.000000
  0.071429 -0.466667 -0.400000      4.000000
  0.071429  0.400000 -0.466667      4.000000
  0.142857  0.466667  0.400000      4.000000
  0.142857 -0.400000  0.466667      4.000000
  0.142857 -0.466667 -0.400000      4.000000
  0.142857  0.400000 -0.466667      4.000000
  0.214286  0.466667  0.400000      4.000000
  0.214286 -0.400000  0.466667      4.000000
  0.214286 -0.466667 -0.400000      4.000000
  0.214286  0.400000 -0.466667      4.000000
  0.285714  0.466667  0.400000      4.000000
  0.285714 -0.400000  0.466667      4.000000
  0.285714 -0.466667 -0.400000      4.000000
  0.285714  0.400000 -0.466667      4.000000
  0.357143  0.466667  0.400000      4.000000
  0.357143 -0.400000  0.466667      4.000000
  0.357143 -0.466667 -0.400000      4.000000
  0.357143  0.400000 -0.466667      4.000000
  0.428571  0.466667  0.400000      4.000000
  0.428571 -0.400000  0.466667      4.000000
  0.428571 -0.466667 -0.400000      4.000000
  0.428571  0.400000 -0.466667      4.000000
  0.500000  0.466667  0.400000      4.000000
  0.500000 -0.400000  0.466667      4.000000
  0.000000  0.466667  0.466667      4.000000
  0.071429  0.466667  0.466667      4.000000
  0.071429 -0.466667 -0.466667      4.000000
  0.142857  0.466667  0.466667      4.000000
  0.142857 -0.466667 -0.466667      4.000000
  0.214286  0.466667  0.466667      4.000000
  0.214286 -0.466667 -0.466667      4.000000
  0.285714  0.466667  0.466667      4.000000
  0.285714 -0.466667 -0.466667      4.000000
  0.357143  0.466667  0.466667      4.000000
  0.357143 -0.466667 -0.466667      4.000000
  0.428571  0.466667  0.466667      4.000000
  0.428571 -0.466667 -0.466667      4.000000
  0.500000  0.466667  0.466667      4.000000
 
 Following cartesian coordinates:
            Coordinates               Weight
  0.000000  0.000000  0.000000      1.000000
  0.015309  0.000000  0.000000      2.000000
  0.030618  0.000000  0.000000      2.000000
  0.045927  0.000000  0.000000      2.000000
  0.061235  0.000000  0.000000      2.000000
  0.076544  0.000000  0.000000      2.000000
  0.091853  0.000000  0.000000      2.000000
  0.107162  0.000000  0.000000      1.000000
  0.000000  0.015003  0.000000      2.000000
  0.000000  0.000000  0.015003      2.000000
  0.015309  0.015003  0.000000      4.000000
  0.015309  0.000000  0.015003      2.000000
  0.015309  0.000000 -0.015003      2.000000
  0.030618  0.015003  0.000000      4.000000
  0.030618  0.000000  0.015003      2.000000
  0.030618  0.000000 -0.015003      2.000000
  0.045927  0.015003  0.000000      4.000000
  0.045927  0.000000  0.015003      2.000000
  0.045927  0.000000 -0.015003      2.000000
  0.061235  0.015003  0.000000      4.000000
  0.061235  0.000000  0.015003      2.000000
  0.061235  0.000000 -0.015003      2.000000
  0.076544  0.015003  0.000000      4.000000
  0.076544  0.000000  0.015003      2.000000
  0.076544  0.000000 -0.015003      2.000000
  0.091853  0.015003  0.000000      4.000000
  0.091853  0.000000  0.015003      2.000000
  0.091853  0.000000 -0.015003      2.000000
  0.107162  0.015003  0.000000      2.000000
  0.107162  0.000000  0.015003      2.000000
  0.000000  0.030005  0.000000      2.000000
  0.000000  0.000000  0.030005      2.000000
  0.015309  0.030005  0.000000      4.000000
  0.015309  0.000000  0.030005      2.000000
  0.015309  0.000000 -0.030005      2.000000
  0.030618  0.030005  0.000000      4.000000
  0.030618  0.000000  0.030005      2.000000
  0.030618  0.000000 -0.030005      2.000000
  0.045927  0.030005  0.000000      4.000000
  0.045927  0.000000  0.030005      2.000000
  0.045927  0.000000 -0.030005      2.000000
  0.061235  0.030005  0.000000      4.000000
  0.061235  0.000000  0.030005      2.000000
  0.061235  0.000000 -0.030005      2.000000
  0.076544  0.030005  0.000000      4.000000
  0.076544  0.000000  0.030005      2.000000
  0.076544  0.000000 -0.030005      2.000000
  0.091853  0.030005  0.000000      4.000000
  0.091853  0.000000  0.030005      2.000000
  0.091853  0.000000 -0.030005      2.000000
  0.107162  0.030005  0.000000      2.000000
  0.107162  0.000000  0.030005      2.000000
  0.000000  0.045008  0.000000      2.000000
  0.000000  0.000000  0.045008      2.000000
  0.015309  0.045008  0.000000      4.000000
  0.015309  0.000000  0.045008      2.000000
  0.015309  0.000000 -0.045008      2.000000
  0.030618  0.045008  0.000000      4.000000
  0.030618  0.000000  0.045008      2.000000
  0.030618  0.000000 -0.045008      2.000000
  0.045927  0.045008  0.000000      4.000000
  0.045927  0.000000  0.045008      2.000000
  0.045927  0.000000 -0.045008      2.000000
  0.061235  0.045008  0.000000      4.000000
  0.061235  0.000000  0.045008      2.000000
  0.061235  0.000000 -0.045008      2.000000
  0.076544  0.045008  0.000000      4.000000
  0.076544  0.000000  0.045008      2.000000
  0.076544  0.000000 -0.045008      2.000000
  0.091853  0.045008  0.000000      4.000000
  0.091853  0.000000  0.045008      2.000000
  0.091853  0.000000 -0.045008      2.000000
  0.107162  0.045008  0.000000      2.000000
  0.107162  0.000000  0.045008      2.000000
  0.000000  0.060011  0.000000      2.000000
  0.000000  0.000000  0.060011      2.000000
  0.015309  0.060011  0.000000      4.000000
  0.015309  0.000000  0.060011      2.000000
  0.015309  0.000000 -0.060011      2.000000
  0.030618  0.060011  0.000000      4.000000
  0.030618  0.000000  0.060011      2.000000
  0.030618  0.000000 -0.060011      2.000000
  0.045927  0.060011  0.000000      4.000000
  0.045927  0.000000  0.060011      2.000000
  0.045927  0.000000 -0.060011      2.000000
  0.061235  0.060011  0.000000      4.000000
  0.061235  0.000000  0.060011      2.000000
  0.061235  0.000000 -0.060011      2.000000
  0.076544  0.060011  0.000000      4.000000
  0.076544  0.000000  0.060011      2.000000
  0.076544  0.000000 -0.060011      2.000000
  0.091853  0.060011  0.000000      4.000000
  0.091853  0.000000  0.060011      2.000000
  0.091853  0.000000 -0.060011      2.000000
  0.107162  0.060011  0.000000      2.000000
  0.107162  0.000000  0.060011      2.000000
  0.000000  0.075013  0.000000      2.000000
  0.000000  0.000000  0.075013      2.000000
  0.015309  0.075013  0.000000      4.000000
  0.015309  0.000000  0.075013      2.000000
  0.015309  0.000000 -0.075013      2.000000
  0.030618  0.075013  0.000000      4.000000
  0.030618  0.000000  0.075013      2.000000
  0.030618  0.000000 -0.075013      2.000000
  0.045927  0.075013  0.000000      4.000000
  0.045927  0.000000  0.075013      2.000000
  0.045927  0.000000 -0.075013      2.000000
  0.061235  0.075013  0.000000      4.000000
  0.061235  0.000000  0.075013      2.000000
  0.061235  0.000000 -0.075013      2.000000
  0.076544  0.075013  0.000000      4.000000
  0.076544  0.000000  0.075013      2.000000
  0.076544  0.000000 -0.075013      2.000000
  0.091853  0.075013  0.000000      4.000000
  0.091853  0.000000  0.075013      2.000000
  0.091853  0.000000 -0.075013      2.000000
  0.107162  0.075013  0.000000      2.000000
  0.107162  0.000000  0.075013      2.000000
  0.000000  0.090016  0.000000      2.000000
  0.000000  0.000000  0.090016      2.000000
  0.015309  0.090016  0.000000      4.000000
  0.015309  0.000000  0.090016      2.000000
  0.015309  0.000000 -0.090016      2.000000
  0.030618  0.090016  0.000000      4.000000
  0.030618  0.000000  0.090016      2.000000
  0.030618  0.000000 -0.090016      2.000000
  0.045927  0.090016  0.000000      4.000000
  0.045927  0.000000  0.090016      2.000000
  0.045927  0.000000 -0.090016      2.000000
  0.061235  0.090016  0.000000      4.000000
  0.061235  0.000000  0.090016      2.000000
  0.061235  0.000000 -0.090016      2.000000
  0.076544  0.090016  0.000000      4.000000
  0.076544  0.000000  0.090016      2.000000
  0.076544  0.000000 -0.090016      2.000000
  0.091853  0.090016  0.000000      4.000000
  0.091853  0.000000  0.090016      2.000000
  0.091853  0.000000 -0.090016      2.000000
  0.107162  0.090016  0.000000      2.000000
  0.107162  0.000000  0.090016      2.000000
  0.000000  0.105019  0.000000      2.000000
  0.000000  0.000000  0.105019      2.000000
  0.015309  0.105019  0.000000      4.000000
  0.015309  0.000000  0.105019      2.000000
  0.015309  0.000000 -0.105019      2.000000
  0.030618  0.105019  0.000000      4.000000
  0.030618  0.000000  0.105019      2.000000
  0.030618  0.000000 -0.105019      2.000000
  0.045927  0.105019  0.000000      4.000000
  0.045927  0.000000  0.105019      2.000000
  0.045927  0.000000 -0.105019      2.000000
  0.061235  0.105019  0.000000      4.000000
  0.061235  0.000000  0.105019      2.000000
  0.061235  0.000000 -0.105019      2.000000
  0.076544  0.105019  0.000000      4.000000
  0.076544  0.000000  0.105019      2.000000
  0.076544  0.000000 -0.105019      2.000000
  0.091853  0.105019  0.000000      4.000000
  0.091853  0.000000  0.105019      2.000000
  0.091853  0.000000 -0.105019      2.000000
  0.107162  0.105019  0.000000      2.000000
  0.107162  0.000000  0.105019      2.000000
  0.000000  0.015003  0.015003      4.000000
  0.015309  0.015003  0.015003      4.000000
  0.015309 -0.015003 -0.015003      4.000000
  0.030618  0.015003  0.015003      4.000000
  0.030618 -0.015003 -0.015003      4.000000
  0.045927  0.015003  0.015003      4.000000
  0.045927 -0.015003 -0.015003      4.000000
  0.061235  0.015003  0.015003      4.000000
  0.061235 -0.015003 -0.015003      4.000000
  0.076544  0.015003  0.015003      4.000000
  0.076544 -0.015003 -0.015003      4.000000
  0.091853  0.015003  0.015003      4.000000
  0.091853 -0.015003 -0.015003      4.000000
  0.107162  0.015003  0.015003      4.000000
  0.000000  0.030005  0.015003      4.000000
  0.000000 -0.015003  0.030005      4.000000
  0.015309  0.030005  0.015003      4.000000
  0.015309 -0.015003  0.030005      4.000000
  0.015309 -0.030005 -0.015003      4.000000
  0.015309  0.015003 -0.030005      4.000000
  0.030618  0.030005  0.015003      4.000000
  0.030618 -0.015003  0.030005      4.000000
  0.030618 -0.030005 -0.015003      4.000000
  0.030618  0.015003 -0.030005      4.000000
  0.045927  0.030005  0.015003      4.000000
  0.045927 -0.015003  0.030005      4.000000
  0.045927 -0.030005 -0.015003      4.000000
  0.045927  0.015003 -0.030005      4.000000
  0.061235  0.030005  0.015003      4.000000
  0.061235 -0.015003  0.030005      4.000000
  0.061235 -0.030005 -0.015003      4.000000
  0.061235  0.015003 -0.030005      4.000000
  0.076544  0.030005  0.015003      4.000000
  0.076544 -0.015003  0.030005      4.000000
  0.076544 -0.030005 -0.015003      4.000000
  0.076544  0.015003 -0.030005      4.000000
  0.091853  0.030005  0.015003      4.000000
  0.091853 -0.015003  0.030005      4.000000
  0.091853 -0.030005 -0.015003      4.000000
  0.091853  0.015003 -0.030005      4.000000
  0.107162  0.030005  0.015003      4.000000
  0.107162 -0.015003  0.030005      4.000000
  0.000000  0.045008  0.015003      4.000000
  0.000000 -0.015003  0.045008      4.000000
  0.015309  0.045008  0.015003      4.000000
  0.015309 -0.015003  0.045008      4.000000
  0.015309 -0.045008 -0.015003      4.000000
  0.015309  0.015003 -0.045008      4.000000
  0.030618  0.045008  0.015003      4.000000
  0.030618 -0.015003  0.045008      4.000000
  0.030618 -0.045008 -0.015003      4.000000
  0.030618  0.015003 -0.045008      4.000000
  0.045927  0.045008  0.015003      4.000000
  0.045927 -0.015003  0.045008      4.000000
  0.045927 -0.045008 -0.015003      4.000000
  0.045927  0.015003 -0.045008      4.000000
  0.061235  0.045008  0.015003      4.000000
  0.061235 -0.015003  0.045008      4.000000
  0.061235 -0.045008 -0.015003      4.000000
  0.061235  0.015003 -0.045008      4.000000
  0.076544  0.045008  0.015003      4.000000
  0.076544 -0.015003  0.045008      4.000000
  0.076544 -0.045008 -0.015003      4.000000
  0.076544  0.015003 -0.045008      4.000000
  0.091853  0.045008  0.015003      4.000000
  0.091853 -0.015003  0.045008      4.000000
  0.091853 -0.045008 -0.015003      4.000000
  0.091853  0.015003 -0.045008      4.000000
  0.107162  0.045008  0.015003      4.000000
  0.107162 -0.015003  0.045008      4.000000
  0.000000  0.060011  0.015003      4.000000
  0.000000 -0.015003  0.060011      4.000000
  0.015309  0.060011  0.015003      4.000000
  0.015309 -0.015003  0.060011      4.000000
  0.015309 -0.060011 -0.015003      4.000000
  0.015309  0.015003 -0.060011      4.000000
  0.030618  0.060011  0.015003      4.000000
  0.030618 -0.015003  0.060011      4.000000
  0.030618 -0.060011 -0.015003      4.000000
  0.030618  0.015003 -0.060011      4.000000
  0.045927  0.060011  0.015003      4.000000
  0.045927 -0.015003  0.060011      4.000000
  0.045927 -0.060011 -0.015003      4.000000
  0.045927  0.015003 -0.060011      4.000000
  0.061235  0.060011  0.015003      4.000000
  0.061235 -0.015003  0.060011      4.000000
  0.061235 -0.060011 -0.015003      4.000000
  0.061235  0.015003 -0.060011      4.000000
  0.076544  0.060011  0.015003      4.000000
  0.076544 -0.015003  0.060011      4.000000
  0.076544 -0.060011 -0.015003      4.000000
  0.076544  0.015003 -0.060011      4.000000
  0.091853  0.060011  0.015003      4.000000
  0.091853 -0.015003  0.060011      4.000000
  0.091853 -0.060011 -0.015003      4.000000
  0.091853  0.015003 -0.060011      4.000000
  0.107162  0.060011  0.015003      4.000000
  0.107162 -0.015003  0.060011      4.000000
  0.000000  0.075013  0.015003      4.000000
  0.000000 -0.015003  0.075013      4.000000
  0.015309  0.075013  0.015003      4.000000
  0.015309 -0.015003  0.075013      4.000000
  0.015309 -0.075013 -0.015003      4.000000
  0.015309  0.015003 -0.075013      4.000000
  0.030618  0.075013  0.015003      4.000000
  0.030618 -0.015003  0.075013      4.000000
  0.030618 -0.075013 -0.015003      4.000000
  0.030618  0.015003 -0.075013      4.000000
  0.045927  0.075013  0.015003      4.000000
  0.045927 -0.015003  0.075013      4.000000
  0.045927 -0.075013 -0.015003      4.000000
  0.045927  0.015003 -0.075013      4.000000
  0.061235  0.075013  0.015003      4.000000
  0.061235 -0.015003  0.075013      4.000000
  0.061235 -0.075013 -0.015003      4.000000
  0.061235  0.015003 -0.075013      4.000000
  0.076544  0.075013  0.015003      4.000000
  0.076544 -0.015003  0.075013      4.000000
  0.076544 -0.075013 -0.015003      4.000000
  0.076544  0.015003 -0.075013      4.000000
  0.091853  0.075013  0.015003      4.000000
  0.091853 -0.015003  0.075013      4.000000
  0.091853 -0.075013 -0.015003      4.000000
  0.091853  0.015003 -0.075013      4.000000
  0.107162  0.075013  0.015003      4.000000
  0.107162 -0.015003  0.075013      4.000000
  0.000000  0.090016  0.015003      4.000000
  0.000000 -0.015003  0.090016      4.000000
  0.015309  0.090016  0.015003      4.000000
  0.015309 -0.015003  0.090016      4.000000
  0.015309 -0.090016 -0.015003      4.000000
  0.015309  0.015003 -0.090016      4.000000
  0.030618  0.090016  0.015003      4.000000
  0.030618 -0.015003  0.090016      4.000000
  0.030618 -0.090016 -0.015003      4.000000
  0.030618  0.015003 -0.090016      4.000000
  0.045927  0.090016  0.015003      4.000000
  0.045927 -0.015003  0.090016      4.000000
  0.045927 -0.090016 -0.015003      4.000000
  0.045927  0.015003 -0.090016      4.000000
  0.061235  0.090016  0.015003      4.000000
  0.061235 -0.015003  0.090016      4.000000
  0.061235 -0.090016 -0.015003      4.000000
  0.061235  0.015003 -0.090016      4.000000
  0.076544  0.090016  0.015003      4.000000
  0.076544 -0.015003  0.090016      4.000000
  0.076544 -0.090016 -0.015003      4.000000
  0.076544  0.015003 -0.090016      4.000000
  0.091853  0.090016  0.015003      4.000000
  0.091853 -0.015003  0.090016      4.000000
  0.091853 -0.090016 -0.015003      4.000000
  0.091853  0.015003 -0.090016      4.000000
  0.107162  0.090016  0.015003      4.000000
  0.107162 -0.015003  0.090016      4.000000
  0.000000  0.105019  0.015003      4.000000
  0.000000 -0.015003  0.105019      4.000000
  0.015309  0.105019  0.015003      4.000000
  0.015309 -0.015003  0.105019      4.000000
  0.015309 -0.105019 -0.015003      4.000000
  0.015309  0.015003 -0.105019      4.000000
  0.030618  0.105019  0.015003      4.000000
  0.030618 -0.015003  0.105019      4.000000
  0.030618 -0.105019 -0.015003      4.000000
  0.030618  0.015003 -0.105019      4.000000
  0.045927  0.105019  0.015003      4.000000
  0.045927 -0.015003  0.105019      4.000000
  0.045927 -0.105019 -0.015003      4.000000
  0.045927  0.015003 -0.105019      4.000000
  0.061235  0.105019  0.015003      4.000000
  0.061235 -0.015003  0.105019      4.000000
  0.061235 -0.105019 -0.015003      4.000000
  0.061235  0.015003 -0.105019      4.000000
  0.076544  0.105019  0.015003      4.000000
  0.076544 -0.015003  0.105019      4.000000
  0.076544 -0.105019 -0.015003      4.000000
  0.076544  0.015003 -0.105019      4.000000
  0.091853  0.105019  0.015003      4.000000
  0.091853 -0.015003  0.105019      4.000000
  0.091853 -0.105019 -0.015003      4.000000
  0.091853  0.015003 -0.105019      4.000000
  0.107162  0.105019  0.015003      4.000000
  0.107162 -0.015003  0.105019      4.000000
  0.000000  0.030005  0.030005      4.000000
  0.015309  0.030005  0.030005      4.000000
  0.015309 -0.030005 -0.030005      4.000000
  0.030618  0.030005  0.030005      4.000000
  0.030618 -0.030005 -0.030005      4.000000
  0.045927  0.030005  0.030005      4.000000
  0.045927 -0.030005 -0.030005      4.000000
  0.061235  0.030005  0.030005      4.000000
  0.061235 -0.030005 -0.030005      4.000000
  0.076544  0.030005  0.030005      4.000000
  0.076544 -0.030005 -0.030005      4.000000
  0.091853  0.030005  0.030005      4.000000
  0.091853 -0.030005 -0.030005      4.000000
  0.107162  0.030005  0.030005      4.000000
  0.000000  0.045008  0.030005      4.000000
  0.000000 -0.030005  0.045008      4.000000
  0.015309  0.045008  0.030005      4.000000
  0.015309 -0.030005  0.045008      4.000000
  0.015309 -0.045008 -0.030005      4.000000
  0.015309  0.030005 -0.045008      4.000000
  0.030618  0.045008  0.030005      4.000000
  0.030618 -0.030005  0.045008      4.000000
  0.030618 -0.045008 -0.030005      4.000000
  0.030618  0.030005 -0.045008      4.000000
  0.045927  0.045008  0.030005      4.000000
  0.045927 -0.030005  0.045008      4.000000
  0.045927 -0.045008 -0.030005      4.000000
  0.045927  0.030005 -0.045008      4.000000
  0.061235  0.045008  0.030005      4.000000
  0.061235 -0.030005  0.045008      4.000000
  0.061235 -0.045008 -0.030005      4.000000
  0.061235  0.030005 -0.045008      4.000000
  0.076544  0.045008  0.030005      4.000000
  0.076544 -0.030005  0.045008      4.000000
  0.076544 -0.045008 -0.030005      4.000000
  0.076544  0.030005 -0.045008      4.000000
  0.091853  0.045008  0.030005      4.000000
  0.091853 -0.030005  0.045008      4.000000
  0.091853 -0.045008 -0.030005      4.000000
  0.091853  0.030005 -0.045008      4.000000
  0.107162  0.045008  0.030005      4.000000
  0.107162 -0.030005  0.045008      4.000000
  0.000000  0.060011  0.030005      4.000000
  0.000000 -0.030005  0.060011      4.000000
  0.015309  0.060011  0.030005      4.000000
  0.015309 -0.030005  0.060011      4.000000
  0.015309 -0.060011 -0.030005      4.000000
  0.015309  0.030005 -0.060011      4.000000
  0.030618  0.060011  0.030005      4.000000
  0.030618 -0.030005  0.060011      4.000000
  0.030618 -0.060011 -0.030005      4.000000
  0.030618  0.030005 -0.060011      4.000000
  0.045927  0.060011  0.030005      4.000000
  0.045927 -0.030005  0.060011      4.000000
  0.045927 -0.060011 -0.030005      4.000000
  0.045927  0.030005 -0.060011      4.000000
  0.061235  0.060011  0.030005      4.000000
  0.061235 -0.030005  0.060011      4.000000
  0.061235 -0.060011 -0.030005      4.000000
  0.061235  0.030005 -0.060011      4.000000
  0.076544  0.060011  0.030005      4.000000
  0.076544 -0.030005  0.060011      4.000000
  0.076544 -0.060011 -0.030005      4.000000
  0.076544  0.030005 -0.060011      4.000000
  0.091853  0.060011  0.030005      4.000000
  0.091853 -0.030005  0.060011      4.000000
  0.091853 -0.060011 -0.030005      4.000000
  0.091853  0.030005 -0.060011      4.000000
  0.107162  0.060011  0.030005      4.000000
  0.107162 -0.030005  0.060011      4.000000
  0.000000  0.075013  0.030005      4.000000
  0.000000 -0.030005  0.075013      4.000000
  0.015309  0.075013  0.030005      4.000000
  0.015309 -0.030005  0.075013      4.000000
  0.015309 -0.075013 -0.030005      4.000000
  0.015309  0.030005 -0.075013      4.000000
  0.030618  0.075013  0.030005      4.000000
  0.030618 -0.030005  0.075013      4.000000
  0.030618 -0.075013 -0.030005      4.000000
  0.030618  0.030005 -0.075013      4.000000
  0.045927  0.075013  0.030005      4.000000
  0.045927 -0.030005  0.075013      4.000000
  0.045927 -0.075013 -0.030005      4.000000
  0.045927  0.030005 -0.075013      4.000000
  0.061235  0.075013  0.030005      4.000000
  0.061235 -0.030005  0.075013      4.000000
  0.061235 -0.075013 -0.030005      4.000000
  0.061235  0.030005 -0.075013      4.000000
  0.076544  0.075013  0.030005      4.000000
  0.076544 -0.030005  0.075013      4.000000
  0.076544 -0.075013 -0.030005      4.000000
  0.076544  0.030005 -0.075013      4.000000
  0.091853  0.075013  0.030005      4.000000
  0.091853 -0.030005  0.075013      4.000000
  0.091853 -0.075013 -0.030005      4.000000
  0.091853  0.030005 -0.075013      4.000000
  0.107162  0.075013  0.030005      4.000000
  0.107162 -0.030005  0.075013      4.000000
  0.000000  0.090016  0.030005      4.000000
  0.000000 -0.030005  0.090016      4.000000
  0.015309  0.090016  0.030005      4.000000
  0.015309 -0.030005  0.090016      4.000000
  0.015309 -0.090016 -0.030005      4.000000
  0.015309  0.030005 -0.090016      4.000000
  0.030618  0.090016  0.030005      4.000000
  0.030618 -0.030005  0.090016      4.000000
  0.030618 -0.090016 -0.030005      4.000000
  0.030618  0.030005 -0.090016      4.000000
  0.045927  0.090016  0.030005      4.000000
  0.045927 -0.030005  0.090016      4.000000
  0.045927 -0.090016 -0.030005      4.000000
  0.045927  0.030005 -0.090016      4.000000
  0.061235  0.090016  0.030005      4.000000
  0.061235 -0.030005  0.090016      4.000000
  0.061235 -0.090016 -0.030005      4.000000
  0.061235  0.030005 -0.090016      4.000000
  0.076544  0.090016  0.030005      4.000000
  0.076544 -0.030005  0.090016      4.000000
  0.076544 -0.090016 -0.030005      4.000000
  0.076544  0.030005 -0.090016      4.000000
  0.091853  0.090016  0.030005      4.000000
  0.091853 -0.030005  0.090016      4.000000
  0.091853 -0.090016 -0.030005      4.000000
  0.091853  0.030005 -0.090016      4.000000
  0.107162  0.090016  0.030005      4.000000
  0.107162 -0.030005  0.090016      4.000000
  0.000000  0.105019  0.030005      4.000000
  0.000000 -0.030005  0.105019      4.000000
  0.015309  0.105019  0.030005      4.000000
  0.015309 -0.030005  0.105019      4.000000
  0.015309 -0.105019 -0.030005      4.000000
  0.015309  0.030005 -0.105019      4.000000
  0.030618  0.105019  0.030005      4.000000
  0.030618 -0.030005  0.105019      4.000000
  0.030618 -0.105019 -0.030005      4.000000
  0.030618  0.030005 -0.105019      4.000000
  0.045927  0.105019  0.030005      4.000000
  0.045927 -0.030005  0.105019      4.000000
  0.045927 -0.105019 -0.030005      4.000000
  0.045927  0.030005 -0.105019      4.000000
  0.061235  0.105019  0.030005      4.000000
  0.061235 -0.030005  0.105019      4.000000
  0.061235 -0.105019 -0.030005      4.000000
  0.061235  0.030005 -0.105019      4.000000
  0.076544  0.105019  0.030005      4.000000
  0.076544 -0.030005  0.105019      4.000000
  0.076544 -0.105019 -0.030005      4.000000
  0.076544  0.030005 -0.105019      4.000000
  0.091853  0.105019  0.030005      4.000000
  0.091853 -0.030005  0.105019      4.000000
  0.091853 -0.105019 -0.030005      4.000000
  0.091853  0.030005 -0.105019      4.000000
  0.107162  0.105019  0.030005      4.000000
  0.107162 -0.030005  0.105019      4.000000
  0.000000  0.045008  0.045008      4.000000
  0.015309  0.045008  0.045008      4.000000
  0.015309 -0.045008 -0.045008      4.000000
  0.030618  0.045008  0.045008      4.000000
  0.030618 -0.045008 -0.045008      4.000000
  0.045927  0.045008  0.045008      4.000000
  0.045927 -0.045008 -0.045008      4.000000
  0.061235  0.045008  0.045008      4.000000
  0.061235 -0.045008 -0.045008      4.000000
  0.076544  0.045008  0.045008      4.000000
  0.076544 -0.045008 -0.045008      4.000000
  0.091853  0.045008  0.045008      4.000000
  0.091853 -0.045008 -0.045008      4.000000
  0.107162  0.045008  0.045008      4.000000
  0.000000  0.060011  0.045008      4.000000
  0.000000 -0.045008  0.060011      4.000000
  0.015309  0.060011  0.045008      4.000000
  0.015309 -0.045008  0.060011      4.000000
  0.015309 -0.060011 -0.045008      4.000000
  0.015309  0.045008 -0.060011      4.000000
  0.030618  0.060011  0.045008      4.000000
  0.030618 -0.045008  0.060011      4.000000
  0.030618 -0.060011 -0.045008      4.000000
  0.030618  0.045008 -0.060011      4.000000
  0.045927  0.060011  0.045008      4.000000
  0.045927 -0.045008  0.060011      4.000000
  0.045927 -0.060011 -0.045008      4.000000
  0.045927  0.045008 -0.060011      4.000000
  0.061235  0.060011  0.045008      4.000000
  0.061235 -0.045008  0.060011      4.000000
  0.061235 -0.060011 -0.045008      4.000000
  0.061235  0.045008 -0.060011      4.000000
  0.076544  0.060011  0.045008      4.000000
  0.076544 -0.045008  0.060011      4.000000
  0.076544 -0.060011 -0.045008      4.000000
  0.076544  0.045008 -0.060011      4.000000
  0.091853  0.060011  0.045008      4.000000
  0.091853 -0.045008  0.060011      4.000000
  0.091853 -0.060011 -0.045008      4.000000
  0.091853  0.045008 -0.060011      4.000000
  0.107162  0.060011  0.045008      4.000000
  0.107162 -0.045008  0.060011      4.000000
  0.000000  0.075013  0.045008      4.000000
  0.000000 -0.045008  0.075013      4.000000
  0.015309  0.075013  0.045008      4.000000
  0.015309 -0.045008  0.075013      4.000000
  0.015309 -0.075013 -0.045008      4.000000
  0.015309  0.045008 -0.075013      4.000000
  0.030618  0.075013  0.045008      4.000000
  0.030618 -0.045008  0.075013      4.000000
  0.030618 -0.075013 -0.045008      4.000000
  0.030618  0.045008 -0.075013      4.000000
  0.045927  0.075013  0.045008      4.000000
  0.045927 -0.045008  0.075013      4.000000
  0.045927 -0.075013 -0.045008      4.000000
  0.045927  0.045008 -0.075013      4.000000
  0.061235  0.075013  0.045008      4.000000
  0.061235 -0.045008  0.075013      4.000000
  0.061235 -0.075013 -0.045008      4.000000
  0.061235  0.045008 -0.075013      4.000000
  0.076544  0.075013  0.045008      4.000000
  0.076544 -0.045008  0.075013      4.000000
  0.076544 -0.075013 -0.045008      4.000000
  0.076544  0.045008 -0.075013      4.000000
  0.091853  0.075013  0.045008      4.000000
  0.091853 -0.045008  0.075013      4.000000
  0.091853 -0.075013 -0.045008      4.000000
  0.091853  0.045008 -0.075013      4.000000
  0.107162  0.075013  0.045008      4.000000
  0.107162 -0.045008  0.075013      4.000000
  0.000000  0.090016  0.045008      4.000000
  0.000000 -0.045008  0.090016      4.000000
  0.015309  0.090016  0.045008      4.000000
  0.015309 -0.045008  0.090016      4.000000
  0.015309 -0.090016 -0.045008      4.000000
  0.015309  0.045008 -0.090016      4.000000
  0.030618  0.090016  0.045008      4.000000
  0.030618 -0.045008  0.090016      4.000000
  0.030618 -0.090016 -0.045008      4.000000
  0.030618  0.045008 -0.090016      4.000000
  0.045927  0.090016  0.045008      4.000000
  0.045927 -0.045008  0.090016      4.000000
  0.045927 -0.090016 -0.045008      4.000000
  0.045927  0.045008 -0.090016      4.000000
  0.061235  0.090016  0.045008      4.000000
  0.061235 -0.045008  0.090016      4.000000
  0.061235 -0.090016 -0.045008      4.000000
  0.061235  0.045008 -0.090016      4.000000
  0.076544  0.090016  0.045008      4.000000
  0.076544 -0.045008  0.090016      4.000000
  0.076544 -0.090016 -0.045008      4.000000
  0.076544  0.045008 -0.090016      4.000000
  0.091853  0.090016  0.045008      4.000000
  0.091853 -0.045008  0.090016      4.000000
  0.091853 -0.090016 -0.045008      4.000000
  0.091853  0.045008 -0.090016      4.000000
  0.107162  0.090016  0.045008      4.000000
  0.107162 -0.045008  0.090016      4.000000
  0.000000  0.105019  0.045008      4.000000
  0.000000 -0.045008  0.105019      4.000000
  0.015309  0.105019  0.045008      4.000000
  0.015309 -0.045008  0.105019      4.000000
  0.015309 -0.105019 -0.045008      4.000000
  0.015309  0.045008 -0.105019      4.000000
  0.030618  0.105019  0.045008      4.000000
  0.030618 -0.045008  0.105019      4.000000
  0.030618 -0.105019 -0.045008      4.000000
  0.030618  0.045008 -0.105019      4.000000
  0.045927  0.105019  0.045008      4.000000
  0.045927 -0.045008  0.105019      4.000000
  0.045927 -0.105019 -0.045008      4.000000
  0.045927  0.045008 -0.105019      4.000000
  0.061235  0.105019  0.045008      4.000000
  0.061235 -0.045008  0.105019      4.000000
  0.061235 -0.105019 -0.045008      4.000000
  0.061235  0.045008 -0.105019      4.000000
  0.076544  0.105019  0.045008      4.000000
  0.076544 -0.045008  0.105019      4.000000
  0.076544 -0.105019 -0.045008      4.000000
  0.076544  0.045008 -0.105019      4.000000
  0.091853  0.105019  0.045008      4.000000
  0.091853 -0.045008  0.105019      4.000000
  0.091853 -0.105019 -0.045008      4.000000
  0.091853  0.045008 -0.105019      4.000000
  0.107162  0.105019  0.045008      4.000000
  0.107162 -0.045008  0.105019      4.000000
  0.000000  0.060011  0.060011      4.000000
  0.015309  0.060011  0.060011      4.000000
  0.015309 -0.060011 -0.060011      4.000000
  0.030618  0.060011  0.060011      4.000000
  0.030618 -0.060011 -0.060011      4.000000
  0.045927  0.060011  0.060011      4.000000
  0.045927 -0.060011 -0.060011      4.000000
  0.061235  0.060011  0.060011      4.000000
  0.061235 -0.060011 -0.060011      4.000000
  0.076544  0.060011  0.060011      4.000000
  0.076544 -0.060011 -0.060011      4.000000
  0.091853  0.060011  0.060011      4.000000
  0.091853 -0.060011 -0.060011      4.000000
  0.107162  0.060011  0.060011      4.000000
  0.000000  0.075013  0.060011      4.000000
  0.000000 -0.060011  0.075013      4.000000
  0.015309  0.075013  0.060011      4.000000
  0.015309 -0.060011  0.075013      4.000000
  0.015309 -0.075013 -0.060011      4.000000
  0.015309  0.060011 -0.075013      4.000000
  0.030618  0.075013  0.060011      4.000000
  0.030618 -0.060011  0.075013      4.000000
  0.030618 -0.075013 -0.060011      4.000000
  0.030618  0.060011 -0.075013      4.000000
  0.045927  0.075013  0.060011      4.000000
  0.045927 -0.060011  0.075013      4.000000
  0.045927 -0.075013 -0.060011      4.000000
  0.045927  0.060011 -0.075013      4.000000
  0.061235  0.075013  0.060011      4.000000
  0.061235 -0.060011  0.075013      4.000000
  0.061235 -0.075013 -0.060011      4.000000
  0.061235  0.060011 -0.075013      4.000000
  0.076544  0.075013  0.060011      4.000000
  0.076544 -0.060011  0.075013      4.000000
  0.076544 -0.075013 -0.060011      4.000000
  0.076544  0.060011 -0.075013      4.000000
  0.091853  0.075013  0.060011      4.000000
  0.091853 -0.060011  0.075013      4.000000
  0.091853 -0.075013 -0.060011      4.000000
  0.091853  0.060011 -0.075013      4.000000
  0.107162  0.075013  0.060011      4.000000
  0.107162 -0.060011  0.075013      4.000000
  0.000000  0.090016  0.060011      4.000000
  0.000000 -0.060011  0.090016      4.000000
  0.015309  0.090016  0.060011      4.000000
  0.015309 -0.060011  0.090016      4.000000
  0.015309 -0.090016 -0.060011      4.000000
  0.015309  0.060011 -0.090016      4.000000
  0.030618  0.090016  0.060011      4.000000
  0.030618 -0.060011  0.090016      4.000000
  0.030618 -0.090016 -0.060011      4.000000
  0.030618  0.060011 -0.090016      4.000000
  0.045927  0.090016  0.060011      4.000000
  0.045927 -0.060011  0.090016      4.000000
  0.045927 -0.090016 -0.060011      4.000000
  0.045927  0.060011 -0.090016      4.000000
  0.061235  0.090016  0.060011      4.000000
  0.061235 -0.060011  0.090016      4.000000
  0.061235 -0.090016 -0.060011      4.000000
  0.061235  0.060011 -0.090016      4.000000
  0.076544  0.090016  0.060011      4.000000
  0.076544 -0.060011  0.090016      4.000000
  0.076544 -0.090016 -0.060011      4.000000
  0.076544  0.060011 -0.090016      4.000000
  0.091853  0.090016  0.060011      4.000000
  0.091853 -0.060011  0.090016      4.000000
  0.091853 -0.090016 -0.060011      4.000000
  0.091853  0.060011 -0.090016      4.000000
  0.107162  0.090016  0.060011      4.000000
  0.107162 -0.060011  0.090016      4.000000
  0.000000  0.105019  0.060011      4.000000
  0.000000 -0.060011  0.105019      4.000000
  0.015309  0.105019  0.060011      4.000000
  0.015309 -0.060011  0.105019      4.000000
  0.015309 -0.105019 -0.060011      4.000000
  0.015309  0.060011 -0.105019      4.000000
  0.030618  0.105019  0.060011      4.000000
  0.030618 -0.060011  0.105019      4.000000
  0.030618 -0.105019 -0.060011      4.000000
  0.030618  0.060011 -0.105019      4.000000
  0.045927  0.105019  0.060011      4.000000
  0.045927 -0.060011  0.105019      4.000000
  0.045927 -0.105019 -0.060011      4.000000
  0.045927  0.060011 -0.105019      4.000000
  0.061235  0.105019  0.060011      4.000000
  0.061235 -0.060011  0.105019      4.000000
  0.061235 -0.105019 -0.060011      4.000000
  0.061235  0.060011 -0.105019      4.000000
  0.076544  0.105019  0.060011      4.000000
  0.076544 -0.060011  0.105019      4.000000
  0.076544 -0.105019 -0.060011      4.000000
  0.076544  0.060011 -0.105019      4.000000
  0.091853  0.105019  0.060011      4.000000
  0.091853 -0.060011  0.105019      4.000000
  0.091853 -0.105019 -0.060011      4.000000
  0.091853  0.060011 -0.105019      4.000000
  0.107162  0.105019  0.060011      4.000000
  0.107162 -0.060011  0.105019      4.000000
  0.000000  0.075013  0.075013      4.000000
  0.015309  0.075013  0.075013      4.000000
  0.015309 -0.075013 -0.075013      4.000000
  0.030618  0.075013  0.075013      4.000000
  0.030618 -0.075013 -0.075013      4.000000
  0.045927  0.075013  0.075013      4.000000
  0.045927 -0.075013 -0.075013      4.000000
  0.061235  0.075013  0.075013      4.000000
  0.061235 -0.075013 -0.075013      4.000000
  0.076544  0.075013  0.075013      4.000000
  0.076544 -0.075013 -0.075013      4.000000
  0.091853  0.075013  0.075013      4.000000
  0.091853 -0.075013 -0.075013      4.000000
  0.107162  0.075013  0.075013      4.000000
  0.000000  0.090016  0.075013      4.000000
  0.000000 -0.075013  0.090016      4.000000
  0.015309  0.090016  0.075013      4.000000
  0.015309 -0.075013  0.090016      4.000000
  0.015309 -0.090016 -0.075013      4.000000
  0.015309  0.075013 -0.090016      4.000000
  0.030618  0.090016  0.075013      4.000000
  0.030618 -0.075013  0.090016      4.000000
  0.030618 -0.090016 -0.075013      4.000000
  0.030618  0.075013 -0.090016      4.000000
  0.045927  0.090016  0.075013      4.000000
  0.045927 -0.075013  0.090016      4.000000
  0.045927 -0.090016 -0.075013      4.000000
  0.045927  0.075013 -0.090016      4.000000
  0.061235  0.090016  0.075013      4.000000
  0.061235 -0.075013  0.090016      4.000000
  0.061235 -0.090016 -0.075013      4.000000
  0.061235  0.075013 -0.090016      4.000000
  0.076544  0.090016  0.075013      4.000000
  0.076544 -0.075013  0.090016      4.000000
  0.076544 -0.090016 -0.075013      4.000000
  0.076544  0.075013 -0.090016      4.000000
  0.091853  0.090016  0.075013      4.000000
  0.091853 -0.075013  0.090016      4.000000
  0.091853 -0.090016 -0.075013      4.000000
  0.091853  0.075013 -0.090016      4.000000
  0.107162  0.090016  0.075013      4.000000
  0.107162 -0.075013  0.090016      4.000000
  0.000000  0.105019  0.075013      4.000000
  0.000000 -0.075013  0.105019      4.000000
  0.015309  0.105019  0.075013      4.000000
  0.015309 -0.075013  0.105019      4.000000
  0.015309 -0.105019 -0.075013      4.000000
  0.015309  0.075013 -0.105019      4.000000
  0.030618  0.105019  0.075013      4.000000
  0.030618 -0.075013  0.105019      4.000000
  0.030618 -0.105019 -0.075013      4.000000
  0.030618  0.075013 -0.105019      4.000000
  0.045927  0.105019  0.075013      4.000000
  0.045927 -0.075013  0.105019      4.000000
  0.045927 -0.105019 -0.075013      4.000000
  0.045927  0.075013 -0.105019      4.000000
  0.061235  0.105019  0.075013      4.000000
  0.061235 -0.075013  0.105019      4.000000
  0.061235 -0.105019 -0.075013      4.000000
  0.061235  0.075013 -0.105019      4.000000
  0.076544  0.105019  0.075013      4.000000
  0.076544 -0.075013  0.105019      4.000000
  0.076544 -0.105019 -0.075013      4.000000
  0.076544  0.075013 -0.105019      4.000000
  0.091853  0.105019  0.075013      4.000000
  0.091853 -0.075013  0.105019      4.000000
  0.091853 -0.105019 -0.075013      4.000000
  0.091853  0.075013 -0.105019      4.000000
  0.107162  0.105019  0.075013      4.000000
  0.107162 -0.075013  0.105019      4.000000
  0.000000  0.090016  0.090016      4.000000
  0.015309  0.090016  0.090016      4.000000
  0.015309 -0.090016 -0.090016      4.000000
  0.030618  0.090016  0.090016      4.000000
  0.030618 -0.090016 -0.090016      4.000000
  0.045927  0.090016  0.090016      4.000000
  0.045927 -0.090016 -0.090016      4.000000
  0.061235  0.090016  0.090016      4.000000
  0.061235 -0.090016 -0.090016      4.000000
  0.076544  0.090016  0.090016      4.000000
  0.076544 -0.090016 -0.090016      4.000000
  0.091853  0.090016  0.090016      4.000000
  0.091853 -0.090016 -0.090016      4.000000
  0.107162  0.090016  0.090016      4.000000
  0.000000  0.105019  0.090016      4.000000
  0.000000 -0.090016  0.105019      4.000000
  0.015309  0.105019  0.090016      4.000000
  0.015309 -0.090016  0.105019      4.000000
  0.015309 -0.105019 -0.090016      4.000000
  0.015309  0.090016 -0.105019      4.000000
  0.030618  0.105019  0.090016      4.000000
  0.030618 -0.090016  0.105019      4.000000
  0.030618 -0.105019 -0.090016      4.000000
  0.030618  0.090016 -0.105019      4.000000
  0.045927  0.105019  0.090016      4.000000
  0.045927 -0.090016  0.105019      4.000000
  0.045927 -0.105019 -0.090016      4.000000
  0.045927  0.090016 -0.105019      4.000000
  0.061235  0.105019  0.090016      4.000000
  0.061235 -0.090016  0.105019      4.000000
  0.061235 -0.105019 -0.090016      4.000000
  0.061235  0.090016 -0.105019      4.000000
  0.076544  0.105019  0.090016      4.000000
  0.076544 -0.090016  0.105019      4.000000
  0.076544 -0.105019 -0.090016      4.000000
  0.076544  0.090016 -0.105019      4.000000
  0.091853  0.105019  0.090016      4.000000
  0.091853 -0.090016  0.105019      4.000000
  0.091853 -0.105019 -0.090016      4.000000
  0.091853  0.090016 -0.105019      4.000000
  0.107162  0.105019  0.090016      4.000000
  0.107162 -0.090016  0.105019      4.000000
  0.000000  0.105019  0.105019      4.000000
  0.015309  0.105019  0.105019      4.000000
  0.015309 -0.105019 -0.105019      4.000000
  0.030618  0.105019  0.105019      4.000000
  0.030618 -0.105019 -0.105019      4.000000
  0.045927  0.105019  0.105019      4.000000
  0.045927 -0.105019 -0.105019      4.000000
  0.061235  0.105019  0.105019      4.000000
  0.061235 -0.105019 -0.105019      4.000000
  0.076544  0.105019  0.105019      4.000000
  0.076544 -0.105019 -0.105019      4.000000
  0.091853  0.105019  0.105019      4.000000
  0.091853 -0.105019 -0.105019      4.000000
  0.107162  0.105019  0.105019      4.000000
 


--------------------------------------------------------------------------------------------------------




 Dimension of arrays:
   k-points           NKPTS =    848   k-points in BZ     NKDIM =    848   number of bands    NBANDS=     10
   number of dos      NEDOS =    301   number of ions     NIONS =      4
   non local maximal  LDIM  =      3   non local SUM 2l+1 LMDIM =      5
   total plane-waves  NPLWV =  51840
   max r-space proj   IRMAX =   2637   max aug-charges    IRDMAX=   7093
   dimension x,y,z NGX =    40 NGY =   36 NGZ =   36
   dimension x,y,z NGXF=    80 NGYF=   72 NGZF=   72
   support grid    NGXF=    80 NGYF=   72 NGZF=   72
   ions per type =               4
   NGX,Y,Z   is equivalent  to a cutoff of  14.25, 13.47, 13.47 a.u.
   NGXF,Y,Z  is equivalent  to a cutoff of  28.50, 26.94, 26.94 a.u.

 SYSTEM =  unknown system                          
 POSCAR =  Li                                      

 Startparameter for this run:
   NWRITE =      2    write-flag & timer
   PREC   = accura    normal or accurate (medium, high low for compatibility)
   ISTART =      0    job   : 0-new  1-cont  2-samecut
   ICHARG =      2    charge: 1-file 2-atom 10-const
   ISPIN  =      1    spin polarized calculation?
   LNONCOLLINEAR =      F non collinear calculations
   LSORBIT =      F    spin-orbit coupling
   INIWAV =      1    electr: 0-lowe 1-rand  2-diag
   LASPH  =      F    aspherical Exc in radial PAW
 Electronic Relaxation 1
   ENCUT  =  600.0 eV  44.10 Ry    6.64 a.u.   9.32  8.88  8.88*2*pi/ulx,y,z
   ENINI  =  600.0     initial cutoff
   ENAUG  =  628.9 eV  augmentation charge cutoff
   NELM   =    120;   NELMIN=  2; NELMDL= -5     # of ELM steps 
   EDIFF  = 0.1E-05   stopping-criterion for ELM
   LREAL  =      T    real-space projection
   NLSPLINE    = F    spline interpolate recip. space projectors
   LCOMPAT=      F    compatible to vasp.4.4
   GGA_COMPAT  = T    GGA compatible to vasp.4.4-vasp.4.6
   LMAXPAW     = -100 max onsite density
   LMAXMIX     =    2 max onsite mixed and CHGCAR
   VOSKOWN=      0    Vosko Wilk Nusair interpolation
   ROPT   =   -0.00025
 Ionic relaxation
   EDIFFG = 0.1E-04   stopping-criterion for IOM
   NSW    =      1    number of steps for IOM
   NBLOCK =      1;   KBLOCK =      1    inner block; outer block 
   IBRION =     -1    ionic relax: 0-MD 1-quasi-New 2-CG
   NFREE  =      0    steps in history (QN), initial steepest desc. (CG)
   ISIF   =      2    stress and relaxation
   IWAVPR =     10    prediction:  0-non 1-charg 2-wave 3-comb
   ISYM   =      2    0-nonsym 1-usesym 2-fastsym
   LCORR  =      T    Harris-Foulkes like correction to forces

   POTIM  = 0.5000    time-step for ionic-motion
   TEIN   =    0.0    initial temperature
   TEBEG  =    0.0;   TEEND  =   0.0 temperature during run
   SMASS  =  -3.00    Nose mass-parameter (am)
   estimated Nose-frequenzy (Omega)   =  0.10E-29 period in steps = 0.13E+47 mass=  -0.497E-27a.u.
   SCALEE = 1.0000    scale energy and forces
   NPACO  =    256;   APACO  = 10.0  distance and # of slots for P.C.
   PSTRESS=    0.0 pullay stress

  Mass of Ions in am
   POMASS =   7.01
  Ionic Valenz
   ZVAL   =   3.00
  Atomic Wigner-Seitz radii
   RWIGS  =  -1.00
  virtual crystal weights 
   VCA    =   1.00
   NELECT =      12.0000    total number of electrons
   NUPDOWN=      -1.0000    fix difference up-down

 DOS related values:
   EMIN   =  10.00;   EMAX   =-10.00  energy-range for DOS
   EFERMI =   0.00;   METHOD = LEGACY      
   ISMEAR =     0;   SIGMA  =   0.02  broadening in eV -4-tet -1-fermi 0-gaus
   EFERMI_NEDOS =   21; number of points for ismear=-14 and -15

 Electronic relaxation 2 (details)
   IALGO  =     38    algorithm
   LDIAG  =      T    sub-space diagonalisation (order eigenvalues)
   LSUBROT=      F    optimize rotation matrix (better conditioning)
   LROBUST=      F    robust break criterion during scf (extrapolated energy error)
   ISEARCH=      0    line search for conjugate gradient (0, 1=use gradient)
   TURBO    =      0    0=normal 1=particle mesh
   IRESTART =      0    0=no restart 2=restart with 2 vectors
   NREBOOT  =      0    no. of reboots
   NMIN     =      0    reboot dimension
   EREF     =   0.00    reference energy to select bands
   IMIX   =      4    mixing-type and parameters
     AMIX     =   0.40;   BMIX     =  1.00
     AMIX_MAG =   1.60;   BMIX_MAG =  1.00
     AMIN     =   0.10
     WC   =   100.;   INIMIX=   1;  MIXPRE=   1;  MAXMIX= -45

 Intra band minimization:
   WEIMIN = 0.0000     energy-eigenvalue tresh-hold
   EBREAK =  0.25E-07  absolut break condition
   DEPER  =   0.30     relativ break condition  

   TIME   =   0.40     timestep for ELM

  volume/ion in A,a.u.               =      23.03       155.43
  Fermi-wavevector in a.u.,A,eV,Ry     =   0.829849  1.568188  9.369651  0.688650
  Thomas-Fermi vector in A             =   1.942466
 
 Write flags
   LWAVE        =      F    write WAVECAR
   LDOWNSAMPLE  =      F    k-point downsampling of WAVECAR
   LCHARG       =      F    write CHGCAR
   LVTOT        =      F    write LOCPOT, total local potential
   LVHAR        =      F    write LOCPOT, Hartree potential only
   WRT_POTENTIAL= false  ! write potential to hdf5 file
   LELF         =      F    write electronic localiz. function (ELF)
   LORBIT       =      0    0 simple, 1 ext, 2 COOP (PROOUT), +10 PAW based schemes


 Python interface
   PLUGINS active      =      F    recompile with -DPLUGINS to activate
 
 Dipole corrections
   LMONO      =      F    monopole corrections only (constant potential shift)
   LDIPOL     =      F    correct potential (dipole corrections)
   IDIPOL     =      0    1-x, 2-y, 3-z, 4-all directions 
   EPSILON    =  1.0000000 bulk dielectric constant
   LVACPOTAV  =      F  vacuum potentials using an averaging scheme for the charge density
   VACPOTFLAT =  0.1000000 required flatness to determine vacuum potential
 
Coulomb truncation method
  LTRUNCATE          =      F  Coulomb kernel truncation to be used

 
 Exchange correlation treatment:
   GGA     = PE    functional components
   XC_C    = 1    coefficients multiplying the functional components
   LIBXC   =     F    Libxc                    
   VOSKOWN =     0    Vosko Wilk Nusair interpolation
   LHFCALC =     F    Hartree Fock is set to
   LHFONE  =     F    Hartree Fock one center treatment
   AEXX    =    0.0000 exact exchange contribution

 Parameters of functionals:
   PE:
     No parameter
 
 Van der Waals corrections
   IVDW    =     0    specifies the selected vdW correction

 Linear response parameters
   LEPSILON=     F    determine dielectric tensor
   LRPA    =     F    only Hartree local field effects (RPA)
   LNABLA  =     F    use nabla operator in PAW spheres
   LVEL    =     F    velocity operator in full k-point grid
   CSHIFT  =0.1000    complex shift for real part using Kramers Kronig
   OMEGAMAX=  -1.0    maximum frequency
   DEG_THRESHOLD= 0.2000000E-02 threshold for treating states as degnerate
   RTIME   =   -0.100 relaxation time in fs
  (WPLASMAI=    0.000 imaginary part of plasma frequency in eV, 0.658/RTIME)
   DFIELD  = 0.0000000 0.0000000 0.0000000 field for delta impulse in time
 
  Optional k-point grid parameters
   LKPOINTS_OPT  =     F    use optional k-point grid
   KPOINTS_OPT_MODE=     1    mode for optional k-point grid
 
 Orbital magnetization related:
   ORBITALMAG=     F  switch on orbital magnetization
   LCHIMAG   =     F  perturbation theory with respect to B field
   DQ        =  0.001000  dq finite difference perturbation B field
   LLRAUG    =     F  two centre corrections for induced B field
   LBONE     =     F  B-component reconstruction in AE one-centre
   LVGVCALC  =     T  calculate vGv susceptibility
   LVGVAPPL  =     F  apply vGv susceptibility instead of pGv for G=0

 Random number generation:
   RANDOM_GENERATOR = DEFAULT
   PCG_SEED         = not used


--------------------------------------------------------------------------------------------------------


 Static calculation
 charge density and potential will be updated during run
 non-spin polarized calculation
 Variant of blocked Davidson
 Davidson routine will perform the subspace rotation
 perform sub-space diagonalisation
    after iterative eigenvector-optimisation
 modified Broyden-mixing scheme, WC =      100.0
 initial mixing is a Kerker type mixing with AMIX =  0.4000 and BMIX =      1.0000
 Hartree-type preconditioning will be used
 using additional bands             4
 real space projection scheme for non local part
 calculate Harris-corrections to forces 
   (improved forces if not selfconsistent)
 use gradient corrections 
 use of overlap-Matrix (Vanderbilt PP)
 Gauss-broadening in eV      SIGMA  =   0.02


--------------------------------------------------------------------------------------------------------


  energy-cutoff  :      600.00
  volume of cell :       92.13
      direct lattice vectors                 reciprocal lattice vectors
     4.665829396  0.000000000  0.000000000     0.214324167  0.000000000  0.000000000
     0.000000000  4.443647044  0.000000000     0.000000000  0.225040376  0.000000000
     0.000000000  0.000000000  4.443647044     0.000000000  0.000000000  0.225040376

  length of vectors
     4.665829396  4.443647044  4.443647044     0.214324167  0.225040376  0.225040376


 
 k-points in units of 2pi/SCALE and weight: read from INCAR                         
   0.00000000  0.00000000  0.00000000       0.000
   0.01530887  0.00000000  0.00000000       0.001
   0.03061774  0.00000000  0.00000000       0.001
   0.04592661  0.00000000  0.00000000       0.001
   0.06123548  0.00000000  0.00000000       0.001
   0.07654435  0.00000000  0.00000000       0.001
   0.09185321  0.00000000  0.00000000       0.001
   0.10716208  0.00000000  0.00000000       0.000
   0.00000000  0.01500269  0.00000000       0.001
   0.00000000  0.00000000  0.01500269       0.001
   0.01530887  0.01500269  0.00000000       0.001
   0.01530887  0.00000000  0.01500269       0.001
   0.01530887  0.00000000 -0.01500269       0.001
   0.03061774  0.01500269  0.00000000       0.001
   0.03061774  0.00000000  0.01500269       0.001
   0.03061774  0.00000000 -0.01500269       0.001
   0.04592661  0.01500269  0.00000000       0.001
   0.04592661  0.00000000  0.01500269       0.001
   0.04592661  0.00000000 -0.01500269       0.001
   0.06123548  0.01500269  0.00000000       0.001
   0.06123548  0.00000000  0.01500269       0.001
   0.06123548  0.00000000 -0.01500269       0.001
   0.07654435  0.01500269  0.00000000       0.001
   0.07654435  0.00000000  0.01500269       0.001
   0.07654435  0.00000000 -0.01500269       0.001
   0.09185321  0.01500269  0.00000000       0.001
   0.09185321  0.00000000  0.01500269       0.001
   0.09185321  0.00000000 -0.01500269       0.001
   0.10716208  0.01500269  0.00000000       0.001
   0.10716208  0.00000000  0.01500269       0.001
   0.00000000  0.03000538  0.00000000       0.001
   0.00000000  0.00000000  0.03000538       0.001
   0.01530887  0.03000538  0.00000000       0.001
   0.01530887  0.00000000  0.03000538       0.001
   0.01530887  0.00000000 -0.03000538       0.001
   0.03061774  0.03000538  0.00000000       0.001
   0.03061774  0.00000000  0.03000538       0.001
   0.03061774  0.00000000 -0.03000538       0.001
   0.04592661  0.03000538  0.00000000       0.001
   0.04592661  0.00000000  0.03000538       0.001
   0.04592661  0.00000000 -0.03000538       0.001
   0.06123548  0.03000538  0.00000000       0.001
   0.06123548  0.00000000  0.03000538       0.001
   0.06123548  0.00000000 -0.03000538       0.001
   0.07654435  0.03000538  0.00000000       0.001
   0.07654435  0.00000000  0.03000538       0.001
   0.07654435  0.00000000 -0.03000538       0.001
   0.09185321  0.03000538  0.00000000       0.001
   0.09185321  0.00000000  0.03000538       0.001
   0.09185321  0.00000000 -0.03000538       0.001
   0.10716208  0.03000538  0.00000000       0.001
   0.10716208  0.00000000  0.03000538       0.001
   0.00000000  0.04500808  0.00000000       0.001
   0.00000000  0.00000000  0.04500808       0.001
   0.01530887  0.04500808  0.00000000       0.001
   0.01530887  0.00000000  0.04500808       0.001
   0.01530887  0.00000000 -0.04500808       0.001
   0.03061774  0.04500808  0.00000000       0.001
   0.03061774  0.00000000  0.04500808       0.001
   0.03061774  0.00000000 -0.04500808       0.001
   0.04592661  0.04500808  0.00000000       0.001
   0.04592661  0.00000000  0.04500808       0.001
   0.04592661  0.00000000 -0.04500808       0.001
   0.06123548  0.04500808  0.00000000       0.001
   0.06123548  0.00000000  0.04500808       0.001
   0.06123548  0.00000000 -0.04500808       0.001
   0.07654435  0.04500808  0.00000000       0.001
   0.07654435  0.00000000  0.04500808       0.001
   0.07654435  0.00000000 -0.04500808       0.001
   0.09185321  0.04500808  0.00000000       0.001
   0.09185321  0.00000000  0.04500808       0.001
   0.09185321  0.00000000 -0.04500808       0.001
   0.10716208  0.04500808  0.00000000       0.001
   0.10716208  0.00000000  0.04500808       0.001
   0.00000000  0.06001077  0.00000000       0.001
   0.00000000  0.00000000  0.06001077       0.001
   0.01530887  0.06001077  0.00000000       0.001
   0.01530887  0.00000000  0.06001077       0.001
   0.01530887  0.00000000 -0.06001077       0.001
   0.03061774  0.06001077  0.00000000       0.001
   0.03061774  0.00000000  0.06001077       0.001
   0.03061774  0.00000000 -0.06001077       0.001
   0.04592661  0.06001077  0.00000000       0.001
   0.04592661  0.00000000  0.06001077       0.001
   0.04592661  0.00000000 -0.06001077       0.001
   0.06123548  0.06001077  0.00000000       0.001
   0.06123548  0.00000000  0.06001077       0.001
   0.06123548  0.00000000 -0.06001077       0.001
   0.07654435  0.06001077  0.00000000       0.001
   0.07654435  0.00000000  0.06001077       0.001
   0.07654435  0.00000000 -0.06001077       0.001
   0.09185321  0.06001077  0.00000000       0.001
   0.09185321  0.00000000  0.06001077       0.001
   0.09185321  0.00000000 -0.06001077       0.001
   0.10716208  0.06001077  0.00000000       0.001
   0.10716208  0.00000000  0.06001077       0.001
   0.00000000  0.07501346  0.00000000       0.001
   0.00000000  0.00000000  0.07501346       0.001
   0.01530887  0.07501346  0.00000000       0.001
   0.01530887  0.00000000  0.07501346       0.001
   0.01530887  0.00000000 -0.07501346       0.001
   0.03061774  0.07501346  0.00000000       0.001
   0.03061774  0.00000000  0.07501346       0.001
   0.03061774  0.00000000 -0.07501346       0.001
   0.04592661  0.07501346  0.00000000       0.001
   0.04592661  0.00000000  0.07501346       0.001
   0.04592661  0.00000000 -0.07501346       0.001
   0.06123548  0.07501346  0.00000000       0.001
   0.06123548  0.00000000  0.07501346       0.001
   0.06123548  0.00000000 -0.07501346       0.001
   0.07654435  0.07501346  0.00000000       0.001
   0.07654435  0.00000000  0.07501346       0.001
   0.07654435  0.00000000 -0.07501346       0.001
   0.09185321  0.07501346  0.00000000       0.001
   0.09185321  0.00000000  0.07501346       0.001
   0.09185321  0.00000000 -0.07501346       0.001
   0.10716208  0.07501346  0.00000000       0.001
   0.10716208  0.00000000  0.07501346       0.001
   0.00000000  0.09001615  0.00000000       0.001
   0.00000000  0.00000000  0.09001615       0.001
   0.01530887  0.09001615  0.00000000       0.001
   0.01530887  0.00000000  0.09001615       0.001
   0.01530887  0.00000000 -0.09001615       0.001
   0.03061774  0.09001615  0.00000000       0.001
   0.03061774  0.00000000  0.09001615       0.001
   0.03061774  0.00000000 -0.09001615       0.001
   0.04592661  0.09001615  0.00000000       0.001
   0.04592661  0.00000000  0.09001615       0.001
   0.04592661  0.00000000 -0.09001615       0.001
   0.06123548  0.09001615  0.00000000       0.001
   0.06123548  0.00000000  0.09001615       0.001
   0.06123548  0.00000000 -0.09001615       0.001
   0.07654435  0.09001615  0.00000000       0.001
   0.07654435  0.00000000  0.09001615       0.001
   0.07654435  0.00000000 -0.09001615       0.001
   0.09185321  0.09001615  0.00000000       0.001
   0.09185321  0.00000000  0.09001615       0.001
   0.09185321  0.00000000 -0.09001615       0.001
   0.10716208  0.09001615  0.00000000       0.001
   0.10716208  0.00000000  0.09001615       0.001
   0.00000000  0.10501884  0.00000000       0.001
   0.00000000  0.00000000  0.10501884       0.001
   0.01530887  0.10501884  0.00000000       0.001
   0.01530887  0.00000000  0.10501884       0.001
   0.01530887  0.00000000 -0.10501884       0.001
   0.03061774  0.10501884  0.00000000       0.001
   0.03061774  0.00000000  0.10501884       0.001
   0.03061774  0.00000000 -0.10501884       0.001
   0.04592661  0.10501884  0.00000000       0.001
   0.04592661  0.00000000  0.10501884       0.001
   0.04592661  0.00000000 -0.10501884       0.001
   0.06123548  0.10501884  0.00000000       0.001
   0.06123548  0.00000000  0.10501884       0.001
   0.06123548  0.00000000 -0.10501884       0.001
   0.07654435  0.10501884  0.00000000       0.001
   0.07654435  0.00000000  0.10501884       0.001
   0.07654435  0.00000000 -0.10501884       0.001
   0.09185321  0.10501884  0.00000000       0.001
   0.09185321  0.00000000  0.10501884       0.001
   0.09185321  0.00000000 -0.10501884       0.001
   0.10716208  0.10501884  0.00000000       0.001
   0.10716208  0.00000000  0.10501884       0.001
   0.00000000  0.01500269  0.01500269       0.001
   0.01530887  0.01500269  0.01500269       0.001
   0.01530887 -0.01500269 -0.01500269       0.001
   0.03061774  0.01500269  0.01500269       0.001
   0.03061774 -0.01500269 -0.01500269       0.001
   0.04592661  0.01500269  0.01500269       0.001
   0.04592661 -0.01500269 -0.01500269       0.001
   0.06123548  0.01500269  0.01500269       0.001
   0.06123548 -0.01500269 -0.01500269       0.001
   0.07654435  0.01500269  0.01500269       0.001
   0.07654435 -0.01500269 -0.01500269       0.001
   0.09185321  0.01500269  0.01500269       0.001
   0.09185321 -0.01500269 -0.01500269       0.001
   0.10716208  0.01500269  0.01500269       0.001
   0.00000000  0.03000538  0.01500269       0.001
   0.00000000 -0.01500269  0.03000538       0.001
   0.01530887  0.03000538  0.01500269       0.001
   0.01530887 -0.01500269  0.03000538       0.001
   0.01530887 -0.03000538 -0.01500269       0.001
   0.01530887  0.01500269 -0.03000538       0.001
   0.03061774  0.03000538  0.01500269       0.001
   0.03061774 -0.01500269  0.03000538       0.001
   0.03061774 -0.03000538 -0.01500269       0.001
   0.03061774  0.01500269 -0.03000538       0.001
   0.04592661  0.03000538  0.01500269       0.001
   0.04592661 -0.01500269  0.03000538       0.001
   0.04592661 -0.03000538 -0.01500269       0.001
   0.04592661  0.01500269 -0.03000538       0.001
   0.06123548  0.03000538  0.01500269       0.001
   0.06123548 -0.01500269  0.03000538       0.001
   0.06123548 -0.03000538 -0.01500269       0.001
   0.06123548  0.01500269 -0.03000538       0.001
   0.07654435  0.03000538  0.01500269       0.001
   0.07654435 -0.01500269  0.03000538       0.001
   0.07654435 -0.03000538 -0.01500269       0.001
   0.07654435  0.01500269 -0.03000538       0.001
   0.09185321  0.03000538  0.01500269       0.001
   0.09185321 -0.01500269  0.03000538       0.001
   0.09185321 -0.03000538 -0.01500269       0.001
   0.09185321  0.01500269 -0.03000538       0.001
   0.10716208  0.03000538  0.01500269       0.001
   0.10716208 -0.01500269  0.03000538       0.001
   0.00000000  0.04500808  0.01500269       0.001
   0.00000000 -0.01500269  0.04500808       0.001
   0.01530887  0.04500808  0.01500269       0.001
   0.01530887 -0.01500269  0.04500808       0.001
   0.01530887 -0.04500808 -0.01500269       0.001
   0.01530887  0.01500269 -0.04500808       0.001
   0.03061774  0.04500808  0.01500269       0.001
   0.03061774 -0.01500269  0.04500808       0.001
   0.03061774 -0.04500808 -0.01500269       0.001
   0.03061774  0.01500269 -0.04500808       0.001
   0.04592661  0.04500808  0.01500269       0.001
   0.04592661 -0.01500269  0.04500808       0.001
   0.04592661 -0.04500808 -0.01500269       0.001
   0.04592661  0.01500269 -0.04500808       0.001
   0.06123548  0.04500808  0.01500269       0.001
   0.06123548 -0.01500269  0.04500808       0.001
   0.06123548 -0.04500808 -0.01500269       0.001
   0.06123548  0.01500269 -0.04500808       0.001
   0.07654435  0.04500808  0.01500269       0.001
   0.07654435 -0.01500269  0.04500808       0.001
   0.07654435 -0.04500808 -0.01500269       0.001
   0.07654435  0.01500269 -0.04500808       0.001
   0.09185321  0.04500808  0.01500269       0.001
   0.09185321 -0.01500269  0.04500808       0.001
   0.09185321 -0.04500808 -0.01500269       0.001
   0.09185321  0.01500269 -0.04500808       0.001
   0.10716208  0.04500808  0.01500269       0.001
   0.10716208 -0.01500269  0.04500808       0.001
   0.00000000  0.06001077  0.01500269       0.001
   0.00000000 -0.01500269  0.06001077       0.001
   0.01530887  0.06001077  0.01500269       0.001
   0.01530887 -0.01500269  0.06001077       0.001
   0.01530887 -0.06001077 -0.01500269       0.001
   0.01530887  0.01500269 -0.06001077       0.001
   0.03061774  0.06001077  0.01500269       0.001
   0.03061774 -0.01500269  0.06001077       0.001
   0.03061774 -0.06001077 -0.01500269       0.001
   0.03061774  0.01500269 -0.06001077       0.001
   0.04592661  0.06001077  0.01500269       0.001
   0.04592661 -0.01500269  0.06001077       0.001
   0.04592661 -0.06001077 -0.01500269       0.001
   0.04592661  0.01500269 -0.06001077       0.001
   0.06123548  0.06001077  0.01500269       0.001
   0.06123548 -0.01500269  0.06001077       0.001
   0.06123548 -0.06001077 -0.01500269       0.001
   0.06123548  0.01500269 -0.06001077       0.001
   0.07654435  0.06001077  0.01500269       0.001
   0.07654435 -0.01500269  0.06001077       0.001
   0.07654435 -0.06001077 -0.01500269       0.001
   0.07654435  0.01500269 -0.06001077       0.001
   0.09185321  0.06001077  0.01500269       0.001
   0.09185321 -0.01500269  0.06001077       0.001
   0.09185321 -0.06001077 -0.01500269       0.001
   0.09185321  0.01500269 -0.06001077       0.001
   0.10716208  0.06001077  0.01500269       0.001
   0.10716208 -0.01500269  0.06001077       0.001
   0.00000000  0.07501346  0.01500269       0.001
   0.00000000 -0.01500269  0.07501346       0.001
   0.01530887  0.07501346  0.01500269       0.001
   0.01530887 -0.01500269  0.07501346       0.001
   0.01530887 -0.07501346 -0.01500269       0.001
   0.01530887  0.01500269 -0.07501346       0.001
   0.03061774  0.07501346  0.01500269       0.001
   0.03061774 -0.01500269  0.07501346       0.001
   0.03061774 -0.07501346 -0.01500269       0.001
   0.03061774  0.01500269 -0.07501346       0.001
   0.04592661  0.07501346  0.01500269       0.001
   0.04592661 -0.01500269  0.07501346       0.001
   0.04592661 -0.07501346 -0.01500269       0.001
   0.04592661  0.01500269 -0.07501346       0.001
   0.06123548  0.07501346  0.01500269       0.001
   0.06123548 -0.01500269  0.07501346       0.001
   0.06123548 -0.07501346 -0.01500269       0.001
   0.06123548  0.01500269 -0.07501346       0.001
   0.07654435  0.07501346  0.01500269       0.001
   0.07654435 -0.01500269  0.07501346       0.001
   0.07654435 -0.07501346 -0.01500269       0.001
   0.07654435  0.01500269 -0.07501346       0.001
   0.09185321  0.07501346  0.01500269       0.001
   0.09185321 -0.01500269  0.07501346       0.001
   0.09185321 -0.07501346 -0.01500269       0.001
   0.09185321  0.01500269 -0.07501346       0.001
   0.10716208  0.07501346  0.01500269       0.001
   0.10716208 -0.01500269  0.07501346       0.001
   0.00000000  0.09001615  0.01500269       0.001
   0.00000000 -0.01500269  0.09001615       0.001
   0.01530887  0.09001615  0.01500269       0.001
   0.01530887 -0.01500269  0.09001615       0.001
   0.01530887 -0.09001615 -0.01500269       0.001
   0.01530887  0.01500269 -0.09001615       0.001
   0.03061774  0.09001615  0.01500269       0.001
   0.03061774 -0.01500269  0.09001615       0.001
   0.03061774 -0.09001615 -0.01500269       0.001
   0.03061774  0.01500269 -0.09001615       0.001
   0.04592661  0.09001615  0.01500269       0.001
   0.04592661 -0.01500269  0.09001615       0.001
   0.04592661 -0.09001615 -0.01500269       0.001
   0.04592661  0.01500269 -0.09001615       0.001
   0.06123548  0.09001615  0.01500269       0.001
   0.06123548 -0.01500269  0.09001615       0.001
   0.06123548 -0.09001615 -0.01500269       0.001
   0.06123548  0.01500269 -0.09001615       0.001
   0.07654435  0.09001615  0.01500269       0.001
   0.07654435 -0.01500269  0.09001615       0.001
   0.07654435 -0.09001615 -0.01500269       0.001
   0.07654435  0.01500269 -0.09001615       0.001
   0.09185321  0.09001615  0.01500269       0.001
   0.09185321 -0.01500269  0.09001615       0.001
   0.09185321 -0.09001615 -0.01500269       0.001
   0.09185321  0.01500269 -0.09001615       0.001
   0.10716208  0.09001615  0.01500269       0.001
   0.10716208 -0.01500269  0.09001615       0.001
   0.00000000  0.10501884  0.01500269       0.001
   0.00000000 -0.01500269  0.10501884       0.001
   0.01530887  0.10501884  0.01500269       0.001
   0.01530887 -0.01500269  0.10501884       0.001
   0.01530887 -0.10501884 -0.01500269       0.001
   0.01530887  0.01500269 -0.10501884       0.001
   0.03061774  0.10501884  0.01500269       0.001
   0.03061774 -0.01500269  0.10501884       0.001
   0.03061774 -0.10501884 -0.01500269       0.001
   0.03061774  0.01500269 -0.10501884       0.001
   0.04592661  0.10501884  0.01500269       0.001
   0.04592661 -0.01500269  0.10501884       0.001
   0.04592661 -0.10501884 -0.01500269       0.001
   0.04592661  0.01500269 -0.10501884       0.001
   0.06123548  0.10501884  0.01500269       0.001
   0.06123548 -0.01500269  0.10501884       0.001
   0.06123548 -0.10501884 -0.01500269       0.001
   0.06123548  0.01500269 -0.10501884       0.001
   0.07654435  0.10501884  0.01500269       0.001
   0.07654435 -0.01500269  0.10501884       0.001
   0.07654435 -0.10501884 -0.01500269       0.001
   0.07654435  0.01500269 -0.10501884       0.001
   0.09185321  0.10501884  0.01500269       0.001
   0.09185321 -0.01500269  0.10501884       0.001
   0.09185321 -0.10501884 -0.01500269       0.001
   0.09185321  0.01500269 -0.10501884       0.001
   0.10716208  0.10501884  0.01500269       0.001
   0.10716208 -0.01500269  0.10501884       0.001
   0.00000000  0.03000538  0.03000538       0.001
   0.01530887  0.03000538  0.03000538       0.001
   0.01530887 -0.03000538 -0.03000538       0.001
   0.03061774  0.03000538  0.03000538       0.001
   0.03061774 -0.03000538 -0.03000538       0.001
   0.04592661  0.03000538  0.03000538       0.001
   0.04592661 -0.03000538 -0.03000538       0.001
   0.06123548  0.03000538  0.03000538       0.001
   0.06123548 -0.03000538 -0.03000538       0.001
   0.07654435  0.03000538  0.03000538       0.001
   0.07654435 -0.03000538 -0.03000538       0.001
   0.09185321  0.03000538  0.03000538       0.001
   0.09185321 -0.03000538 -0.03000538       0.001
   0.10716208  0.03000538  0.03000538       0.001
   0.00000000  0.04500808  0.03000538       0.001
   0.00000000 -0.03000538  0.04500808       0.001
   0.01530887  0.04500808  0.03000538       0.001
   0.01530887 -0.03000538  0.04500808       0.001
   0.01530887 -0.04500808 -0.03000538       0.001
   0.01530887  0.03000538 -0.04500808       0.001
   0.03061774  0.04500808  0.03000538       0.001
   0.03061774 -0.03000538  0.04500808       0.001
   0.03061774 -0.04500808 -0.03000538       0.001
   0.03061774  0.03000538 -0.04500808       0.001
   0.04592661  0.04500808  0.03000538       0.001
   0.04592661 -0.03000538  0.04500808       0.001
   0.04592661 -0.04500808 -0.03000538       0.001
   0.04592661  0.03000538 -0.04500808       0.001
   0.06123548  0.04500808  0.03000538       0.001
   0.06123548 -0.03000538  0.04500808       0.001
   0.06123548 -0.04500808 -0.03000538       0.001
   0.06123548  0.03000538 -0.04500808       0.001
   0.07654435  0.04500808  0.03000538       0.001
   0.07654435 -0.03000538  0.04500808       0.001
   0.07654435 -0.04500808 -0.03000538       0.001
   0.07654435  0.03000538 -0.04500808       0.001
   0.09185321  0.04500808  0.03000538       0.001
   0.09185321 -0.03000538  0.04500808       0.001
   0.09185321 -0.04500808 -0.03000538       0.001
   0.09185321  0.03000538 -0.04500808       0.001
   0.10716208  0.04500808  0.03000538       0.001
   0.10716208 -0.03000538  0.04500808       0.001
   0.00000000  0.06001077  0.03000538       0.001
   0.00000000 -0.03000538  0.06001077       0.001
   0.01530887  0.06001077  0.03000538       0.001
   0.01530887 -0.03000538  0.06001077       0.001
   0.01530887 -0.06001077 -0.03000538       0.001
   0.01530887  0.03000538 -0.06001077       0.001
   0.03061774  0.06001077  0.03000538       0.001
   0.03061774 -0.03000538  0.06001077       0.001
   0.03061774 -0.06001077 -0.03000538       0.001
   0.03061774  0.03000538 -0.06001077       0.001
   0.04592661  0.06001077  0.03000538       0.001
   0.04592661 -0.03000538  0.06001077       0.001
   0.04592661 -0.06001077 -0.03000538       0.001
   0.04592661  0.03000538 -0.06001077       0.001
   0.06123548  0.06001077  0.03000538       0.001
   0.06123548 -0.03000538  0.06001077       0.001
   0.06123548 -0.06001077 -0.03000538       0.001
   0.06123548  0.03000538 -0.06001077       0.001
   0.07654435  0.06001077  0.03000538       0.001
   0.07654435 -0.03000538  0.06001077       0.001
   0.07654435 -0.06001077 -0.03000538       0.001
   0.07654435  0.03000538 -0.06001077       0.001
   0.09185321  0.06001077  0.03000538       0.001
   0.09185321 -0.03000538  0.06001077       0.001
   0.09185321 -0.06001077 -0.03000538       0.001
   0.09185321  0.03000538 -0.06001077       0.001
   0.10716208  0.06001077  0.03000538       0.001
   0.10716208 -0.03000538  0.06001077       0.001
   0.00000000  0.07501346  0.03000538       0.001
   0.00000000 -0.03000538  0.07501346       0.001
   0.01530887  0.07501346  0.03000538       0.001
   0.01530887 -0.03000538  0.07501346       0.001
   0.01530887 -0.07501346 -0.03000538       0.001
   0.01530887  0.03000538 -0.07501346       0.001
   0.03061774  0.07501346  0.03000538       0.001
   0.03061774 -0.03000538  0.07501346       0.001
   0.03061774 -0.07501346 -0.03000538       0.001
   0.03061774  0.03000538 -0.07501346       0.001
   0.04592661  0.07501346  0.03000538       0.001
   0.04592661 -0.03000538  0.07501346       0.001
   0.04592661 -0.07501346 -0.03000538       0.001
   0.04592661  0.03000538 -0.07501346       0.001
   0.06123548  0.07501346  0.03000538       0.001
   0.06123548 -0.03000538  0.07501346       0.001
   0.06123548 -0.07501346 -0.03000538       0.001
   0.06123548  0.03000538 -0.07501346       0.001
   0.07654435  0.07501346  0.03000538       0.001
   0.07654435 -0.03000538  0.07501346       0.001
   0.07654435 -0.07501346 -0.03000538       0.001
   0.07654435  0.03000538 -0.07501346       0.001
   0.09185321  0.07501346  0.03000538       0.001
   0.09185321 -0.03000538  0.07501346       0.001
   0.09185321 -0.07501346 -0.03000538       0.001
   0.09185321  0.03000538 -0.07501346       0.001
   0.10716208  0.07501346  0.03000538       0.001
   0.10716208 -0.03000538  0.07501346       0.001
   0.00000000  0.09001615  0.03000538       0.001
   0.00000000 -0.03000538  0.09001615       0.001
   0.01530887  0.09001615  0.03000538       0.001
   0.01530887 -0.03000538  0.09001615       0.001
   0.01530887 -0.09001615 -0.03000538       0.001
   0.01530887  0.03000538 -0.09001615       0.001
   0.03061774  0.09001615  0.03000538       0.001
   0.03061774 -0.03000538  0.09001615       0.001
   0.03061774 -0.09001615 -0.03000538       0.001
   0.03061774  0.03000538 -0.09001615       0.001
   0.04592661  0.09001615  0.03000538       0.001
   0.04592661 -0.03000538  0.09001615       0.001
   0.04592661 -0.09001615 -0.03000538       0.001
   0.04592661  0.03000538 -0.09001615       0.001
   0.06123548  0.09001615  0.03000538       0.001
   0.06123548 -0.03000538  0.09001615       0.001
   0.06123548 -0.09001615 -0.03000538       0.001
   0.06123548  0.03000538 -0.09001615       0.001
   0.07654435  0.09001615  0.03000538       0.001
   0.07654435 -0.03000538  0.09001615       0.001
   0.07654435 -0.09001615 -0.03000538       0.001
   0.07654435  0.03000538 -0.09001615       0.001
   0.09185321  0.09001615  0.03000538       0.001
   0.09185321 -0.03000538  0.09001615       0.001
   0.09185321 -0.09001615 -0.03000538       0.001
   0.09185321  0.03000538 -0.09001615       0.001
   0.10716208  0.09001615  0.03000538       0.001
   0.10716208 -0.03000538  0.09001615       0.001
   0.00000000  0.10501884  0.03000538       0.001
   0.00000000 -0.03000538  0.10501884       0.001
   0.01530887  0.10501884  0.03000538       0.001
   0.01530887 -0.03000538  0.10501884       0.001
   0.01530887 -0.10501884 -0.03000538       0.001
   0.01530887  0.03000538 -0.10501884       0.001
   0.03061774  0.10501884  0.03000538       0.001
   0.03061774 -0.03000538  0.10501884       0.001
   0.03061774 -0.10501884 -0.03000538       0.001
   0.03061774  0.03000538 -0.10501884       0.001
   0.04592661  0.10501884  0.03000538       0.001
   0.04592661 -0.03000538  0.10501884       0.001
   0.04592661 -0.10501884 -0.03000538       0.001
   0.04592661  0.03000538 -0.10501884       0.001
   0.06123548  0.10501884  0.03000538       0.001
   0.06123548 -0.03000538  0.10501884       0.001
   0.06123548 -0.10501884 -0.03000538       0.001
   0.06123548  0.03000538 -0.10501884       0.001
   0.07654435  0.10501884  0.03000538       0.001
   0.07654435 -0.03000538  0.10501884       0.001
   0.07654435 -0.10501884 -0.03000538       0.001
   0.07654435  0.03000538 -0.10501884       0.001
   0.09185321  0.10501884  0.03000538       0.001
   0.09185321 -0.03000538  0.10501884       0.001
   0.09185321 -0.10501884 -0.03000538       0.001
   0.09185321  0.03000538 -0.10501884       0.001
   0.10716208  0.10501884  0.03000538       0.001
   0.10716208 -0.03000538  0.10501884       0.001
   0.00000000  0.04500808  0.04500808       0.001
   0.01530887  0.04500808  0.04500808       0.001
   0.01530887 -0.04500808 -0.04500808       0.001
   0.03061774  0.04500808  0.04500808       0.001
   0.03061774 -0.04500808 -0.04500808       0.001
   0.04592661  0.04500808  0.04500808       0.001
   0.04592661 -0.04500808 -0.04500808       0.001
   0.06123548  0.04500808  0.04500808       0.001
   0.06123548 -0.04500808 -0.04500808       0.001
   0.07654435  0.04500808  0.04500808       0.001
   0.07654435 -0.04500808 -0.04500808       0.001
   0.09185321  0.04500808  0.04500808       0.001
   0.09185321 -0.04500808 -0.04500808       0.001
   0.10716208  0.04500808  0.04500808       0.001
   0.00000000  0.06001077  0.04500808       0.001
   0.00000000 -0.04500808  0.06001077       0.001
   0.01530887  0.06001077  0.04500808       0.001
   0.01530887 -0.04500808  0.06001077       0.001
   0.01530887 -0.06001077 -0.04500808       0.001
   0.01530887  0.04500808 -0.06001077       0.001
   0.03061774  0.06001077  0.04500808       0.001
   0.03061774 -0.04500808  0.06001077       0.001
   0.03061774 -0.06001077 -0.04500808       0.001
   0.03061774  0.04500808 -0.06001077       0.001
   0.04592661  0.06001077  0.04500808       0.001
   0.04592661 -0.04500808  0.06001077       0.001
   0.04592661 -0.06001077 -0.04500808       0.001
   0.04592661  0.04500808 -0.06001077       0.001
   0.06123548  0.06001077  0.04500808       0.001
   0.06123548 -0.04500808  0.06001077       0.001
   0.06123548 -0.06001077 -0.04500808       0.001
   0.06123548  0.04500808 -0.06001077       0.001
   0.07654435  0.06001077  0.04500808       0.001
   0.07654435 -0.04500808  0.06001077       0.001
   0.07654435 -0.06001077 -0.04500808       0.001
   0.07654435  0.04500808 -0.06001077       0.001
   0.09185321  0.06001077  0.04500808       0.001
   0.09185321 -0.04500808  0.06001077       0.001
   0.09185321 -0.06001077 -0.04500808       0.001
   0.09185321  0.04500808 -0.06001077       0.001
   0.10716208  0.06001077  0.04500808       0.001
   0.10716208 -0.04500808  0.06001077       0.001
   0.00000000  0.07501346  0.04500808       0.001
   0.00000000 -0.04500808  0.07501346       0.001
   0.01530887  0.07501346  0.04500808       0.001
   0.01530887 -0.04500808  0.07501346       0.001
   0.01530887 -0.07501346 -0.04500808       0.001
   0.01530887  0.04500808 -0.07501346       0.001
   0.03061774  0.07501346  0.04500808       0.001
   0.03061774 -0.04500808  0.07501346       0.001
   0.03061774 -0.07501346 -0.04500808       0.001
   0.03061774  0.04500808 -0.07501346       0.001
   0.04592661  0.07501346  0.04500808       0.001
   0.04592661 -0.04500808  0.07501346       0.001
   0.04592661 -0.07501346 -0.04500808       0.001
   0.04592661  0.04500808 -0.07501346       0.001
   0.06123548  0.07501346  0.04500808       0.001
   0.06123548 -0.04500808  0.07501346       0.001
   0.06123548 -0.07501346 -0.04500808       0.001
   0.06123548  0.04500808 -0.07501346       0.001
   0.07654435  0.07501346  0.04500808       0.001
   0.07654435 -0.04500808  0.07501346       0.001
   0.07654435 -0.07501346 -0.04500808       0.001
   0.07654435  0.04500808 -0.07501346       0.001
   0.09185321  0.07501346  0.04500808       0.001
   0.09185321 -0.04500808  0.07501346       0.001
   0.09185321 -0.07501346 -0.04500808       0.001
   0.09185321  0.04500808 -0.07501346       0.001
   0.10716208  0.07501346  0.04500808       0.001
   0.10716208 -0.04500808  0.07501346       0.001
   0.00000000  0.09001615  0.04500808       0.001
   0.00000000 -0.04500808  0.09001615       0.001
   0.01530887  0.09001615  0.04500808       0.001
   0.01530887 -0.04500808  0.09001615       0.001
   0.01530887 -0.09001615 -0.04500808       0.001
   0.01530887  0.04500808 -0.09001615       0.001
   0.03061774  0.09001615  0.04500808       0.001
   0.03061774 -0.04500808  0.09001615       0.001
   0.03061774 -0.09001615 -0.04500808       0.001
   0.03061774  0.04500808 -0.09001615       0.001
   0.04592661  0.09001615  0.04500808       0.001
   0.04592661 -0.04500808  0.09001615       0.001
   0.04592661 -0.09001615 -0.04500808       0.001
   0.04592661  0.04500808 -0.09001615       0.001
   0.06123548  0.09001615  0.04500808       0.001
   0.06123548 -0.04500808  0.09001615       0.001
   0.06123548 -0.09001615 -0.04500808       0.001
   0.06123548  0.04500808 -0.09001615       0.001
   0.07654435  0.09001615  0.04500808       0.001
   0.07654435 -0.04500808  0.09001615       0.001
   0.07654435 -0.09001615 -0.04500808       0.001
   0.07654435  0.04500808 -0.09001615       0.001
   0.09185321  0.09001615  0.04500808       0.001
   0.09185321 -0.04500808  0.09001615       0.001
   0.09185321 -0.09001615 -0.04500808       0.001
   0.09185321  0.04500808 -0.09001615       0.001
   0.10716208  0.09001615  0.04500808       0.001
   0.10716208 -0.04500808  0.09001615       0.001
   0.00000000  0.10501884  0.04500808       0.001
   0.00000000 -0.04500808  0.10501884       0.001
   0.01530887  0.10501884  0.04500808       0.001
   0.01530887 -0.04500808  0.10501884       0.001
   0.01530887 -0.10501884 -0.04500808       0.001
   0.01530887  0.04500808 -0.10501884       0.001
   0.03061774  0.10501884  0.04500808       0.001
   0.03061774 -0.04500808  0.10501884       0.001
   0.03061774 -0.10501884 -0.04500808       0.001
   0.03061774  0.04500808 -0.10501884       0.001
   0.04592661  0.10501884  0.04500808       0.001
   0.04592661 -0.04500808  0.10501884       0.001
   0.04592661 -0.10501884 -0.04500808       0.001
   0.04592661  0.04500808 -0.10501884       0.001
   0.06123548  0.10501884  0.04500808       0.001
   0.06123548 -0.04500808  0.10501884       0.001
   0.06123548 -0.10501884 -0.04500808       0.001
   0.06123548  0.04500808 -0.10501884       0.001
   0.07654435  0.10501884  0.04500808       0.001
   0.07654435 -0.04500808  0.10501884       0.001
   0.07654435 -0.10501884 -0.04500808       0.001
   0.07654435  0.04500808 -0.10501884       0.001
   0.09185321  0.10501884  0.04500808       0.001
   0.09185321 -0.04500808  0.10501884       0.001
   0.09185321 -0.10501884 -0.04500808       0.001
   0.09185321  0.04500808 -0.10501884       0.001
   0.10716208  0.10501884  0.04500808       0.001
   0.10716208 -0.04500808  0.10501884       0.001
   0.00000000  0.06001077  0.06001077       0.001
   0.01530887  0.06001077  0.06001077       0.001
   0.01530887 -0.06001077 -0.06001077       0.001
   0.03061774  0.06001077  0.06001077       0.001
   0.03061774 -0.06001077 -0.06001077       0.001
   0.04592661  0.06001077  0.06001077       0.001
   0.04592661 -0.06001077 -0.06001077       0.001
   0.06123548  0.06001077  0.06001077       0.001
   0.06123548 -0.06001077 -0.06001077       0.001
   0.07654435  0.06001077  0.06001077       0.001
   0.07654435 -0.06001077 -0.06001077       0.001
   0.09185321  0.06001077  0.06001077       0.001
   0.09185321 -0.06001077 -0.06001077       0.001
   0.10716208  0.06001077  0.06001077       0.001
   0.00000000  0.07501346  0.06001077       0.001
   0.00000000 -0.06001077  0.07501346       0.001
   0.01530887  0.07501346  0.06001077       0.001
   0.01530887 -0.06001077  0.07501346       0.001
   0.01530887 -0.07501346 -0.06001077       0.001
   0.01530887  0.06001077 -0.07501346       0.001
   0.03061774  0.07501346  0.06001077       0.001
   0.03061774 -0.06001077  0.07501346       0.001
   0.03061774 -0.07501346 -0.06001077       0.001
   0.03061774  0.06001077 -0.07501346       0.001
   0.04592661  0.07501346  0.06001077       0.001
   0.04592661 -0.06001077  0.07501346       0.001
   0.04592661 -0.07501346 -0.06001077       0.001
   0.04592661  0.06001077 -0.07501346       0.001
   0.06123548  0.07501346  0.06001077       0.001
   0.06123548 -0.06001077  0.07501346       0.001
   0.06123548 -0.07501346 -0.06001077       0.001
   0.06123548  0.06001077 -0.07501346       0.001
   0.07654435  0.07501346  0.06001077       0.001
   0.07654435 -0.06001077  0.07501346       0.001
   0.07654435 -0.07501346 -0.06001077       0.001
   0.07654435  0.06001077 -0.07501346       0.001
   0.09185321  0.07501346  0.06001077       0.001
   0.09185321 -0.06001077  0.07501346       0.001
   0.09185321 -0.07501346 -0.06001077       0.001
   0.09185321  0.06001077 -0.07501346       0.001
   0.10716208  0.07501346  0.06001077       0.001
   0.10716208 -0.06001077  0.07501346       0.001
   0.00000000  0.09001615  0.06001077       0.001
   0.00000000 -0.06001077  0.09001615       0.001
   0.01530887  0.09001615  0.06001077       0.001
   0.01530887 -0.06001077  0.09001615       0.001
   0.01530887 -0.09001615 -0.06001077       0.001
   0.01530887  0.06001077 -0.09001615       0.001
   0.03061774  0.09001615  0.06001077       0.001
   0.03061774 -0.06001077  0.09001615       0.001
   0.03061774 -0.09001615 -0.06001077       0.001
   0.03061774  0.06001077 -0.09001615       0.001
   0.04592661  0.09001615  0.06001077       0.001
   0.04592661 -0.06001077  0.09001615       0.001
   0.04592661 -0.09001615 -0.06001077       0.001
   0.04592661  0.06001077 -0.09001615       0.001
   0.06123548  0.09001615  0.06001077       0.001
   0.06123548 -0.06001077  0.09001615       0.001
   0.06123548 -0.09001615 -0.06001077       0.001
   0.06123548  0.06001077 -0.09001615       0.001
   0.07654435  0.09001615  0.06001077       0.001
   0.07654435 -0.06001077  0.09001615       0.001
   0.07654435 -0.09001615 -0.06001077       0.001
   0.07654435  0.06001077 -0.09001615       0.001
   0.09185321  0.09001615  0.06001077       0.001
   0.09185321 -0.06001077  0.09001615       0.001
   0.09185321 -0.09001615 -0.06001077       0.001
   0.09185321  0.06001077 -0.09001615       0.001
   0.10716208  0.09001615  0.06001077       0.001
   0.10716208 -0.06001077  0.09001615       0.001
   0.00000000  0.10501884  0.06001077       0.001
   0.00000000 -0.06001077  0.10501884       0.001
   0.01530887  0.10501884  0.06001077       0.001
   0.01530887 -0.06001077  0.10501884       0.001
   0.01530887 -0.10501884 -0.06001077       0.001
   0.01530887  0.06001077 -0.10501884       0.001
   0.03061774  0.10501884  0.06001077       0.001
   0.03061774 -0.06001077  0.10501884       0.001
   0.03061774 -0.10501884 -0.06001077       0.001
   0.03061774  0.06001077 -0.10501884       0.001
   0.04592661  0.10501884  0.06001077       0.001
   0.04592661 -0.06001077  0.10501884       0.001
   0.04592661 -0.10501884 -0.06001077       0.001
   0.04592661  0.06001077 -0.10501884       0.001
   0.06123548  0.10501884  0.06001077       0.001
   0.06123548 -0.06001077  0.10501884       0.001
   0.06123548 -0.10501884 -0.06001077       0.001
   0.06123548  0.06001077 -0.10501884       0.001
   0.07654435  0.10501884  0.06001077       0.001
   0.07654435 -0.06001077  0.10501884       0.001
   0.07654435 -0.10501884 -0.06001077       0.001
   0.07654435  0.06001077 -0.10501884       0.001
   0.09185321  0.10501884  0.06001077       0.001
   0.09185321 -0.06001077  0.10501884       0.001
   0.09185321 -0.10501884 -0.06001077       0.001
   0.09185321  0.06001077 -0.10501884       0.001
   0.10716208  0.10501884  0.06001077       0.001
   0.10716208 -0.06001077  0.10501884       0.001
   0.00000000  0.07501346  0.07501346       0.001
   0.01530887  0.07501346  0.07501346       0.001
   0.01530887 -0.07501346 -0.07501346       0.001
   0.03061774  0.07501346  0.07501346       0.001
   0.03061774 -0.07501346 -0.07501346       0.001
   0.04592661  0.07501346  0.07501346       0.001
   0.04592661 -0.07501346 -0.07501346       0.001
   0.06123548  0.07501346  0.07501346       0.001
   0.06123548 -0.07501346 -0.07501346       0.001
   0.07654435  0.07501346  0.07501346       0.001
   0.07654435 -0.07501346 -0.07501346       0.001
   0.09185321  0.07501346  0.07501346       0.001
   0.09185321 -0.07501346 -0.07501346       0.001
   0.10716208  0.07501346  0.07501346       0.001
   0.00000000  0.09001615  0.07501346       0.001
   0.00000000 -0.07501346  0.09001615       0.001
   0.01530887  0.09001615  0.07501346       0.001
   0.01530887 -0.07501346  0.09001615       0.001
   0.01530887 -0.09001615 -0.07501346       0.001
   0.01530887  0.07501346 -0.09001615       0.001
   0.03061774  0.09001615  0.07501346       0.001
   0.03061774 -0.07501346  0.09001615       0.001
   0.03061774 -0.09001615 -0.07501346       0.001
   0.03061774  0.07501346 -0.09001615       0.001
   0.04592661  0.09001615  0.07501346       0.001
   0.04592661 -0.07501346  0.09001615       0.001
   0.04592661 -0.09001615 -0.07501346       0.001
   0.04592661  0.07501346 -0.09001615       0.001
   0.06123548  0.09001615  0.07501346       0.001
   0.06123548 -0.07501346  0.09001615       0.001
   0.06123548 -0.09001615 -0.07501346       0.001
   0.06123548  0.07501346 -0.09001615       0.001
   0.07654435  0.09001615  0.07501346       0.001
   0.07654435 -0.07501346  0.09001615       0.001
   0.07654435 -0.09001615 -0.07501346       0.001
   0.07654435  0.07501346 -0.09001615       0.001
   0.09185321  0.09001615  0.07501346       0.001
   0.09185321 -0.07501346  0.09001615       0.001
   0.09185321 -0.09001615 -0.07501346       0.001
   0.09185321  0.07501346 -0.09001615       0.001
   0.10716208  0.09001615  0.07501346       0.001
   0.10716208 -0.07501346  0.09001615       0.001
   0.00000000  0.10501884  0.07501346       0.001
   0.00000000 -0.07501346  0.10501884       0.001
   0.01530887  0.10501884  0.07501346       0.001
   0.01530887 -0.07501346  0.10501884       0.001
   0.01530887 -0.10501884 -0.07501346       0.001
   0.01530887  0.07501346 -0.10501884       0.001
   0.03061774  0.10501884  0.07501346       0.001
   0.03061774 -0.07501346  0.10501884       0.001
   0.03061774 -0.10501884 -0.07501346       0.001
   0.03061774  0.07501346 -0.10501884       0.001
   0.04592661  0.10501884  0.07501346       0.001
   0.04592661 -0.07501346  0.10501884       0.001
   0.04592661 -0.10501884 -0.07501346       0.001
   0.04592661  0.07501346 -0.10501884       0.001
   0.06123548  0.10501884  0.07501346       0.001
   0.06123548 -0.07501346  0.10501884       0.001
   0.06123548 -0.10501884 -0.07501346       0.001
   0.06123548  0.07501346 -0.10501884       0.001
   0.07654435  0.10501884  0.07501346       0.001
   0.07654435 -0.07501346  0.10501884       0.001
   0.07654435 -0.10501884 -0.07501346       0.001
   0.07654435  0.07501346 -0.10501884       0.001
   0.09185321  0.10501884  0.07501346       0.001
   0.09185321 -0.07501346  0.10501884       0.001
   0.09185321 -0.10501884 -0.07501346       0.001
   0.09185321  0.07501346 -0.10501884       0.001
   0.10716208  0.10501884  0.07501346       0.001
   0.10716208 -0.07501346  0.10501884       0.001
   0.00000000  0.09001615  0.09001615       0.001
   0.01530887  0.09001615  0.09001615       0.001
   0.01530887 -0.09001615 -0.09001615       0.001
   0.03061774  0.09001615  0.09001615       0.001
   0.03061774 -0.09001615 -0.09001615       0.001
   0.04592661  0.09001615  0.09001615       0.001
   0.04592661 -0.09001615 -0.09001615       0.001
   0.06123548  0.09001615  0.09001615       0.001
   0.06123548 -0.09001615 -0.09001615       0.001
   0.07654435  0.09001615  0.09001615       0.001
   0.07654435 -0.09001615 -0.09001615       0.001
   0.09185321  0.09001615  0.09001615       0.001
   0.09185321 -0.09001615 -0.09001615       0.001
   0.10716208  0.09001615  0.09001615       0.001
   0.00000000  0.10501884  0.09001615       0.001
   0.00000000 -0.09001615  0.10501884       0.001
   0.01530887  0.10501884  0.09001615       0.001
   0.01530887 -0.09001615  0.10501884       0.001
   0.01530887 -0.10501884 -0.09001615       0.001
   0.01530887  0.09001615 -0.10501884       0.001
   0.03061774  0.10501884  0.09001615       0.001
   0.03061774 -0.09001615  0.10501884       0.001
   0.03061774 -0.10501884 -0.09001615       0.001
   0.03061774  0.09001615 -0.10501884       0.001
   0.04592661  0.10501884  0.09001615       0.001
   0.04592661 -0.09001615  0.10501884       0.001
   0.04592661 -0.10501884 -0.09001615       0.001
   0.04592661  0.09001615 -0.10501884       0.001
   0.06123548  0.10501884  0.09001615       0.001
   0.06123548 -0.09001615  0.10501884       0.001
   0.06123548 -0.10501884 -0.09001615       0.001
   0.06123548  0.09001615 -0.10501884       0.001
   0.07654435  0.10501884  0.09001615       0.001
   0.07654435 -0.09001615  0.10501884       0.001
   0.07654435 -0.10501884 -0.09001615       0.001
   0.07654435  0.09001615 -0.10501884       0.001
   0.09185321  0.10501884  0.09001615       0.001
   0.09185321 -0.09001615  0.10501884       0.001
   0.09185321 -0.10501884 -0.09001615       0.001
   0.09185321  0.09001615 -0.10501884       0.001
   0.10716208  0.10501884  0.09001615       0.001
   0.10716208 -0.09001615  0.10501884       0.001
   0.00000000  0.10501884  0.10501884       0.001
   0.01530887  0.10501884  0.10501884       0.001
   0.01530887 -0.10501884 -0.10501884       0.001
   0.03061774  0.10501884  0.10501884       0.001
   0.03061774 -0.10501884 -0.10501884       0.001
   0.04592661  0.10501884  0.10501884       0.001
   0.04592661 -0.10501884 -0.10501884       0.001
   0.06123548  0.10501884  0.10501884       0.001
   0.06123548 -0.10501884 -0.10501884       0.001
   0.07654435  0.10501884  0.10501884       0.001
   0.07654435 -0.10501884 -0.10501884       0.001
   0.09185321  0.10501884  0.10501884       0.001
   0.09185321 -0.10501884 -0.10501884       0.001
   0.10716208  0.10501884  0.10501884       0.001
 
 k-points in reciprocal lattice and weights: read from INCAR                         
   0.00000000  0.00000000  0.00000000       0.000
   0.07142857  0.00000000  0.00000000       0.001
   0.14285714  0.00000000  0.00000000       0.001
   0.21428571  0.00000000  0.00000000       0.001
   0.28571429  0.00000000  0.00000000       0.001
   0.35714286  0.00000000  0.00000000       0.001
   0.42857143  0.00000000  0.00000000       0.001
   0.50000000  0.00000000  0.00000000       0.000
   0.00000000  0.06666667  0.00000000       0.001
   0.00000000  0.00000000  0.06666667       0.001
   0.07142857  0.06666667  0.00000000       0.001
   0.07142857  0.00000000  0.06666667       0.001
   0.07142857  0.00000000 -0.06666667       0.001
   0.14285714  0.06666667  0.00000000       0.001
   0.14285714  0.00000000  0.06666667       0.001
   0.14285714  0.00000000 -0.06666667       0.001
   0.21428571  0.06666667  0.00000000       0.001
   0.21428571  0.00000000  0.06666667       0.001
   0.21428571  0.00000000 -0.06666667       0.001
   0.28571429  0.06666667  0.00000000       0.001
   0.28571429  0.00000000  0.06666667       0.001
   0.28571429  0.00000000 -0.06666667       0.001
   0.35714286  0.06666667  0.00000000       0.001
   0.35714286  0.00000000  0.06666667       0.001
   0.35714286  0.00000000 -0.06666667       0.001
   0.42857143  0.06666667  0.00000000       0.001
   0.42857143  0.00000000  0.06666667       0.001
   0.42857143  0.00000000 -0.06666667       0.001
   0.50000000  0.06666667  0.00000000       0.001
   0.50000000  0.00000000  0.06666667       0.001
   0.00000000  0.13333333  0.00000000       0.001
   0.00000000  0.00000000  0.13333333       0.001
   0.07142857  0.13333333  0.00000000       0.001
   0.07142857  0.00000000  0.13333333       0.001
   0.07142857  0.00000000 -0.13333333       0.001
   0.14285714  0.13333333  0.00000000       0.001
   0.14285714  0.00000000  0.13333333       0.001
   0.14285714  0.00000000 -0.13333333       0.001
   0.21428571  0.13333333  0.00000000       0.001
   0.21428571  0.00000000  0.13333333       0.001
   0.21428571  0.00000000 -0.13333333       0.001
   0.28571429  0.13333333  0.00000000       0.001
   0.28571429  0.00000000  0.13333333       0.001
   0.28571429  0.00000000 -0.13333333       0.001
   0.35714286  0.13333333  0.00000000       0.001
   0.35714286  0.00000000  0.13333333       0.001
   0.35714286  0.00000000 -0.13333333       0.001
   0.42857143  0.13333333  0.00000000       0.001
   0.42857143  0.00000000  0.13333333       0.001
   0.42857143  0.00000000 -0.13333333       0.001
   0.50000000  0.13333333  0.00000000       0.001
   0.50000000  0.00000000  0.13333333       0.001
   0.00000000  0.20000000  0.00000000       0.001
   0.00000000  0.00000000  0.20000000       0.001
   0.07142857  0.20000000  0.00000000       0.001
   0.07142857  0.00000000  0.20000000       0.001
   0.07142857  0.00000000 -0.20000000       0.001
   0.14285714  0.20000000  0.00000000       0.001
   0.14285714  0.00000000  0.20000000       0.001
   0.14285714  0.00000000 -0.20000000       0.001
   0.21428571  0.20000000  0.00000000       0.001
   0.21428571  0.00000000  0.20000000       0.001
   0.21428571  0.00000000 -0.20000000       0.001
   0.28571429  0.20000000  0.00000000       0.001
   0.28571429  0.00000000  0.20000000       0.001
   0.28571429  0.00000000 -0.20000000       0.001
   0.35714286  0.20000000  0.00000000       0.001
   0.35714286  0.00000000  0.20000000       0.001
   0.35714286  0.00000000 -0.20000000       0.001
   0.42857143  0.20000000  0.00000000       0.001
   0.42857143  0.00000000  0.20000000       0.001
   0.42857143  0.00000000 -0.20000000       0.001
   0.50000000  0.20000000  0.00000000       0.001
   0.50000000  0.00000000  0.20000000       0.001
   0.00000000  0.26666667  0.00000000       0.001
   0.00000000  0.00000000  0.26666667       0.001
   0.07142857  0.26666667  0.00000000       0.001
   0.07142857  0.00000000  0.26666667       0.001
   0.07142857  0.00000000 -0.26666667       0.001
   0.14285714  0.26666667  0.00000000       0.001
   0.14285714  0.00000000  0.26666667       0.001
   0.14285714  0.00000000 -0.26666667       0.001
   0.21428571  0.26666667  0.00000000       0.001
   0.21428571  0.00000000  0.26666667       0.001
   0.21428571  0.00000000 -0.26666667       0.001
   0.28571429  0.26666667  0.00000000       0.001
   0.28571429  0.00000000  0.26666667       0.001
   0.28571429  0.00000000 -0.26666667       0.001
   0.35714286  0.26666667  0.00000000       0.001
   0.35714286  0.00000000  0.26666667       0.001
   0.35714286  0.00000000 -0.26666667       0.001
   0.42857143  0.26666667  0.00000000       0.001
   0.42857143  0.00000000  0.26666667       0.001
   0.42857143  0.00000000 -0.26666667       0.001
   0.50000000  0.26666667  0.00000000       0.001
   0.50000000  0.00000000  0.26666667       0.001
   0.00000000  0.33333333  0.00000000       0.001
   0.00000000  0.00000000  0.33333333       0.001
   0.07142857  0.33333333  0.00000000       0.001
   0.07142857  0.00000000  0.33333333       0.001
   0.07142857  0.00000000 -0.33333333       0.001
   0.14285714  0.33333333  0.00000000       0.001
   0.14285714  0.00000000  0.33333333       0.001
   0.14285714  0.00000000 -0.33333333       0.001
   0.21428571  0.33333333  0.00000000       0.001
   0.21428571  0.00000000  0.33333333       0.001
   0.21428571  0.00000000 -0.33333333       0.001
   0.28571429  0.33333333  0.00000000       0.001
   0.28571429  0.00000000  0.33333333       0.001
   0.28571429  0.00000000 -0.33333333       0.001
   0.35714286  0.33333333  0.00000000       0.001
   0.35714286  0.00000000  0.33333333       0.001
   0.35714286  0.00000000 -0.33333333       0.001
   0.42857143  0.33333333  0.00000000       0.001
   0.42857143  0.00000000  0.33333333       0.001
   0.42857143  0.00000000 -0.33333333       0.001
   0.50000000  0.33333333  0.00000000       0.001
   0.50000000  0.00000000  0.33333333       0.001
   0.00000000  0.40000000  0.00000000       0.001
   0.00000000  0.00000000  0.40000000       0.001
   0.07142857  0.40000000  0.00000000       0.001
   0.07142857  0.00000000  0.40000000       0.001
   0.07142857  0.00000000 -0.40000000       0.001
   0.14285714  0.40000000  0.00000000       0.001
   0.14285714  0.00000000  0.40000000       0.001
   0.14285714  0.00000000 -0.40000000       0.001
   0.21428571  0.40000000  0.00000000       0.001
   0.21428571  0.00000000  0.40000000       0.001
   0.21428571  0.00000000 -0.40000000       0.001
   0.28571429  0.40000000  0.00000000       0.001
   0.28571429  0.00000000  0.40000000       0.001
   0.28571429  0.00000000 -0.40000000       0.001
   0.35714286  0.40000000  0.00000000       0.001
   0.35714286  0.00000000  0.40000000       0.001
   0.35714286  0.00000000 -0.40000000       0.001
   0.42857143  0.40000000  0.00000000       0.001
   0.42857143  0.00000000  0.40000000       0.001
   0.42857143  0.00000000 -0.40000000       0.001
   0.50000000  0.40000000  0.00000000       0.001
   0.50000000  0.00000000  0.40000000       0.001
   0.00000000  0.46666667  0.00000000       0.001
   0.00000000  0.00000000  0.46666667       0.001
   0.07142857  0.46666667  0.00000000       0.001
   0.07142857  0.00000000  0.46666667       0.001
   0.07142857  0.00000000 -0.46666667       0.001
   0.14285714  0.46666667  0.00000000       0.001
   0.14285714  0.00000000  0.46666667       0.001
   0.14285714  0.00000000 -0.46666667       0.001
   0.21428571  0.46666667  0.00000000       0.001
   0.21428571  0.00000000  0.46666667       0.001
   0.21428571  0.00000000 -0.46666667       0.001
   0.28571429  0.46666667  0.00000000       0.001
   0.28571429  0.00000000  0.46666667       0.001
   0.28571429  0.00000000 -0.46666667       0.001
   0.35714286  0.46666667  0.00000000       0.001
   0.35714286  0.00000000  0.46666667       0.001
   0.35714286  0.00000000 -0.46666667       0.001
   0.42857143  0.46666667  0.00000000       0.001
   0.42857143  0.00000000  0.46666667       0.001
   0.42857143  0.00000000 -0.46666667       0.001
   0.50000000  0.46666667  0.00000000       0.001
   0.50000000  0.00000000  0.46666667       0.001
   0.00000000  0.06666667  0.06666667       0.001
   0.07142857  0.06666667  0.06666667       0.001
   0.07142857 -0.06666667 -0.06666667       0.001
   0.14285714  0.06666667  0.06666667       0.001
   0.14285714 -0.06666667 -0.06666667       0.001
   0.21428571  0.06666667  0.06666667       0.001
   0.21428571 -0.06666667 -0.06666667       0.001
   0.28571429  0.06666667  0.06666667       0.001
   0.28571429 -0.06666667 -0.06666667       0.001
   0.35714286  0.06666667  0.06666667       0.001
   0.35714286 -0.06666667 -0.06666667       0.001
   0.42857143  0.06666667  0.06666667       0.001
   0.42857143 -0.06666667 -0.06666667       0.001
   0.50000000  0.06666667  0.06666667       0.001
   0.00000000  0.13333333  0.06666667       0.001
   0.00000000 -0.06666667  0.13333333       0.001
   0.07142857  0.13333333  0.06666667       0.001
   0.07142857 -0.06666667  0.13333333       0.001
   0.07142857 -0.13333333 -0.06666667       0.001
   0.07142857  0.06666667 -0.13333333       0.001
   0.14285714  0.13333333  0.06666667       0.001
   0.14285714 -0.06666667  0.13333333       0.001
   0.14285714 -0.13333333 -0.06666667       0.001
   0.14285714  0.06666667 -0.13333333       0.001
   0.21428571  0.13333333  0.06666667       0.001
   0.21428571 -0.06666667  0.13333333       0.001
   0.21428571 -0.13333333 -0.06666667       0.001
   0.21428571  0.06666667 -0.13333333       0.001
   0.28571429  0.13333333  0.06666667       0.001
   0.28571429 -0.06666667  0.13333333       0.001
   0.28571429 -0.13333333 -0.06666667       0.001
   0.28571429  0.06666667 -0.13333333       0.001
   0.35714286  0.13333333  0.06666667       0.001
   0.35714286 -0.06666667  0.13333333       0.001
   0.35714286 -0.13333333 -0.06666667       0.001
   0.35714286  0.06666667 -0.13333333       0.001
   0.42857143  0.13333333  0.06666667       0.001
   0.42857143 -0.06666667  0.13333333       0.001
   0.42857143 -0.13333333 -0.06666667       0.001
   0.42857143  0.06666667 -0.13333333       0.001
   0.50000000  0.13333333  0.06666667       0.001
   0.50000000 -0.06666667  0.13333333       0.001
   0.00000000  0.20000000  0.06666667       0.001
   0.00000000 -0.06666667  0.20000000       0.001
   0.07142857  0.20000000  0.06666667       0.001
   0.07142857 -0.06666667  0.20000000       0.001
   0.07142857 -0.20000000 -0.06666667       0.001
   0.07142857  0.06666667 -0.20000000       0.001
   0.14285714  0.20000000  0.06666667       0.001
   0.14285714 -0.06666667  0.20000000       0.001
   0.14285714 -0.20000000 -0.06666667       0.001
   0.14285714  0.06666667 -0.20000000       0.001
   0.21428571  0.20000000  0.06666667       0.001
   0.21428571 -0.06666667  0.20000000       0.001
   0.21428571 -0.20000000 -0.06666667       0.001
   0.21428571  0.06666667 -0.20000000       0.001
   0.28571429  0.20000000  0.06666667       0.001
   0.28571429 -0.06666667  0.20000000       0.001
   0.28571429 -0.20000000 -0.06666667       0.001
   0.28571429  0.06666667 -0.20000000       0.001
   0.35714286  0.20000000  0.06666667       0.001
   0.35714286 -0.06666667  0.20000000       0.001
   0.35714286 -0.20000000 -0.06666667       0.001
   0.35714286  0.06666667 -0.20000000       0.001
   0.42857143  0.20000000  0.06666667       0.001
   0.42857143 -0.06666667  0.20000000       0.001
   0.42857143 -0.20000000 -0.06666667       0.001
   0.42857143  0.06666667 -0.20000000       0.001
   0.50000000  0.20000000  0.06666667       0.001
   0.50000000 -0.06666667  0.20000000       0.001
   0.00000000  0.26666667  0.06666667       0.001
   0.00000000 -0.06666667  0.26666667       0.001
   0.07142857  0.26666667  0.06666667       0.001
   0.07142857 -0.06666667  0.26666667       0.001
   0.07142857 -0.26666667 -0.06666667       0.001
   0.07142857  0.06666667 -0.26666667       0.001
   0.14285714  0.26666667  0.06666667       0.001
   0.14285714 -0.06666667  0.26666667       0.001
   0.14285714 -0.26666667 -0.06666667       0.001
   0.14285714  0.06666667 -0.26666667       0.001
   0.21428571  0.26666667  0.06666667       0.001
   0.21428571 -0.06666667  0.26666667       0.001
   0.21428571 -0.26666667 -0.06666667       0.001
   0.21428571  0.06666667 -0.26666667       0.001
   0.28571429  0.26666667  0.06666667       0.001
   0.28571429 -0.06666667  0.26666667       0.001
   0.28571429 -0.26666667 -0.06666667       0.001
   0.28571429  0.06666667 -0.26666667       0.001
   0.35714286  0.26666667  0.06666667       0.001
   0.35714286 -0.06666667  0.26666667       0.001
   0.35714286 -0.26666667 -0.06666667       0.001
   0.35714286  0.06666667 -0.26666667       0.001
   0.42857143  0.26666667  0.06666667       0.001
   0.42857143 -0.06666667  0.26666667       0.001
   0.42857143 -0.26666667 -0.06666667       0.001
   0.42857143  0.06666667 -0.26666667       0.001
   0.50000000  0.26666667  0.06666667       0.001
   0.50000000 -0.06666667  0.26666667       0.001
   0.00000000  0.33333333  0.06666667       0.001
   0.00000000 -0.06666667  0.33333333       0.001
   0.07142857  0.33333333  0.06666667       0.001
   0.07142857 -0.06666667  0.33333333       0.001
   0.07142857 -0.33333333 -0.06666667       0.001
   0.07142857  0.06666667 -0.33333333       0.001
   0.14285714  0.33333333  0.06666667       0.001
   0.14285714 -0.06666667  0.33333333       0.001
   0.14285714 -0.33333333 -0.06666667       0.001
   0.14285714  0.06666667 -0.33333333       0.001
   0.21428571  0.33333333  0.06666667       0.001
   0.21428571 -0.06666667  0.33333333       0.001
   0.21428571 -0.33333333 -0.06666667       0.001
   0.21428571  0.06666667 -0.33333333       0.001
   0.28571429  0.33333333  0.06666667       0.001
   0.28571429 -0.06666667  0.33333333       0.001
   0.28571429 -0.33333333 -0.06666667       0.001
   0.28571429  0.06666667 -0.33333333       0.001
   0.35714286  0.33333333  0.06666667       0.001
   0.35714286 -0.06666667  0.33333333       0.001
   0.35714286 -0.33333333 -0.06666667       0.001
   0.35714286  0.06666667 -0.33333333       0.001
   0.42857143  0.33333333  0.06666667       0.001
   0.42857143 -0.06666667  0.33333333       0.001
   0.42857143 -0.33333333 -0.06666667       0.001
   0.42857143  0.06666667 -0.33333333       0.001
   0.50000000  0.33333333  0.06666667       0.001
   0.50000000 -0.06666667  0.33333333       0.001
   0.00000000  0.40000000  0.06666667       0.001
   0.00000000 -0.06666667  0.40000000       0.001
   0.07142857  0.40000000  0.06666667       0.001
   0.07142857 -0.06666667  0.40000000       0.001
   0.07142857 -0.40000000 -0.06666667       0.001
   0.07142857  0.06666667 -0.40000000       0.001
   0.14285714  0.40000000  0.06666667       0.001
   0.14285714 -0.06666667  0.40000000       0.001
   0.14285714 -0.40000000 -0.06666667       0.001
   0.14285714  0.06666667 -0.40000000       0.001
   0.21428571  0.40000000  0.06666667       0.001
   0.21428571 -0.06666667  0.40000000       0.001
   0.21428571 -0.40000000 -0.06666667       0.001
   0.21428571  0.06666667 -0.40000000       0.001
   0.28571429  0.40000000  0.06666667       0.001
   0.28571429 -0.06666667  0.40000000       0.001
   0.28571429 -0.40000000 -0.06666667       0.001
   0.28571429  0.06666667 -0.40000000       0.001
   0.35714286  0.40000000  0.06666667       0.001
   0.35714286 -0.06666667  0.40000000       0.001
   0.35714286 -0.40000000 -0.06666667       0.001
   0.35714286  0.06666667 -0.40000000       0.001
   0.42857143  0.40000000  0.06666667       0.001
   0.42857143 -0.06666667  0.40000000       0.001
   0.42857143 -0.40000000 -0.06666667       0.001
   0.42857143  0.06666667 -0.40000000       0.001
   0.50000000  0.40000000  0.06666667       0.001
   0.50000000 -0.06666667  0.40000000       0.001
   0.00000000  0.46666667  0.06666667       0.001
   0.00000000 -0.06666667  0.46666667       0.001
   0.07142857  0.46666667  0.06666667       0.001
   0.07142857 -0.06666667  0.46666667       0.001
   0.07142857 -0.46666667 -0.06666667       0.001
   0.07142857  0.06666667 -0.46666667       0.001
   0.14285714  0.46666667  0.06666667       0.001
   0.14285714 -0.06666667  0.46666667       0.001
   0.14285714 -0.46666667 -0.06666667       0.001
   0.14285714  0.06666667 -0.46666667       0.001
   0.21428571  0.46666667  0.06666667       0.001
   0.21428571 -0.06666667  0.46666667       0.001
   0.21428571 -0.46666667 -0.06666667       0.001
   0.21428571  0.06666667 -0.46666667       0.001
   0.28571429  0.46666667  0.06666667       0.001
   0.28571429 -0.06666667  0.46666667       0.001
   0.28571429 -0.46666667 -0.06666667       0.001
   0.28571429  0.06666667 -0.46666667       0.001
   0.35714286  0.46666667  0.06666667       0.001
   0.35714286 -0.06666667  0.46666667       0.001
   0.35714286 -0.46666667 -0.06666667       0.001
   0.35714286  0.06666667 -0.46666667       0.001
   0.42857143  0.46666667  0.06666667       0.001
   0.42857143 -0.06666667  0.46666667       0.001
   0.42857143 -0.46666667 -0.06666667       0.001
   0.42857143  0.06666667 -0.46666667       0.001
   0.50000000  0.46666667  0.06666667       0.001
   0.50000000 -0.06666667  0.46666667       0.001
   0.00000000  0.13333333  0.13333333       0.001
   0.07142857  0.13333333  0.13333333       0.001
   0.07142857 -0.13333333 -0.13333333       0.001
   0.14285714  0.13333333  0.13333333       0.001
   0.14285714 -0.13333333 -0.13333333       0.001
   0.21428571  0.13333333  0.13333333       0.001
   0.21428571 -0.13333333 -0.13333333       0.001
   0.28571429  0.13333333  0.13333333       0.001
   0.28571429 -0.13333333 -0.13333333       0.001
   0.35714286  0.13333333  0.13333333       0.001
   0.35714286 -0.13333333 -0.13333333       0.001
   0.42857143  0.13333333  0.13333333       0.001
   0.42857143 -0.13333333 -0.13333333       0.001
   0.50000000  0.13333333  0.13333333       0.001
   0.00000000  0.20000000  0.13333333       0.001
   0.00000000 -0.13333333  0.20000000       0.001
   0.07142857  0.20000000  0.13333333       0.001
   0.07142857 -0.13333333  0.20000000       0.001
   0.07142857 -0.20000000 -0.13333333       0.001
   0.07142857  0.13333333 -0.20000000       0.001
   0.14285714  0.20000000  0.13333333       0.001
   0.14285714 -0.13333333  0.20000000       0.001
   0.14285714 -0.20000000 -0.13333333       0.001
   0.14285714  0.13333333 -0.20000000       0.001
   0.21428571  0.20000000  0.13333333       0.001
   0.21428571 -0.13333333  0.20000000       0.001
   0.21428571 -0.20000000 -0.13333333       0.001
   0.21428571  0.13333333 -0.20000000       0.001
   0.28571429  0.20000000  0.13333333       0.001
   0.28571429 -0.13333333  0.20000000       0.001
   0.28571429 -0.20000000 -0.13333333       0.001
   0.28571429  0.13333333 -0.20000000       0.001
   0.35714286  0.20000000  0.13333333       0.001
   0.35714286 -0.13333333  0.20000000       0.001
   0.35714286 -0.20000000 -0.13333333       0.001
   0.35714286  0.13333333 -0.20000000       0.001
   0.42857143  0.20000000  0.13333333       0.001
   0.42857143 -0.13333333  0.20000000       0.001
   0.42857143 -0.20000000 -0.13333333       0.001
   0.42857143  0.13333333 -0.20000000       0.001
   0.50000000  0.20000000  0.13333333       0.001
   0.50000000 -0.13333333  0.20000000       0.001
   0.00000000  0.26666667  0.13333333       0.001
   0.00000000 -0.13333333  0.26666667       0.001
   0.07142857  0.26666667  0.13333333       0.001
   0.07142857 -0.13333333  0.26666667       0.001
   0.07142857 -0.26666667 -0.13333333       0.001
   0.07142857  0.13333333 -0.26666667       0.001
   0.14285714  0.26666667  0.13333333       0.001
   0.14285714 -0.13333333  0.26666667       0.001
   0.14285714 -0.26666667 -0.13333333       0.001
   0.14285714  0.13333333 -0.26666667       0.001
   0.21428571  0.26666667  0.13333333       0.001
   0.21428571 -0.13333333  0.26666667       0.001
   0.21428571 -0.26666667 -0.13333333       0.001
   0.21428571  0.13333333 -0.26666667       0.001
   0.28571429  0.26666667  0.13333333       0.001
   0.28571429 -0.13333333  0.26666667       0.001
   0.28571429 -0.26666667 -0.13333333       0.001
   0.28571429  0.13333333 -0.26666667       0.001
   0.35714286  0.26666667  0.13333333       0.001
   0.35714286 -0.13333333  0.26666667       0.001
   0.35714286 -0.26666667 -0.13333333       0.001
   0.35714286  0.13333333 -0.26666667       0.001
   0.42857143  0.26666667  0.13333333       0.001
   0.42857143 -0.13333333  0.26666667       0.001
   0.42857143 -0.26666667 -0.13333333       0.001
   0.42857143  0.13333333 -0.26666667       0.001
   0.50000000  0.26666667  0.13333333       0.001
   0.50000000 -0.13333333  0.26666667       0.001
   0.00000000  0.33333333  0.13333333       0.001
   0.00000000 -0.13333333  0.33333333       0.001
   0.07142857  0.33333333  0.13333333       0.001
   0.07142857 -0.13333333  0.33333333       0.001
   0.07142857 -0.33333333 -0.13333333       0.001
   0.07142857  0.13333333 -0.33333333       0.001
   0.14285714  0.33333333  0.13333333       0.001
   0.14285714 -0.13333333  0.33333333       0.001
   0.14285714 -0.33333333 -0.13333333       0.001
   0.14285714  0.13333333 -0.33333333       0.001
   0.21428571  0.33333333  0.13333333       0.001
   0.21428571 -0.13333333  0.33333333       0.001
   0.21428571 -0.33333333 -0.13333333       0.001
   0.21428571  0.13333333 -0.33333333       0.001
   0.28571429  0.33333333  0.13333333       0.001
   0.28571429 -0.13333333  0.33333333       0.001
   0.28571429 -0.33333333 -0.13333333       0.001
   0.28571429  0.13333333 -0.33333333       0.001
   0.35714286  0.33333333  0.13333333       0.001
   0.35714286 -0.13333333  0.33333333       0.001
   0.35714286 -0.33333333 -0.13333333       0.001
   0.35714286  0.13333333 -0.33333333       0.001
   0.42857143  0.33333333  0.13333333       0.001
   0.42857143 -0.13333333  0.33333333       0.001
   0.42857143 -0.33333333 -0.13333333       0.001
   0.42857143  0.13333333 -0.33333333       0.001
   0.50000000  0.33333333  0.13333333       0.001
   0.50000000 -0.13333333  0.33333333       0.001
   0.00000000  0.40000000  0.13333333       0.001
   0.00000000 -0.13333333  0.40000000       0.001
   0.07142857  0.40000000  0.13333333       0.001
   0.07142857 -0.13333333  0.40000000       0.001
   0.07142857 -0.40000000 -0.13333333       0.001
   0.07142857  0.13333333 -0.40000000       0.001
   0.14285714  0.40000000  0.13333333       0.001
   0.14285714 -0.13333333  0.40000000       0.001
   0.14285714 -0.40000000 -0.13333333       0.001
   0.14285714  0.13333333 -0.40000000       0.001
   0.21428571  0.40000000  0.13333333       0.001
   0.21428571 -0.13333333  0.40000000       0.001
   0.21428571 -0.40000000 -0.13333333       0.001
   0.21428571  0.13333333 -0.40000000       0.001
   0.28571429  0.40000000  0.13333333       0.001
   0.28571429 -0.13333333  0.40000000       0.001
   0.28571429 -0.40000000 -0.13333333       0.001
   0.28571429  0.13333333 -0.40000000       0.001
   0.35714286  0.40000000  0.13333333       0.001
   0.35714286 -0.13333333  0.40000000       0.001
   0.35714286 -0.40000000 -0.13333333       0.001
   0.35714286  0.13333333 -0.40000000       0.001
   0.42857143  0.40000000  0.13333333       0.001
   0.42857143 -0.13333333  0.40000000       0.001
   0.42857143 -0.40000000 -0.13333333       0.001
   0.42857143  0.13333333 -0.40000000       0.001
   0.50000000  0.40000000  0.13333333       0.001
   0.50000000 -0.13333333  0.40000000       0.001
   0.00000000  0.46666667  0.13333333       0.001
   0.00000000 -0.13333333  0.46666667       0.001
   0.07142857  0.46666667  0.13333333       0.001
   0.07142857 -0.13333333  0.46666667       0.001
   0.07142857 -0.46666667 -0.13333333       0.001
   0.07142857  0.13333333 -0.46666667       0.001
   0.14285714  0.46666667  0.13333333       0.001
   0.14285714 -0.13333333  0.46666667       0.001
   0.14285714 -0.46666667 -0.13333333       0.001
   0.14285714  0.13333333 -0.46666667       0.001
   0.21428571  0.46666667  0.13333333       0.001
   0.21428571 -0.13333333  0.46666667       0.001
   0.21428571 -0.46666667 -0.13333333       0.001
   0.21428571  0.13333333 -0.46666667       0.001
   0.28571429  0.46666667  0.13333333       0.001
   0.28571429 -0.13333333  0.46666667       0.001
   0.28571429 -0.46666667 -0.13333333       0.001
   0.28571429  0.13333333 -0.46666667       0.001
   0.35714286  0.46666667  0.13333333       0.001
   0.35714286 -0.13333333  0.46666667       0.001
   0.35714286 -0.46666667 -0.13333333       0.001
   0.35714286  0.13333333 -0.46666667       0.001
   0.42857143  0.46666667  0.13333333       0.001
   0.42857143 -0.13333333  0.46666667       0.001
   0.42857143 -0.46666667 -0.13333333       0.001
   0.42857143  0.13333333 -0.46666667       0.001
   0.50000000  0.46666667  0.13333333       0.001
   0.50000000 -0.13333333  0.46666667       0.001
   0.00000000  0.20000000  0.20000000       0.001
   0.07142857  0.20000000  0.20000000       0.001
   0.07142857 -0.20000000 -0.20000000       0.001
   0.14285714  0.20000000  0.20000000       0.001
   0.14285714 -0.20000000 -0.20000000       0.001
   0.21428571  0.20000000  0.20000000       0.001
   0.21428571 -0.20000000 -0.20000000       0.001
   0.28571429  0.20000000  0.20000000       0.001
   0.28571429 -0.20000000 -0.20000000       0.001
   0.35714286  0.20000000  0.20000000       0.001
   0.35714286 -0.20000000 -0.20000000       0.001
   0.42857143  0.20000000  0.20000000       0.001
   0.42857143 -0.20000000 -0.20000000       0.001
   0.50000000  0.20000000  0.20000000       0.001
   0.00000000  0.26666667  0.20000000       0.001
   0.00000000 -0.20000000  0.26666667       0.001
   0.07142857  0.26666667  0.20000000       0.001
   0.07142857 -0.20000000  0.26666667       0.001
   0.07142857 -0.26666667 -0.20000000       0.001
   0.07142857  0.20000000 -0.26666667       0.001
   0.14285714  0.26666667  0.20000000       0.001
   0.14285714 -0.20000000  0.26666667       0.001
   0.14285714 -0.26666667 -0.20000000       0.001
   0.14285714  0.20000000 -0.26666667       0.001
   0.21428571  0.26666667  0.20000000       0.001
   0.21428571 -0.20000000  0.26666667       0.001
   0.21428571 -0.26666667 -0.20000000       0.001
   0.21428571  0.20000000 -0.26666667       0.001
   0.28571429  0.26666667  0.20000000       0.001
   0.28571429 -0.20000000  0.26666667       0.001
   0.28571429 -0.26666667 -0.20000000       0.001
   0.28571429  0.20000000 -0.26666667       0.001
   0.35714286  0.26666667  0.20000000       0.001
   0.35714286 -0.20000000  0.26666667       0.001
   0.35714286 -0.26666667 -0.20000000       0.001
   0.35714286  0.20000000 -0.26666667       0.001
   0.42857143  0.26666667  0.20000000       0.001
   0.42857143 -0.20000000  0.26666667       0.001
   0.42857143 -0.26666667 -0.20000000       0.001
   0.42857143  0.20000000 -0.26666667       0.001
   0.50000000  0.26666667  0.20000000       0.001
   0.50000000 -0.20000000  0.26666667       0.001
   0.00000000  0.33333333  0.20000000       0.001
   0.00000000 -0.20000000  0.33333333       0.001
   0.07142857  0.33333333  0.20000000       0.001
   0.07142857 -0.20000000  0.33333333       0.001
   0.07142857 -0.33333333 -0.20000000       0.001
   0.07142857  0.20000000 -0.33333333       0.001
   0.14285714  0.33333333  0.20000000       0.001
   0.14285714 -0.20000000  0.33333333       0.001
   0.14285714 -0.33333333 -0.20000000       0.001
   0.14285714  0.20000000 -0.33333333       0.001
   0.21428571  0.33333333  0.20000000       0.001
   0.21428571 -0.20000000  0.33333333       0.001
   0.21428571 -0.33333333 -0.20000000       0.001
   0.21428571  0.20000000 -0.33333333       0.001
   0.28571429  0.33333333  0.20000000       0.001
   0.28571429 -0.20000000  0.33333333       0.001
   0.28571429 -0.33333333 -0.20000000       0.001
   0.28571429  0.20000000 -0.33333333       0.001
   0.35714286  0.33333333  0.20000000       0.001
   0.35714286 -0.20000000  0.33333333       0.001
   0.35714286 -0.33333333 -0.20000000       0.001
   0.35714286  0.20000000 -0.33333333       0.001
   0.42857143  0.33333333  0.20000000       0.001
   0.42857143 -0.20000000  0.33333333       0.001
   0.42857143 -0.33333333 -0.20000000       0.001
   0.42857143  0.20000000 -0.33333333       0.001
   0.50000000  0.33333333  0.20000000       0.001
   0.50000000 -0.20000000  0.33333333       0.001
   0.00000000  0.40000000  0.20000000       0.001
   0.00000000 -0.20000000  0.40000000       0.001
   0.07142857  0.40000000  0.20000000       0.001
   0.07142857 -0.20000000  0.40000000       0.001
   0.07142857 -0.40000000 -0.20000000       0.001
   0.07142857  0.20000000 -0.40000000       0.001
   0.14285714  0.40000000  0.20000000       0.001
   0.14285714 -0.20000000  0.40000000       0.001
   0.14285714 -0.40000000 -0.20000000       0.001
   0.14285714  0.20000000 -0.40000000       0.001
   0.21428571  0.40000000  0.20000000       0.001
   0.21428571 -0.20000000  0.40000000       0.001
   0.21428571 -0.40000000 -0.20000000       0.001
   0.21428571  0.20000000 -0.40000000       0.001
   0.28571429  0.40000000  0.20000000       0.001
   0.28571429 -0.20000000  0.40000000       0.001
   0.28571429 -0.40000000 -0.20000000       0.001
   0.28571429  0.20000000 -0.40000000       0.001
   0.35714286  0.40000000  0.20000000       0.001
   0.35714286 -0.20000000  0.40000000       0.001
   0.35714286 -0.40000000 -0.20000000       0.001
   0.35714286  0.20000000 -0.40000000       0.001
   0.42857143  0.40000000  0.20000000       0.001
   0.42857143 -0.20000000  0.40000000       0.001
   0.42857143 -0.40000000 -0.20000000       0.001
   0.42857143  0.20000000 -0.40000000       0.001
   0.50000000  0.40000000  0.20000000       0.001
   0.50000000 -0.20000000  0.40000000       0.001
   0.00000000  0.46666667  0.20000000       0.001
   0.00000000 -0.20000000  0.46666667       0.001
   0.07142857  0.46666667  0.20000000       0.001
   0.07142857 -0.20000000  0.46666667       0.001
   0.07142857 -0.46666667 -0.20000000       0.001
   0.07142857  0.20000000 -0.46666667       0.001
   0.14285714  0.46666667  0.20000000       0.001
   0.14285714 -0.20000000  0.46666667       0.001
   0.14285714 -0.46666667 -0.20000000       0.001
   0.14285714  0.20000000 -0.46666667       0.001
   0.21428571  0.46666667  0.20000000       0.001
   0.21428571 -0.20000000  0.46666667       0.001
   0.21428571 -0.46666667 -0.20000000       0.001
   0.21428571  0.20000000 -0.46666667       0.001
   0.28571429  0.46666667  0.20000000       0.001
   0.28571429 -0.20000000  0.46666667       0.001
   0.28571429 -0.46666667 -0.20000000       0.001
   0.28571429  0.20000000 -0.46666667       0.001
   0.35714286  0.46666667  0.20000000       0.001
   0.35714286 -0.20000000  0.46666667       0.001
   0.35714286 -0.46666667 -0.20000000       0.001
   0.35714286  0.20000000 -0.46666667       0.001
   0.42857143  0.46666667  0.20000000       0.001
   0.42857143 -0.20000000  0.46666667       0.001
   0.42857143 -0.46666667 -0.20000000       0.001
   0.42857143  0.20000000 -0.46666667       0.001
   0.50000000  0.46666667  0.20000000       0.001
   0.50000000 -0.20000000  0.46666667       0.001
   0.00000000  0.26666667  0.26666667       0.001
   0.07142857  0.26666667  0.26666667       0.001
   0.07142857 -0.26666667 -0.26666667       0.001
   0.14285714  0.26666667  0.26666667       0.001
   0.14285714 -0.26666667 -0.26666667       0.001
   0.21428571  0.26666667  0.26666667       0.001
   0.21428571 -0.26666667 -0.26666667       0.001
   0.28571429  0.26666667  0.26666667       0.001
   0.28571429 -0.26666667 -0.26666667       0.001
   0.35714286  0.26666667  0.26666667       0.001
   0.35714286 -0.26666667 -0.26666667       0.001
   0.42857143  0.26666667  0.26666667       0.001
   0.42857143 -0.26666667 -0.26666667       0.001
   0.50000000  0.26666667  0.26666667       0.001
   0.00000000  0.33333333  0.26666667       0.001
   0.00000000 -0.26666667  0.33333333       0.001
   0.07142857  0.33333333  0.26666667       0.001
   0.07142857 -0.26666667  0.33333333       0.001
   0.07142857 -0.33333333 -0.26666667       0.001
   0.07142857  0.26666667 -0.33333333       0.001
   0.14285714  0.33333333  0.26666667       0.001
   0.14285714 -0.26666667  0.33333333       0.001
   0.14285714 -0.33333333 -0.26666667       0.001
   0.14285714  0.26666667 -0.33333333       0.001
   0.21428571  0.33333333  0.26666667       0.001
   0.21428571 -0.26666667  0.33333333       0.001
   0.21428571 -0.33333333 -0.26666667       0.001
   0.21428571  0.26666667 -0.33333333       0.001
   0.28571429  0.33333333  0.26666667       0.001
   0.28571429 -0.26666667  0.33333333       0.001
   0.28571429 -0.33333333 -0.26666667       0.001
   0.28571429  0.26666667 -0.33333333       0.001
   0.35714286  0.33333333  0.26666667       0.001
   0.35714286 -0.26666667  0.33333333       0.001
   0.35714286 -0.33333333 -0.26666667       0.001
   0.35714286  0.26666667 -0.33333333       0.001
   0.42857143  0.33333333  0.26666667       0.001
   0.42857143 -0.26666667  0.33333333       0.001
   0.42857143 -0.33333333 -0.26666667       0.001
   0.42857143  0.26666667 -0.33333333       0.001
   0.50000000  0.33333333  0.26666667       0.001
   0.50000000 -0.26666667  0.33333333       0.001
   0.00000000  0.40000000  0.26666667       0.001
   0.00000000 -0.26666667  0.40000000       0.001
   0.07142857  0.40000000  0.26666667       0.001
   0.07142857 -0.26666667  0.40000000       0.001
   0.07142857 -0.40000000 -0.26666667       0.001
   0.07142857  0.26666667 -0.40000000       0.001
   0.14285714  0.40000000  0.26666667       0.001
   0.14285714 -0.26666667  0.40000000       0.001
   0.14285714 -0.40000000 -0.26666667       0.001
   0.14285714  0.26666667 -0.40000000       0.001
   0.21428571  0.40000000  0.26666667       0.001
   0.21428571 -0.26666667  0.40000000       0.001
   0.21428571 -0.40000000 -0.26666667       0.001
   0.21428571  0.26666667 -0.40000000       0.001
   0.28571429  0.40000000  0.26666667       0.001
   0.28571429 -0.26666667  0.40000000       0.001
   0.28571429 -0.40000000 -0.26666667       0.001
   0.28571429  0.26666667 -0.40000000       0.001
   0.35714286  0.40000000  0.26666667       0.001
   0.35714286 -0.26666667  0.40000000       0.001
   0.35714286 -0.40000000 -0.26666667       0.001
   0.35714286  0.26666667 -0.40000000       0.001
   0.42857143  0.40000000  0.26666667       0.001
   0.42857143 -0.26666667  0.40000000       0.001
   0.42857143 -0.40000000 -0.26666667       0.001
   0.42857143  0.26666667 -0.40000000       0.001
   0.50000000  0.40000000  0.26666667       0.001
   0.50000000 -0.26666667  0.40000000       0.001
   0.00000000  0.46666667  0.26666667       0.001
   0.00000000 -0.26666667  0.46666667       0.001
   0.07142857  0.46666667  0.26666667       0.001
   0.07142857 -0.26666667  0.46666667       0.001
   0.07142857 -0.46666667 -0.26666667       0.001
   0.07142857  0.26666667 -0.46666667       0.001
   0.14285714  0.46666667  0.26666667       0.001
   0.14285714 -0.26666667  0.46666667       0.001
   0.14285714 -0.46666667 -0.26666667       0.001
   0.14285714  0.26666667 -0.46666667       0.001
   0.21428571  0.46666667  0.26666667       0.001
   0.21428571 -0.26666667  0.46666667       0.001
   0.21428571 -0.46666667 -0.26666667       0.001
   0.21428571  0.26666667 -0.46666667       0.001
   0.28571429  0.46666667  0.26666667       0.001
   0.28571429 -0.26666667  0.46666667       0.001
   0.28571429 -0.46666667 -0.26666667       0.001
   0.28571429  0.26666667 -0.46666667       0.001
   0.35714286  0.46666667  0.26666667       0.001
   0.35714286 -0.26666667  0.46666667       0.001
   0.35714286 -0.46666667 -0.26666667       0.001
   0.35714286  0.26666667 -0.46666667       0.001
   0.42857143  0.46666667  0.26666667       0.001
   0.42857143 -0.26666667  0.46666667       0.001
   0.42857143 -0.46666667 -0.26666667       0.001
   0.42857143  0.26666667 -0.46666667       0.001
   0.50000000  0.46666667  0.26666667       0.001
   0.50000000 -0.26666667  0.46666667       0.001
   0.00000000  0.33333333  0.33333333       0.001
   0.07142857  0.33333333  0.33333333       0.001
   0.07142857 -0.33333333 -0.33333333       0.001
   0.14285714  0.33333333  0.33333333       0.001
   0.14285714 -0.33333333 -0.33333333       0.001
   0.21428571  0.33333333  0.33333333       0.001
   0.21428571 -0.33333333 -0.33333333       0.001
   0.28571429  0.33333333  0.33333333       0.001
   0.28571429 -0.33333333 -0.33333333       0.001
   0.35714286  0.33333333  0.33333333       0.001
   0.35714286 -0.33333333 -0.33333333       0.001
   0.42857143  0.33333333  0.33333333       0.001
   0.42857143 -0.33333333 -0.33333333       0.001
   0.50000000  0.33333333  0.33333333       0.001
   0.00000000  0.40000000  0.33333333       0.001
   0.00000000 -0.33333333  0.40000000       0.001
   0.07142857  0.40000000  0.33333333       0.001
   0.07142857 -0.33333333  0.40000000       0.001
   0.07142857 -0.40000000 -0.33333333       0.001
   0.07142857  0.33333333 -0.40000000       0.001
   0.14285714  0.40000000  0.33333333       0.001
   0.14285714 -0.33333333  0.40000000       0.001
   0.14285714 -0.40000000 -0.33333333       0.001
   0.14285714  0.33333333 -0.40000000       0.001
   0.21428571  0.40000000  0.33333333       0.001
   0.21428571 -0.33333333  0.40000000       0.001
   0.21428571 -0.40000000 -0.33333333       0.001
   0.21428571  0.33333333 -0.40000000       0.001
   0.28571429  0.40000000  0.33333333       0.001
   0.28571429 -0.33333333  0.40000000       0.001
   0.28571429 -0.40000000 -0.33333333       0.001
   0.28571429  0.33333333 -0.40000000       0.001
   0.35714286  0.40000000  0.33333333       0.001
   0.35714286 -0.33333333  0.40000000       0.001
   0.35714286 -0.40000000 -0.33333333       0.001
   0.35714286  0.33333333 -0.40000000       0.001
   0.42857143  0.40000000  0.33333333       0.001
   0.42857143 -0.33333333  0.40000000       0.001
   0.42857143 -0.40000000 -0.33333333       0.001
   0.42857143  0.33333333 -0.40000000       0.001
   0.50000000  0.40000000  0.33333333       0.001
   0.50000000 -0.33333333  0.40000000       0.001
   0.00000000  0.46666667  0.33333333       0.001
   0.00000000 -0.33333333  0.46666667       0.001
   0.07142857  0.46666667  0.33333333       0.001
   0.07142857 -0.33333333  0.46666667       0.001
   0.07142857 -0.46666667 -0.33333333       0.001
   0.07142857  0.33333333 -0.46666667       0.001
   0.14285714  0.46666667  0.33333333       0.001
   0.14285714 -0.33333333  0.46666667       0.001
   0.14285714 -0.46666667 -0.33333333       0.001
   0.14285714  0.33333333 -0.46666667       0.001
   0.21428571  0.46666667  0.33333333       0.001
   0.21428571 -0.33333333  0.46666667       0.001
   0.21428571 -0.46666667 -0.33333333       0.001
   0.21428571  0.33333333 -0.46666667       0.001
   0.28571429  0.46666667  0.33333333       0.001
   0.28571429 -0.33333333  0.46666667       0.001
   0.28571429 -0.46666667 -0.33333333       0.001
   0.28571429  0.33333333 -0.46666667       0.001
   0.35714286  0.46666667  0.33333333       0.001
   0.35714286 -0.33333333  0.46666667       0.001
   0.35714286 -0.46666667 -0.33333333       0.001
   0.35714286  0.33333333 -0.46666667       0.001
   0.42857143  0.46666667  0.33333333       0.001
   0.42857143 -0.33333333  0.46666667       0.001
   0.42857143 -0.46666667 -0.33333333       0.001
   0.42857143  0.33333333 -0.46666667       0.001
   0.50000000  0.46666667  0.33333333       0.001
   0.50000000 -0.33333333  0.46666667       0.001
   0.00000000  0.40000000  0.40000000       0.001
   0.07142857  0.40000000  0.40000000       0.001
   0.07142857 -0.40000000 -0.40000000       0.001
   0.14285714  0.40000000  0.40000000       0.001
   0.14285714 -0.40000000 -0.40000000       0.001
   0.21428571  0.40000000  0.40000000       0.001
   0.21428571 -0.40000000 -0.40000000       0.001
   0.28571429  0.40000000  0.40000000       0.001
   0.28571429 -0.40000000 -0.40000000       0.001
   0.35714286  0.40000000  0.40000000       0.001
   0.35714286 -0.40000000 -0.40000000       0.001
   0.42857143  0.40000000  0.40000000       0.001
   0.42857143 -0.40000000 -0.40000000       0.001
   0.50000000  0.40000000  0.40000000       0.001
   0.00000000  0.46666667  0.40000000       0.001
   0.00000000 -0.40000000  0.46666667       0.001
   0.07142857  0.46666667  0.40000000       0.001
   0.07142857 -0.40000000  0.46666667       0.001
   0.07142857 -0.46666667 -0.40000000       0.001
   0.07142857  0.40000000 -0.46666667       0.001
   0.14285714  0.46666667  0.40000000       0.001
   0.14285714 -0.40000000  0.46666667       0.001
   0.14285714 -0.46666667 -0.40000000       0.001
   0.14285714  0.40000000 -0.46666667       0.001
   0.21428571  0.46666667  0.40000000       0.001
   0.21428571 -0.40000000  0.46666667       0.001
   0.21428571 -0.46666667 -0.40000000       0.001
   0.21428571  0.40000000 -0.46666667       0.001
   0.28571429  0.46666667  0.40000000       0.001
   0.28571429 -0.40000000  0.46666667       0.001
   0.28571429 -0.46666667 -0.40000000       0.001
   0.28571429  0.40000000 -0.46666667       0.001
   0.35714286  0.46666667  0.40000000       0.001
   0.35714286 -0.40000000  0.46666667       0.001
   0.35714286 -0.46666667 -0.40000000       0.001
   0.35714286  0.40000000 -0.46666667       0.001
   0.42857143  0.46666667  0.40000000       0.001
   0.42857143 -0.40000000  0.46666667       0.001
   0.42857143 -0.46666667 -0.40000000       0.001
   0.42857143  0.40000000 -0.46666667       0.001
   0.50000000  0.46666667  0.40000000       0.001
   0.50000000 -0.40000000  0.46666667       0.001
   0.00000000  0.46666667  0.46666667       0.001
   0.07142857  0.46666667  0.46666667       0.001
   0.07142857 -0.46666667 -0.46666667       0.001
   0.14285714  0.46666667  0.46666667       0.001
   0.14285714 -0.46666667 -0.46666667       0.001
   0.21428571  0.46666667  0.46666667       0.001
   0.21428571 -0.46666667 -0.46666667       0.001
   0.28571429  0.46666667  0.46666667       0.001
   0.28571429 -0.46666667 -0.46666667       0.001
   0.35714286  0.46666667  0.46666667       0.001
   0.35714286 -0.46666667 -0.46666667       0.001
   0.42857143  0.46666667  0.46666667       0.001
   0.42857143 -0.46666667 -0.46666667       0.001
   0.50000000  0.46666667  0.46666667       0.001
 
 position of ions in fractional coordinates (direct lattice) 
   0.83282814  0.12553045  0.62553045
   0.35663767  0.37446955  0.37446955
   0.11955281  0.62553045  0.87446955
   0.59574328  0.87446955  0.12553045
 
 position of ions in cartesian coordinates  (Angst):
   3.88583404  0.55781300  2.77963653
   1.66401052  1.66401052  1.66401052
   0.55781300  2.77963653  3.88583404
   2.77963653  3.88583404  0.55781300
 


--------------------------------------------------------------------------------------------------------


 k-point     1 :   0.0000 0.0000 0.0000  plane waves:    3083
 k-point     2 :   0.0714 0.0000 0.0000  plane waves:    3055
 k-point     3 :   0.1429 0.0000 0.0000  plane waves:    3063
 k-point     4 :   0.2143 0.0000 0.0000  plane waves:    3063
 k-point     5 :   0.2857 0.0000 0.0000  plane waves:    3071
 k-point     6 :   0.3571 0.0000 0.0000  plane waves:    3070
 k-point     7 :   0.4286 0.0000 0.0000  plane waves:    3074
 k-point     8 :   0.5000 0.0000 0.0000  plane waves:    3074
 k-point     9 :   0.0000 0.0667 0.0000  plane waves:    3081
 k-point    10 :   0.0000 0.0000 0.0667  plane waves:    3081
 k-point    11 :   0.0714 0.0667 0.0000  plane waves:    3059
 k-point    12 :   0.0714 0.0000 0.0667  plane waves:    3059
 k-point    13 :   0.0714 0.0000-0.0667  plane waves:    3059
 k-point    14 :   0.1429 0.0667 0.0000  plane waves:    3057
 k-point    15 :   0.1429 0.0000 0.0667  plane waves:    3057
 k-point    16 :   0.1429 0.0000-0.0667  plane waves:    3057
 k-point    17 :   0.2143 0.0667 0.0000  plane waves:    3061
 k-point    18 :   0.2143 0.0000 0.0667  plane waves:    3061
 k-point    19 :   0.2143 0.0000-0.0667  plane waves:    3061
 k-point    20 :   0.2857 0.0667 0.0000  plane waves:    3070
 k-point    21 :   0.2857 0.0000 0.0667  plane waves:    3070
 k-point    22 :   0.2857 0.0000-0.0667  plane waves:    3070
 k-point    23 :   0.3571 0.0667 0.0000  plane waves:    3073
 k-point    24 :   0.3571 0.0000 0.0667  plane waves:    3073
 k-point    25 :   0.3571 0.0000-0.0667  plane waves:    3073
 k-point    26 :   0.4286 0.0667 0.0000  plane waves:    3072
 k-point    27 :   0.4286 0.0000 0.0667  plane waves:    3072
 k-point    28 :   0.4286 0.0000-0.0667  plane waves:    3072
 k-point    29 :   0.5000 0.0667 0.0000  plane waves:    3078
 k-point    30 :   0.5000 0.0000 0.0667  plane waves:    3078
 k-point    31 :   0.0000 0.1333 0.0000  plane waves:    3068
 k-point    32 :   0.0000 0.0000 0.1333  plane waves:    3068
 k-point    33 :   0.0714 0.1333 0.0000  plane waves:    3072
 k-point    34 :   0.0714 0.0000 0.1333  plane waves:    3072
 k-point    35 :   0.0714 0.0000-0.1333  plane waves:    3072
 k-point    36 :   0.1429 0.1333 0.0000  plane waves:    3064
 k-point    37 :   0.1429 0.0000 0.1333  plane waves:    3064
 k-point    38 :   0.1429 0.0000-0.1333  plane waves:    3064
 k-point    39 :   0.2143 0.1333 0.0000  plane waves:    3064
 k-point    40 :   0.2143 0.0000 0.1333  plane waves:    3064
 k-point    41 :   0.2143 0.0000-0.1333  plane waves:    3064
 k-point    42 :   0.2857 0.1333 0.0000  plane waves:    3066
 k-point    43 :   0.2857 0.0000 0.1333  plane waves:    3066
 k-point    44 :   0.2857 0.0000-0.1333  plane waves:    3066
 k-point    45 :   0.3571 0.1333 0.0000  plane waves:    3070
 k-point    46 :   0.3571 0.0000 0.1333  plane waves:    3070
 k-point    47 :   0.3571 0.0000-0.1333  plane waves:    3070
 k-point    48 :   0.4286 0.1333 0.0000  plane waves:    3081
 k-point    49 :   0.4286 0.0000 0.1333  plane waves:    3081
 k-point    50 :   0.4286 0.0000-0.1333  plane waves:    3081
 k-point    51 :   0.5000 0.1333 0.0000  plane waves:    3090
 k-point    52 :   0.5000 0.0000 0.1333  plane waves:    3090
 k-point    53 :   0.0000 0.2000 0.0000  plane waves:    3072
 k-point    54 :   0.0000 0.0000 0.2000  plane waves:    3072
 k-point    55 :   0.0714 0.2000 0.0000  plane waves:    3075
 k-point    56 :   0.0714 0.0000 0.2000  plane waves:    3075
 k-point    57 :   0.0714 0.0000-0.2000  plane waves:    3075
 k-point    58 :   0.1429 0.2000 0.0000  plane waves:    3076
 k-point    59 :   0.1429 0.0000 0.2000  plane waves:    3076
 k-point    60 :   0.1429 0.0000-0.2000  plane waves:    3076
 k-point    61 :   0.2143 0.2000 0.0000  plane waves:    3068
 k-point    62 :   0.2143 0.0000 0.2000  plane waves:    3068
 k-point    63 :   0.2143 0.0000-0.2000  plane waves:    3068
 k-point    64 :   0.2857 0.2000 0.0000  plane waves:    3068
 k-point    65 :   0.2857 0.0000 0.2000  plane waves:    3068
 k-point    66 :   0.2857 0.0000-0.2000  plane waves:    3068
 k-point    67 :   0.3571 0.2000 0.0000  plane waves:    3067
 k-point    68 :   0.3571 0.0000 0.2000  plane waves:    3067
 k-point    69 :   0.3571 0.0000-0.2000  plane waves:    3067
 k-point    70 :   0.4286 0.2000 0.0000  plane waves:    3090
 k-point    71 :   0.4286 0.0000 0.2000  plane waves:    3090
 k-point    72 :   0.4286 0.0000-0.2000  plane waves:    3090
 k-point    73 :   0.5000 0.2000 0.0000  plane waves:    3078
 k-point    74 :   0.5000 0.0000 0.2000  plane waves:    3078
 k-point    75 :   0.0000 0.2667 0.0000  plane waves:    3078
 k-point    76 :   0.0000 0.0000 0.2667  plane waves:    3078
 k-point    77 :   0.0714 0.2667 0.0000  plane waves:    3080
 k-point    78 :   0.0714 0.0000 0.2667  plane waves:    3080
 k-point    79 :   0.0714 0.0000-0.2667  plane waves:    3080
 k-point    80 :   0.1429 0.2667 0.0000  plane waves:    3078
 k-point    81 :   0.1429 0.0000 0.2667  plane waves:    3078
 k-point    82 :   0.1429 0.0000-0.2667  plane waves:    3078
 k-point    83 :   0.2143 0.2667 0.0000  plane waves:    3085
 k-point    84 :   0.2143 0.0000 0.2667  plane waves:    3085
 k-point    85 :   0.2143 0.0000-0.2667  plane waves:    3085
 k-point    86 :   0.2857 0.2667 0.0000  plane waves:    3072
 k-point    87 :   0.2857 0.0000 0.2667  plane waves:    3072
 k-point    88 :   0.2857 0.0000-0.2667  plane waves:    3072
 k-point    89 :   0.3571 0.2667 0.0000  plane waves:    3067
 k-point    90 :   0.3571 0.0000 0.2667  plane waves:    3067
 k-point    91 :   0.3571 0.0000-0.2667  plane waves:    3067
 k-point    92 :   0.4286 0.2667 0.0000  plane waves:    3082
 k-point    93 :   0.4286 0.0000 0.2667  plane waves:    3082
 k-point    94 :   0.4286 0.0000-0.2667  plane waves:    3082
 k-point    95 :   0.5000 0.2667 0.0000  plane waves:    3076
 k-point    96 :   0.5000 0.0000 0.2667  plane waves:    3076
 k-point    97 :   0.0000 0.3333 0.0000  plane waves:    3068
 k-point    98 :   0.0000 0.0000 0.3333  plane waves:    3068
 k-point    99 :   0.0714 0.3333 0.0000  plane waves:    3074
 k-point   100 :   0.0714 0.0000 0.3333  plane waves:    3074
 k-point   101 :   0.0714 0.0000-0.3333  plane waves:    3074
 k-point   102 :   0.1429 0.3333 0.0000  plane waves:    3079
 k-point   103 :   0.1429 0.0000 0.3333  plane waves:    3079
 k-point   104 :   0.1429 0.0000-0.3333  plane waves:    3079
 k-point   105 :   0.2143 0.3333 0.0000  plane waves:    3060
 k-point   106 :   0.2143 0.0000 0.3333  plane waves:    3060
 k-point   107 :   0.2143 0.0000-0.3333  plane waves:    3060
 k-point   108 :   0.2857 0.3333 0.0000  plane waves:    3063
 k-point   109 :   0.2857 0.0000 0.3333  plane waves:    3063
 k-point   110 :   0.2857 0.0000-0.3333  plane waves:    3063
 k-point   111 :   0.3571 0.3333 0.0000  plane waves:    3072
 k-point   112 :   0.3571 0.0000 0.3333  plane waves:    3072
 k-point   113 :   0.3571 0.0000-0.3333  plane waves:    3072
 k-point   114 :   0.4286 0.3333 0.0000  plane waves:    3071
 k-point   115 :   0.4286 0.0000 0.3333  plane waves:    3071
 k-point   116 :   0.4286 0.0000-0.3333  plane waves:    3071
 k-point   117 :   0.5000 0.3333 0.0000  plane waves:    3062
 k-point   118 :   0.5000 0.0000 0.3333  plane waves:    3062
 k-point   119 :   0.0000 0.4000 0.0000  plane waves:    3064
 k-point   120 :   0.0000 0.0000 0.4000  plane waves:    3064
 k-point   121 :   0.0714 0.4000 0.0000  plane waves:    3061
 k-point   122 :   0.0714 0.0000 0.4000  plane waves:    3061
 k-point   123 :   0.0714 0.0000-0.4000  plane waves:    3061
 k-point   124 :   0.1429 0.4000 0.0000  plane waves:    3075
 k-point   125 :   0.1429 0.0000 0.4000  plane waves:    3075
 k-point   126 :   0.1429 0.0000-0.4000  plane waves:    3075
 k-point   127 :   0.2143 0.4000 0.0000  plane waves:    3069
 k-point   128 :   0.2143 0.0000 0.4000  plane waves:    3069
 k-point   129 :   0.2143 0.0000-0.4000  plane waves:    3069
 k-point   130 :   0.2857 0.4000 0.0000  plane waves:    3073
 k-point   131 :   0.2857 0.0000 0.4000  plane waves:    3073
 k-point   132 :   0.2857 0.0000-0.4000  plane waves:    3073
 k-point   133 :   0.3571 0.4000 0.0000  plane waves:    3076
 k-point   134 :   0.3571 0.0000 0.4000  plane waves:    3076
 k-point   135 :   0.3571 0.0000-0.4000  plane waves:    3076
 k-point   136 :   0.4286 0.4000 0.0000  plane waves:    3068
 k-point   137 :   0.4286 0.0000 0.4000  plane waves:    3068
 k-point   138 :   0.4286 0.0000-0.4000  plane waves:    3068
 k-point   139 :   0.5000 0.4000 0.0000  plane waves:    3074
 k-point   140 :   0.5000 0.0000 0.4000  plane waves:    3074
 k-point   141 :   0.0000 0.4667 0.0000  plane waves:    3060
 k-point   142 :   0.0000 0.0000 0.4667  plane waves:    3060
 k-point   143 :   0.0714 0.4667 0.0000  plane waves:    3061
 k-point   144 :   0.0714 0.0000 0.4667  plane waves:    3061
 k-point   145 :   0.0714 0.0000-0.4667  plane waves:    3061
 k-point   146 :   0.1429 0.4667 0.0000  plane waves:    3060
 k-point   147 :   0.1429 0.0000 0.4667  plane waves:    3060
 k-point   148 :   0.1429 0.0000-0.4667  plane waves:    3060
 k-point   149 :   0.2143 0.4667 0.0000  plane waves:    3067
 k-point   150 :   0.2143 0.0000 0.4667  plane waves:    3067
 k-point   151 :   0.2143 0.0000-0.4667  plane waves:    3067
 k-point   152 :   0.2857 0.4667 0.0000  plane waves:    3077
 k-point   153 :   0.2857 0.0000 0.4667  plane waves:    3077
 k-point   154 :   0.2857 0.0000-0.4667  plane waves:    3077
 k-point   155 :   0.3571 0.4667 0.0000  plane waves:    3076
 k-point   156 :   0.3571 0.0000 0.4667  plane waves:    3076
 k-point   157 :   0.3571 0.0000-0.4667  plane waves:    3076
 k-point   158 :   0.4286 0.4667 0.0000  plane waves:    3078
 k-point   159 :   0.4286 0.0000 0.4667  plane waves:    3078
 k-point   160 :   0.4286 0.0000-0.4667  plane waves:    3078
 k-point   161 :   0.5000 0.4667 0.0000  plane waves:    3076
 k-point   162 :   0.5000 0.0000 0.4667  plane waves:    3076
 k-point   163 :   0.0000 0.0667 0.0667  plane waves:    3075
 k-point   164 :   0.0714 0.0667 0.0667  plane waves:    3066
 k-point   165 :   0.0714-0.0667-0.0667  plane waves:    3066
 k-point   166 :   0.1429 0.0667 0.0667  plane waves:    3061
 k-point   167 :   0.1429-0.0667-0.0667  plane waves:    3061
 k-point   168 :   0.2143 0.0667 0.0667  plane waves:    3061
 k-point   169 :   0.2143-0.0667-0.0667  plane waves:    3061
 k-point   170 :   0.2857 0.0667 0.0667  plane waves:    3063
 k-point   171 :   0.2857-0.0667-0.0667  plane waves:    3063
 k-point   172 :   0.3571 0.0667 0.0667  plane waves:    3074
 k-point   173 :   0.3571-0.0667-0.0667  plane waves:    3074
 k-point   174 :   0.4286 0.0667 0.0667  plane waves:    3081
 k-point   175 :   0.4286-0.0667-0.0667  plane waves:    3081
 k-point   176 :   0.5000 0.0667 0.0667  plane waves:    3078
 k-point   177 :   0.0000 0.1333 0.0667  plane waves:    3073
 k-point   178 :   0.0000-0.0667 0.1333  plane waves:    3073
 k-point   179 :   0.0714 0.1333 0.0667  plane waves:    3071
 k-point   180 :   0.0714-0.0667 0.1333  plane waves:    3071
 k-point   181 :   0.0714-0.1333-0.0667  plane waves:    3071
 k-point   182 :   0.0714 0.0667-0.1333  plane waves:    3071
 k-point   183 :   0.1429 0.1333 0.0667  plane waves:    3069
 k-point   184 :   0.1429-0.0667 0.1333  plane waves:    3069
 k-point   185 :   0.1429-0.1333-0.0667  plane waves:    3069
 k-point   186 :   0.1429 0.0667-0.1333  plane waves:    3069
 k-point   187 :   0.2143 0.1333 0.0667  plane waves:    3063
 k-point   188 :   0.2143-0.0667 0.1333  plane waves:    3063
 k-point   189 :   0.2143-0.1333-0.0667  plane waves:    3063
 k-point   190 :   0.2143 0.0667-0.1333  plane waves:    3063
 k-point   191 :   0.2857 0.1333 0.0667  plane waves:    3064
 k-point   192 :   0.2857-0.0667 0.1333  plane waves:    3064
 k-point   193 :   0.2857-0.1333-0.0667  plane waves:    3064
 k-point   194 :   0.2857 0.0667-0.1333  plane waves:    3064
 k-point   195 :   0.3571 0.1333 0.0667  plane waves:    3072
 k-point   196 :   0.3571-0.0667 0.1333  plane waves:    3072
 k-point   197 :   0.3571-0.1333-0.0667  plane waves:    3072
 k-point   198 :   0.3571 0.0667-0.1333  plane waves:    3072
 k-point   199 :   0.4286 0.1333 0.0667  plane waves:    3078
 k-point   200 :   0.4286-0.0667 0.1333  plane waves:    3078
 k-point   201 :   0.4286-0.1333-0.0667  plane waves:    3078
 k-point   202 :   0.4286 0.0667-0.1333  plane waves:    3078
 k-point   203 :   0.5000 0.1333 0.0667  plane waves:    3088
 k-point   204 :   0.5000-0.0667 0.1333  plane waves:    3088
 k-point   205 :   0.0000 0.2000 0.0667  plane waves:    3077
 k-point   206 :   0.0000-0.0667 0.2000  plane waves:    3077
 k-point   207 :   0.0714 0.2000 0.0667  plane waves:    3073
 k-point   208 :   0.0714-0.0667 0.2000  plane waves:    3073
 k-point   209 :   0.0714-0.2000-0.0667  plane waves:    3073
 k-point   210 :   0.0714 0.0667-0.2000  plane waves:    3073
 k-point   211 :   0.1429 0.2000 0.0667  plane waves:    3073
 k-point   212 :   0.1429-0.0667 0.2000  plane waves:    3073
 k-point   213 :   0.1429-0.2000-0.0667  plane waves:    3073
 k-point   214 :   0.1429 0.0667-0.2000  plane waves:    3073
 k-point   215 :   0.2143 0.2000 0.0667  plane waves:    3074
 k-point   216 :   0.2143-0.0667 0.2000  plane waves:    3074
 k-point   217 :   0.2143-0.2000-0.0667  plane waves:    3074
 k-point   218 :   0.2143 0.0667-0.2000  plane waves:    3074
 k-point   219 :   0.2857 0.2000 0.0667  plane waves:    3071
 k-point   220 :   0.2857-0.0667 0.2000  plane waves:    3071
 k-point   221 :   0.2857-0.2000-0.0667  plane waves:    3071
 k-point   222 :   0.2857 0.0667-0.2000  plane waves:    3071
 k-point   223 :   0.3571 0.2000 0.0667  plane waves:    3071
 k-point   224 :   0.3571-0.0667 0.2000  plane waves:    3071
 k-point   225 :   0.3571-0.2000-0.0667  plane waves:    3071
 k-point   226 :   0.3571 0.0667-0.2000  plane waves:    3071
 k-point   227 :   0.4286 0.2000 0.0667  plane waves:    3072
 k-point   228 :   0.4286-0.0667 0.2000  plane waves:    3072
 k-point   229 :   0.4286-0.2000-0.0667  plane waves:    3072
 k-point   230 :   0.4286 0.0667-0.2000  plane waves:    3072
 k-point   231 :   0.5000 0.2000 0.0667  plane waves:    3080
 k-point   232 :   0.5000-0.0667 0.2000  plane waves:    3080
 k-point   233 :   0.0000 0.2667 0.0667  plane waves:    3083
 k-point   234 :   0.0000-0.0667 0.2667  plane waves:    3083
 k-point   235 :   0.0714 0.2667 0.0667  plane waves:    3078
 k-point   236 :   0.0714-0.0667 0.2667  plane waves:    3078
 k-point   237 :   0.0714-0.2667-0.0667  plane waves:    3078
 k-point   238 :   0.0714 0.0667-0.2667  plane waves:    3078
 k-point   239 :   0.1429 0.2667 0.0667  plane waves:    3077
 k-point   240 :   0.1429-0.0667 0.2667  plane waves:    3077
 k-point   241 :   0.1429-0.2667-0.0667  plane waves:    3077
 k-point   242 :   0.1429 0.0667-0.2667  plane waves:    3077
 k-point   243 :   0.2143 0.2667 0.0667  plane waves:    3077
 k-point   244 :   0.2143-0.0667 0.2667  plane waves:    3077
 k-point   245 :   0.2143-0.2667-0.0667  plane waves:    3077
 k-point   246 :   0.2143 0.0667-0.2667  plane waves:    3077
 k-point   247 :   0.2857 0.2667 0.0667  plane waves:    3072
 k-point   248 :   0.2857-0.0667 0.2667  plane waves:    3072
 k-point   249 :   0.2857-0.2667-0.0667  plane waves:    3072
 k-point   250 :   0.2857 0.0667-0.2667  plane waves:    3072
 k-point   251 :   0.3571 0.2667 0.0667  plane waves:    3072
 k-point   252 :   0.3571-0.0667 0.2667  plane waves:    3072
 k-point   253 :   0.3571-0.2667-0.0667  plane waves:    3072
 k-point   254 :   0.3571 0.0667-0.2667  plane waves:    3072
 k-point   255 :   0.4286 0.2667 0.0667  plane waves:    3072
 k-point   256 :   0.4286-0.0667 0.2667  plane waves:    3072
 k-point   257 :   0.4286-0.2667-0.0667  plane waves:    3072
 k-point   258 :   0.4286 0.0667-0.2667  plane waves:    3072
 k-point   259 :   0.5000 0.2667 0.0667  plane waves:    3074
 k-point   260 :   0.5000-0.0667 0.2667  plane waves:    3074
 k-point   261 :   0.0000 0.3333 0.0667  plane waves:    3072
 k-point   262 :   0.0000-0.0667 0.3333  plane waves:    3072
 k-point   263 :   0.0714 0.3333 0.0667  plane waves:    3070
 k-point   264 :   0.0714-0.0667 0.3333  plane waves:    3070
 k-point   265 :   0.0714-0.3333-0.0667  plane waves:    3070
 k-point   266 :   0.0714 0.0667-0.3333  plane waves:    3070
 k-point   267 :   0.1429 0.3333 0.0667  plane waves:    3071
 k-point   268 :   0.1429-0.0667 0.3333  plane waves:    3071
 k-point   269 :   0.1429-0.3333-0.0667  plane waves:    3071
 k-point   270 :   0.1429 0.0667-0.3333  plane waves:    3071
 k-point   271 :   0.2143 0.3333 0.0667  plane waves:    3070
 k-point   272 :   0.2143-0.0667 0.3333  plane waves:    3070
 k-point   273 :   0.2143-0.3333-0.0667  plane waves:    3070
 k-point   274 :   0.2143 0.0667-0.3333  plane waves:    3070
 k-point   275 :   0.2857 0.3333 0.0667  plane waves:    3069
 k-point   276 :   0.2857-0.0667 0.3333  plane waves:    3069
 k-point   277 :   0.2857-0.3333-0.0667  plane waves:    3069
 k-point   278 :   0.2857 0.0667-0.3333  plane waves:    3069
 k-point   279 :   0.3571 0.3333 0.0667  plane waves:    3069
 k-point   280 :   0.3571-0.0667 0.3333  plane waves:    3069
 k-point   281 :   0.3571-0.3333-0.0667  plane waves:    3069
 k-point   282 :   0.3571 0.0667-0.3333  plane waves:    3069
 k-point   283 :   0.4286 0.3333 0.0667  plane waves:    3073
 k-point   284 :   0.4286-0.0667 0.3333  plane waves:    3073
 k-point   285 :   0.4286-0.3333-0.0667  plane waves:    3073
 k-point   286 :   0.4286 0.0667-0.3333  plane waves:    3073
 k-point   287 :   0.5000 0.3333 0.0667  plane waves:    3072
 k-point   288 :   0.5000-0.0667 0.3333  plane waves:    3072
 k-point   289 :   0.0000 0.4000 0.0667  plane waves:    3066
 k-point   290 :   0.0000-0.0667 0.4000  plane waves:    3066
 k-point   291 :   0.0714 0.4000 0.0667  plane waves:    3067
 k-point   292 :   0.0714-0.0667 0.4000  plane waves:    3067
 k-point   293 :   0.0714-0.4000-0.0667  plane waves:    3067
 k-point   294 :   0.0714 0.0667-0.4000  plane waves:    3067
 k-point   295 :   0.1429 0.4000 0.0667  plane waves:    3067
 k-point   296 :   0.1429-0.0667 0.4000  plane waves:    3067
 k-point   297 :   0.1429-0.4000-0.0667  plane waves:    3067
 k-point   298 :   0.1429 0.0667-0.4000  plane waves:    3067
 k-point   299 :   0.2143 0.4000 0.0667  plane waves:    3073
 k-point   300 :   0.2143-0.0667 0.4000  plane waves:    3073
 k-point   301 :   0.2143-0.4000-0.0667  plane waves:    3073
 k-point   302 :   0.2143 0.0667-0.4000  plane waves:    3073
 k-point   303 :   0.2857 0.4000 0.0667  plane waves:    3071
 k-point   304 :   0.2857-0.0667 0.4000  plane waves:    3071
 k-point   305 :   0.2857-0.4000-0.0667  plane waves:    3071
 k-point   306 :   0.2857 0.0667-0.4000  plane waves:    3071
 k-point   307 :   0.3571 0.4000 0.0667  plane waves:    3071
 k-point   308 :   0.3571-0.0667 0.4000  plane waves:    3071
 k-point   309 :   0.3571-0.4000-0.0667  plane waves:    3071
 k-point   310 :   0.3571 0.0667-0.4000  plane waves:    3071
 k-point   311 :   0.4286 0.4000 0.0667  plane waves:    3072
 k-point   312 :   0.4286-0.0667 0.4000  plane waves:    3072
 k-point   313 :   0.4286-0.4000-0.0667  plane waves:    3072
 k-point   314 :   0.4286 0.0667-0.4000  plane waves:    3072
 k-point   315 :   0.5000 0.4000 0.0667  plane waves:    3072
 k-point   316 :   0.5000-0.0667 0.4000  plane waves:    3072
 k-point   317 :   0.0000 0.4667 0.0667  plane waves:    3053
 k-point   318 :   0.0000-0.0667 0.4667  plane waves:    3053
 k-point   319 :   0.0714 0.4667 0.0667  plane waves:    3058
 k-point   320 :   0.0714-0.0667 0.4667  plane waves:    3058
 k-point   321 :   0.0714-0.4667-0.0667  plane waves:    3058
 k-point   322 :   0.0714 0.0667-0.4667  plane waves:    3058
 k-point   323 :   0.1429 0.4667 0.0667  plane waves:    3072
 k-point   324 :   0.1429-0.0667 0.4667  plane waves:    3072
 k-point   325 :   0.1429-0.4667-0.0667  plane waves:    3072
 k-point   326 :   0.1429 0.0667-0.4667  plane waves:    3072
 k-point   327 :   0.2143 0.4667 0.0667  plane waves:    3074
 k-point   328 :   0.2143-0.0667 0.4667  plane waves:    3074
 k-point   329 :   0.2143-0.4667-0.0667  plane waves:    3074
 k-point   330 :   0.2143 0.0667-0.4667  plane waves:    3074
 k-point   331 :   0.2857 0.4667 0.0667  plane waves:    3078
 k-point   332 :   0.2857-0.0667 0.4667  plane waves:    3078
 k-point   333 :   0.2857-0.4667-0.0667  plane waves:    3078
 k-point   334 :   0.2857 0.0667-0.4667  plane waves:    3078
 k-point   335 :   0.3571 0.4667 0.0667  plane waves:    3071
 k-point   336 :   0.3571-0.0667 0.4667  plane waves:    3071
 k-point   337 :   0.3571-0.4667-0.0667  plane waves:    3071
 k-point   338 :   0.3571 0.0667-0.4667  plane waves:    3071
 k-point   339 :   0.4286 0.4667 0.0667  plane waves:    3073
 k-point   340 :   0.4286-0.0667 0.4667  plane waves:    3073
 k-point   341 :   0.4286-0.4667-0.0667  plane waves:    3073
 k-point   342 :   0.4286 0.0667-0.4667  plane waves:    3073
 k-point   343 :   0.5000 0.4667 0.0667  plane waves:    3078
 k-point   344 :   0.5000-0.0667 0.4667  plane waves:    3078
 k-point   345 :   0.0000 0.1333 0.1333  plane waves:    3075
 k-point   346 :   0.0714 0.1333 0.1333  plane waves:    3075
 k-point   347 :   0.0714-0.1333-0.1333  plane waves:    3075
 k-point   348 :   0.1429 0.1333 0.1333  plane waves:    3074
 k-point   349 :   0.1429-0.1333-0.1333  plane waves:    3074
 k-point   350 :   0.2143 0.1333 0.1333  plane waves:    3061
 k-point   351 :   0.2143-0.1333-0.1333  plane waves:    3061
 k-point   352 :   0.2857 0.1333 0.1333  plane waves:    3073
 k-point   353 :   0.2857-0.1333-0.1333  plane waves:    3073
 k-point   354 :   0.3571 0.1333 0.1333  plane waves:    3071
 k-point   355 :   0.3571-0.1333-0.1333  plane waves:    3071
 k-point   356 :   0.4286 0.1333 0.1333  plane waves:    3068
 k-point   357 :   0.4286-0.1333-0.1333  plane waves:    3068
 k-point   358 :   0.5000 0.1333 0.1333  plane waves:    3062
 k-point   359 :   0.0000 0.2000 0.1333  plane waves:    3068
 k-point   360 :   0.0000-0.1333 0.2000  plane waves:    3068
 k-point   361 :   0.0714 0.2000 0.1333  plane waves:    3072
 k-point   362 :   0.0714-0.1333 0.2000  plane waves:    3072
 k-point   363 :   0.0714-0.2000-0.1333  plane waves:    3072
 k-point   364 :   0.0714 0.1333-0.2000  plane waves:    3072
 k-point   365 :   0.1429 0.2000 0.1333  plane waves:    3073
 k-point   366 :   0.1429-0.1333 0.2000  plane waves:    3073
 k-point   367 :   0.1429-0.2000-0.1333  plane waves:    3073
 k-point   368 :   0.1429 0.1333-0.2000  plane waves:    3073
 k-point   369 :   0.2143 0.2000 0.1333  plane waves:    3075
 k-point   370 :   0.2143-0.1333 0.2000  plane waves:    3075
 k-point   371 :   0.2143-0.2000-0.1333  plane waves:    3075
 k-point   372 :   0.2143 0.1333-0.2000  plane waves:    3075
 k-point   373 :   0.2857 0.2000 0.1333  plane waves:    3074
 k-point   374 :   0.2857-0.1333 0.2000  plane waves:    3074
 k-point   375 :   0.2857-0.2000-0.1333  plane waves:    3074
 k-point   376 :   0.2857 0.1333-0.2000  plane waves:    3074
 k-point   377 :   0.3571 0.2000 0.1333  plane waves:    3071
 k-point   378 :   0.3571-0.1333 0.2000  plane waves:    3071
 k-point   379 :   0.3571-0.2000-0.1333  plane waves:    3071
 k-point   380 :   0.3571 0.1333-0.2000  plane waves:    3071
 k-point   381 :   0.4286 0.2000 0.1333  plane waves:    3066
 k-point   382 :   0.4286-0.1333 0.2000  plane waves:    3066
 k-point   383 :   0.4286-0.2000-0.1333  plane waves:    3066
 k-point   384 :   0.4286 0.1333-0.2000  plane waves:    3066
 k-point   385 :   0.5000 0.2000 0.1333  plane waves:    3072
 k-point   386 :   0.5000-0.1333 0.2000  plane waves:    3072
 k-point   387 :   0.0000 0.2667 0.1333  plane waves:    3083
 k-point   388 :   0.0000-0.1333 0.2667  plane waves:    3083
 k-point   389 :   0.0714 0.2667 0.1333  plane waves:    3077
 k-point   390 :   0.0714-0.1333 0.2667  plane waves:    3077
 k-point   391 :   0.0714-0.2667-0.1333  plane waves:    3077
 k-point   392 :   0.0714 0.1333-0.2667  plane waves:    3077
 k-point   393 :   0.1429 0.2667 0.1333  plane waves:    3076
 k-point   394 :   0.1429-0.1333 0.2667  plane waves:    3076
 k-point   395 :   0.1429-0.2667-0.1333  plane waves:    3076
 k-point   396 :   0.1429 0.1333-0.2667  plane waves:    3076
 k-point   397 :   0.2143 0.2667 0.1333  plane waves:    3078
 k-point   398 :   0.2143-0.1333 0.2667  plane waves:    3078
 k-point   399 :   0.2143-0.2667-0.1333  plane waves:    3078
 k-point   400 :   0.2143 0.1333-0.2667  plane waves:    3078
 k-point   401 :   0.2857 0.2667 0.1333  plane waves:    3071
 k-point   402 :   0.2857-0.1333 0.2667  plane waves:    3071
 k-point   403 :   0.2857-0.2667-0.1333  plane waves:    3071
 k-point   404 :   0.2857 0.1333-0.2667  plane waves:    3071
 k-point   405 :   0.3571 0.2667 0.1333  plane waves:    3068
 k-point   406 :   0.3571-0.1333 0.2667  plane waves:    3068
 k-point   407 :   0.3571-0.2667-0.1333  plane waves:    3068
 k-point   408 :   0.3571 0.1333-0.2667  plane waves:    3068
 k-point   409 :   0.4286 0.2667 0.1333  plane waves:    3066
 k-point   410 :   0.4286-0.1333 0.2667  plane waves:    3066
 k-point   411 :   0.4286-0.2667-0.1333  plane waves:    3066
 k-point   412 :   0.4286 0.1333-0.2667  plane waves:    3066
 k-point   413 :   0.5000 0.2667 0.1333  plane waves:    3056
 k-point   414 :   0.5000-0.1333 0.2667  plane waves:    3056
 k-point   415 :   0.0000 0.3333 0.1333  plane waves:    3076
 k-point   416 :   0.0000-0.1333 0.3333  plane waves:    3076
 k-point   417 :   0.0714 0.3333 0.1333  plane waves:    3078
 k-point   418 :   0.0714-0.1333 0.3333  plane waves:    3078
 k-point   419 :   0.0714-0.3333-0.1333  plane waves:    3078
 k-point   420 :   0.0714 0.1333-0.3333  plane waves:    3078
 k-point   421 :   0.1429 0.3333 0.1333  plane waves:    3070
 k-point   422 :   0.1429-0.1333 0.3333  plane waves:    3070
 k-point   423 :   0.1429-0.3333-0.1333  plane waves:    3070
 k-point   424 :   0.1429 0.1333-0.3333  plane waves:    3070
 k-point   425 :   0.2143 0.3333 0.1333  plane waves:    3068
 k-point   426 :   0.2143-0.1333 0.3333  plane waves:    3068
 k-point   427 :   0.2143-0.3333-0.1333  plane waves:    3068
 k-point   428 :   0.2143 0.1333-0.3333  plane waves:    3068
 k-point   429 :   0.2857 0.3333 0.1333  plane waves:    3067
 k-point   430 :   0.2857-0.1333 0.3333  plane waves:    3067
 k-point   431 :   0.2857-0.3333-0.1333  plane waves:    3067
 k-point   432 :   0.2857 0.1333-0.3333  plane waves:    3067
 k-point   433 :   0.3571 0.3333 0.1333  plane waves:    3065
 k-point   434 :   0.3571-0.1333 0.3333  plane waves:    3065
 k-point   435 :   0.3571-0.3333-0.1333  plane waves:    3065
 k-point   436 :   0.3571 0.1333-0.3333  plane waves:    3065
 k-point   437 :   0.4286 0.3333 0.1333  plane waves:    3065
 k-point   438 :   0.4286-0.1333 0.3333  plane waves:    3065
 k-point   439 :   0.4286-0.3333-0.1333  plane waves:    3065
 k-point   440 :   0.4286 0.1333-0.3333  plane waves:    3065
 k-point   441 :   0.5000 0.3333 0.1333  plane waves:    3068
 k-point   442 :   0.5000-0.1333 0.3333  plane waves:    3068
 k-point   443 :   0.0000 0.4000 0.1333  plane waves:    3073
 k-point   444 :   0.0000-0.1333 0.4000  plane waves:    3073
 k-point   445 :   0.0714 0.4000 0.1333  plane waves:    3071
 k-point   446 :   0.0714-0.1333 0.4000  plane waves:    3071
 k-point   447 :   0.0714-0.4000-0.1333  plane waves:    3071
 k-point   448 :   0.0714 0.1333-0.4000  plane waves:    3071
 k-point   449 :   0.1429 0.4000 0.1333  plane waves:    3068
 k-point   450 :   0.1429-0.1333 0.4000  plane waves:    3068
 k-point   451 :   0.1429-0.4000-0.1333  plane waves:    3068
 k-point   452 :   0.1429 0.1333-0.4000  plane waves:    3068
 k-point   453 :   0.2143 0.4000 0.1333  plane waves:    3070
 k-point   454 :   0.2143-0.1333 0.4000  plane waves:    3070
 k-point   455 :   0.2143-0.4000-0.1333  plane waves:    3070
 k-point   456 :   0.2143 0.1333-0.4000  plane waves:    3070
 k-point   457 :   0.2857 0.4000 0.1333  plane waves:    3067
 k-point   458 :   0.2857-0.1333 0.4000  plane waves:    3067
 k-point   459 :   0.2857-0.4000-0.1333  plane waves:    3067
 k-point   460 :   0.2857 0.1333-0.4000  plane waves:    3067
 k-point   461 :   0.3571 0.4000 0.1333  plane waves:    3070
 k-point   462 :   0.3571-0.1333 0.4000  plane waves:    3070
 k-point   463 :   0.3571-0.4000-0.1333  plane waves:    3070
 k-point   464 :   0.3571 0.1333-0.4000  plane waves:    3070
 k-point   465 :   0.4286 0.4000 0.1333  plane waves:    3072
 k-point   466 :   0.4286-0.1333 0.4000  plane waves:    3072
 k-point   467 :   0.4286-0.4000-0.1333  plane waves:    3072
 k-point   468 :   0.4286 0.1333-0.4000  plane waves:    3072
 k-point   469 :   0.5000 0.4000 0.1333  plane waves:    3078
 k-point   470 :   0.5000-0.1333 0.4000  plane waves:    3078
 k-point   471 :   0.0000 0.4667 0.1333  plane waves:    3054
 k-point   472 :   0.0000-0.1333 0.4667  plane waves:    3054
 k-point   473 :   0.0714 0.4667 0.1333  plane waves:    3063
 k-point   474 :   0.0714-0.1333 0.4667  plane waves:    3063
 k-point   475 :   0.0714-0.4667-0.1333  plane waves:    3063
 k-point   476 :   0.0714 0.1333-0.4667  plane waves:    3063
 k-point   477 :   0.1429 0.4667 0.1333  plane waves:    3074
 k-point   478 :   0.1429-0.1333 0.4667  plane waves:    3074
 k-point   479 :   0.1429-0.4667-0.1333  plane waves:    3074
 k-point   480 :   0.1429 0.1333-0.4667  plane waves:    3074
 k-point   481 :   0.2143 0.4667 0.1333  plane waves:    3081
 k-point   482 :   0.2143-0.1333 0.4667  plane waves:    3081
 k-point   483 :   0.2143-0.4667-0.1333  plane waves:    3081
 k-point   484 :   0.2143 0.1333-0.4667  plane waves:    3081
 k-point   485 :   0.2857 0.4667 0.1333  plane waves:    3067
 k-point   486 :   0.2857-0.1333 0.4667  plane waves:    3067
 k-point   487 :   0.2857-0.4667-0.1333  plane waves:    3067
 k-point   488 :   0.2857 0.1333-0.4667  plane waves:    3067
 k-point   489 :   0.3571 0.4667 0.1333  plane waves:    3071
 k-point   490 :   0.3571-0.1333 0.4667  plane waves:    3071
 k-point   491 :   0.3571-0.4667-0.1333  plane waves:    3071
 k-point   492 :   0.3571 0.1333-0.4667  plane waves:    3071
 k-point   493 :   0.4286 0.4667 0.1333  plane waves:    3070
 k-point   494 :   0.4286-0.1333 0.4667  plane waves:    3070
 k-point   495 :   0.4286-0.4667-0.1333  plane waves:    3070
 k-point   496 :   0.4286 0.1333-0.4667  plane waves:    3070
 k-point   497 :   0.5000 0.4667 0.1333  plane waves:    3076
 k-point   498 :   0.5000-0.1333 0.4667  plane waves:    3076
 k-point   499 :   0.0000 0.2000 0.2000  plane waves:    3077
 k-point   500 :   0.0714 0.2000 0.2000  plane waves:    3079
 k-point   501 :   0.0714-0.2000-0.2000  plane waves:    3079
 k-point   502 :   0.1429 0.2000 0.2000  plane waves:    3075
 k-point   503 :   0.1429-0.2000-0.2000  plane waves:    3075
 k-point   504 :   0.2143 0.2000 0.2000  plane waves:    3072
 k-point   505 :   0.2143-0.2000-0.2000  plane waves:    3072
 k-point   506 :   0.2857 0.2000 0.2000  plane waves:    3073
 k-point   507 :   0.2857-0.2000-0.2000  plane waves:    3073
 k-point   508 :   0.3571 0.2000 0.2000  plane waves:    3071
 k-point   509 :   0.3571-0.2000-0.2000  plane waves:    3071
 k-point   510 :   0.4286 0.2000 0.2000  plane waves:    3064
 k-point   511 :   0.4286-0.2000-0.2000  plane waves:    3064
 k-point   512 :   0.5000 0.2000 0.2000  plane waves:    3058
 k-point   513 :   0.0000 0.2667 0.2000  plane waves:    3087
 k-point   514 :   0.0000-0.2000 0.2667  plane waves:    3087
 k-point   515 :   0.0714 0.2667 0.2000  plane waves:    3080
 k-point   516 :   0.0714-0.2000 0.2667  plane waves:    3080
 k-point   517 :   0.0714-0.2667-0.2000  plane waves:    3080
 k-point   518 :   0.0714 0.2000-0.2667  plane waves:    3080
 k-point   519 :   0.1429 0.2667 0.2000  plane waves:    3073
 k-point   520 :   0.1429-0.2000 0.2667  plane waves:    3073
 k-point   521 :   0.1429-0.2667-0.2000  plane waves:    3073
 k-point   522 :   0.1429 0.2000-0.2667  plane waves:    3073
 k-point   523 :   0.2143 0.2667 0.2000  plane waves:    3073
 k-point   524 :   0.2143-0.2000 0.2667  plane waves:    3073
 k-point   525 :   0.2143-0.2667-0.2000  plane waves:    3073
 k-point   526 :   0.2143 0.2000-0.2667  plane waves:    3073
 k-point   527 :   0.2857 0.2667 0.2000  plane waves:    3065
 k-point   528 :   0.2857-0.2000 0.2667  plane waves:    3065
 k-point   529 :   0.2857-0.2667-0.2000  plane waves:    3065
 k-point   530 :   0.2857 0.2000-0.2667  plane waves:    3065
 k-point   531 :   0.3571 0.2667 0.2000  plane waves:    3072
 k-point   532 :   0.3571-0.2000 0.2667  plane waves:    3072
 k-point   533 :   0.3571-0.2667-0.2000  plane waves:    3072
 k-point   534 :   0.3571 0.2000-0.2667  plane waves:    3072
 k-point   535 :   0.4286 0.2667 0.2000  plane waves:    3068
 k-point   536 :   0.4286-0.2000 0.2667  plane waves:    3068
 k-point   537 :   0.4286-0.2667-0.2000  plane waves:    3068
 k-point   538 :   0.4286 0.2000-0.2667  plane waves:    3068
 k-point   539 :   0.5000 0.2667 0.2000  plane waves:    3058
 k-point   540 :   0.5000-0.2000 0.2667  plane waves:    3058
 k-point   541 :   0.0000 0.3333 0.2000  plane waves:    3087
 k-point   542 :   0.0000-0.2000 0.3333  plane waves:    3087
 k-point   543 :   0.0714 0.3333 0.2000  plane waves:    3081
 k-point   544 :   0.0714-0.2000 0.3333  plane waves:    3081
 k-point   545 :   0.0714-0.3333-0.2000  plane waves:    3081
 k-point   546 :   0.0714 0.2000-0.3333  plane waves:    3081
 k-point   547 :   0.1429 0.3333 0.2000  plane waves:    3073
 k-point   548 :   0.1429-0.2000 0.3333  plane waves:    3073
 k-point   549 :   0.1429-0.3333-0.2000  plane waves:    3073
 k-point   550 :   0.1429 0.2000-0.3333  plane waves:    3073
 k-point   551 :   0.2143 0.3333 0.2000  plane waves:    3078
 k-point   552 :   0.2143-0.2000 0.3333  plane waves:    3078
 k-point   553 :   0.2143-0.3333-0.2000  plane waves:    3078
 k-point   554 :   0.2143 0.2000-0.3333  plane waves:    3078
 k-point   555 :   0.2857 0.3333 0.2000  plane waves:    3067
 k-point   556 :   0.2857-0.2000 0.3333  plane waves:    3067
 k-point   557 :   0.2857-0.3333-0.2000  plane waves:    3067
 k-point   558 :   0.2857 0.2000-0.3333  plane waves:    3067
 k-point   559 :   0.3571 0.3333 0.2000  plane waves:    3075
 k-point   560 :   0.3571-0.2000 0.3333  plane waves:    3075
 k-point   561 :   0.3571-0.3333-0.2000  plane waves:    3075
 k-point   562 :   0.3571 0.2000-0.3333  plane waves:    3075
 k-point   563 :   0.4286 0.3333 0.2000  plane waves:    3075
 k-point   564 :   0.4286-0.2000 0.3333  plane waves:    3075
 k-point   565 :   0.4286-0.3333-0.2000  plane waves:    3075
 k-point   566 :   0.4286 0.2000-0.3333  plane waves:    3075
 k-point   567 :   0.5000 0.3333 0.2000  plane waves:    3066
 k-point   568 :   0.5000-0.2000 0.3333  plane waves:    3066
 k-point   569 :   0.0000 0.4000 0.2000  plane waves:    3079
 k-point   570 :   0.0000-0.2000 0.4000  plane waves:    3079
 k-point   571 :   0.0714 0.4000 0.2000  plane waves:    3078
 k-point   572 :   0.0714-0.2000 0.4000  plane waves:    3078
 k-point   573 :   0.0714-0.4000-0.2000  plane waves:    3078
 k-point   574 :   0.0714 0.2000-0.4000  plane waves:    3078
 k-point   575 :   0.1429 0.4000 0.2000  plane waves:    3078
 k-point   576 :   0.1429-0.2000 0.4000  plane waves:    3078
 k-point   577 :   0.1429-0.4000-0.2000  plane waves:    3078
 k-point   578 :   0.1429 0.2000-0.4000  plane waves:    3078
 k-point   579 :   0.2143 0.4000 0.2000  plane waves:    3077
 k-point   580 :   0.2143-0.2000 0.4000  plane waves:    3077
 k-point   581 :   0.2143-0.4000-0.2000  plane waves:    3077
 k-point   582 :   0.2143 0.2000-0.4000  plane waves:    3077
 k-point   583 :   0.2857 0.4000 0.2000  plane waves:    3077
 k-point   584 :   0.2857-0.2000 0.4000  plane waves:    3077
 k-point   585 :   0.2857-0.4000-0.2000  plane waves:    3077
 k-point   586 :   0.2857 0.2000-0.4000  plane waves:    3077
 k-point   587 :   0.3571 0.4000 0.2000  plane waves:    3073
 k-point   588 :   0.3571-0.2000 0.4000  plane waves:    3073
 k-point   589 :   0.3571-0.4000-0.2000  plane waves:    3073
 k-point   590 :   0.3571 0.2000-0.4000  plane waves:    3073
 k-point   591 :   0.4286 0.4000 0.2000  plane waves:    3066
 k-point   592 :   0.4286-0.2000 0.4000  plane waves:    3066
 k-point   593 :   0.4286-0.4000-0.2000  plane waves:    3066
 k-point   594 :   0.4286 0.2000-0.4000  plane waves:    3066
 k-point   595 :   0.5000 0.4000 0.2000  plane waves:    3076
 k-point   596 :   0.5000-0.2000 0.4000  plane waves:    3076
 k-point   597 :   0.0000 0.4667 0.2000  plane waves:    3072
 k-point   598 :   0.0000-0.2000 0.4667  plane waves:    3072
 k-point   599 :   0.0714 0.4667 0.2000  plane waves:    3073
 k-point   600 :   0.0714-0.2000 0.4667  plane waves:    3073
 k-point   601 :   0.0714-0.4667-0.2000  plane waves:    3073
 k-point   602 :   0.0714 0.2000-0.4667  plane waves:    3073
 k-point   603 :   0.1429 0.4667 0.2000  plane waves:    3080
 k-point   604 :   0.1429-0.2000 0.4667  plane waves:    3080
 k-point   605 :   0.1429-0.4667-0.2000  plane waves:    3080
 k-point   606 :   0.1429 0.2000-0.4667  plane waves:    3080
 k-point   607 :   0.2143 0.4667 0.2000  plane waves:    3078
 k-point   608 :   0.2143-0.2000 0.4667  plane waves:    3078
 k-point   609 :   0.2143-0.4667-0.2000  plane waves:    3078
 k-point   610 :   0.2143 0.2000-0.4667  plane waves:    3078
 k-point   611 :   0.2857 0.4667 0.2000  plane waves:    3070
 k-point   612 :   0.2857-0.2000 0.4667  plane waves:    3070
 k-point   613 :   0.2857-0.4667-0.2000  plane waves:    3070
 k-point   614 :   0.2857 0.2000-0.4667  plane waves:    3070
 k-point   615 :   0.3571 0.4667 0.2000  plane waves:    3076
 k-point   616 :   0.3571-0.2000 0.4667  plane waves:    3076
 k-point   617 :   0.3571-0.4667-0.2000  plane waves:    3076
 k-point   618 :   0.3571 0.2000-0.4667  plane waves:    3076
 k-point   619 :   0.4286 0.4667 0.2000  plane waves:    3070
 k-point   620 :   0.4286-0.2000 0.4667  plane waves:    3070
 k-point   621 :   0.4286-0.4667-0.2000  plane waves:    3070
 k-point   622 :   0.4286 0.2000-0.4667  plane waves:    3070
 k-point   623 :   0.5000 0.4667 0.2000  plane waves:    3074
 k-point   624 :   0.5000-0.2000 0.4667  plane waves:    3074
 k-point   625 :   0.0000 0.2667 0.2667  plane waves:    3079
 k-point   626 :   0.0714 0.2667 0.2667  plane waves:    3080
 k-point   627 :   0.0714-0.2667-0.2667  plane waves:    3080
 k-point   628 :   0.1429 0.2667 0.2667  plane waves:    3072
 k-point   629 :   0.1429-0.2667-0.2667  plane waves:    3072
 k-point   630 :   0.2143 0.2667 0.2667  plane waves:    3078
 k-point   631 :   0.2143-0.2667-0.2667  plane waves:    3078
 k-point   632 :   0.2857 0.2667 0.2667  plane waves:    3075
 k-point   633 :   0.2857-0.2667-0.2667  plane waves:    3075
 k-point   634 :   0.3571 0.2667 0.2667  plane waves:    3067
 k-point   635 :   0.3571-0.2667-0.2667  plane waves:    3067
 k-point   636 :   0.4286 0.2667 0.2667  plane waves:    3070
 k-point   637 :   0.4286-0.2667-0.2667  plane waves:    3070
 k-point   638 :   0.5000 0.2667 0.2667  plane waves:    3072
 k-point   639 :   0.0000 0.3333 0.2667  plane waves:    3079
 k-point   640 :   0.0000-0.2667 0.3333  plane waves:    3079
 k-point   641 :   0.0714 0.3333 0.2667  plane waves:    3082
 k-point   642 :   0.0714-0.2667 0.3333  plane waves:    3082
 k-point   643 :   0.0714-0.3333-0.2667  plane waves:    3082
 k-point   644 :   0.0714 0.2667-0.3333  plane waves:    3082
 k-point   645 :   0.1429 0.3333 0.2667  plane waves:    3085
 k-point   646 :   0.1429-0.2667 0.3333  plane waves:    3085
 k-point   647 :   0.1429-0.3333-0.2667  plane waves:    3085
 k-point   648 :   0.1429 0.2667-0.3333  plane waves:    3085
 k-point   649 :   0.2143 0.3333 0.2667  plane waves:    3076
 k-point   650 :   0.2143-0.2667 0.3333  plane waves:    3076
 k-point   651 :   0.2143-0.3333-0.2667  plane waves:    3076
 k-point   652 :   0.2143 0.2667-0.3333  plane waves:    3076
 k-point   653 :   0.2857 0.3333 0.2667  plane waves:    3077
 k-point   654 :   0.2857-0.2667 0.3333  plane waves:    3077
 k-point   655 :   0.2857-0.3333-0.2667  plane waves:    3077
 k-point   656 :   0.2857 0.2667-0.3333  plane waves:    3077
 k-point   657 :   0.3571 0.3333 0.2667  plane waves:    3075
 k-point   658 :   0.3571-0.2667 0.3333  plane waves:    3075
 k-point   659 :   0.3571-0.3333-0.2667  plane waves:    3075
 k-point   660 :   0.3571 0.2667-0.3333  plane waves:    3075
 k-point   661 :   0.4286 0.3333 0.2667  plane waves:    3074
 k-point   662 :   0.4286-0.2667 0.3333  plane waves:    3074
 k-point   663 :   0.4286-0.3333-0.2667  plane waves:    3074
 k-point   664 :   0.4286 0.2667-0.3333  plane waves:    3074
 k-point   665 :   0.5000 0.3333 0.2667  plane waves:    3074
 k-point   666 :   0.5000-0.2667 0.3333  plane waves:    3074
 k-point   667 :   0.0000 0.4000 0.2667  plane waves:    3078
 k-point   668 :   0.0000-0.2667 0.4000  plane waves:    3078
 k-point   669 :   0.0714 0.4000 0.2667  plane waves:    3080
 k-point   670 :   0.0714-0.2667 0.4000  plane waves:    3080
 k-point   671 :   0.0714-0.4000-0.2667  plane waves:    3080
 k-point   672 :   0.0714 0.2667-0.4000  plane waves:    3080
 k-point   673 :   0.1429 0.4000 0.2667  plane waves:    3083
 k-point   674 :   0.1429-0.2667 0.4000  plane waves:    3083
 k-point   675 :   0.1429-0.4000-0.2667  plane waves:    3083
 k-point   676 :   0.1429 0.2667-0.4000  plane waves:    3083
 k-point   677 :   0.2143 0.4000 0.2667  plane waves:    3081
 k-point   678 :   0.2143-0.2667 0.4000  plane waves:    3081
 k-point   679 :   0.2143-0.4000-0.2667  plane waves:    3081
 k-point   680 :   0.2143 0.2667-0.4000  plane waves:    3081
 k-point   681 :   0.2857 0.4000 0.2667  plane waves:    3081
 k-point   682 :   0.2857-0.2667 0.4000  plane waves:    3081
 k-point   683 :   0.2857-0.4000-0.2667  plane waves:    3081
 k-point   684 :   0.2857 0.2667-0.4000  plane waves:    3081
 k-point   685 :   0.3571 0.4000 0.2667  plane waves:    3074
 k-point   686 :   0.3571-0.2667 0.4000  plane waves:    3074
 k-point   687 :   0.3571-0.4000-0.2667  plane waves:    3074
 k-point   688 :   0.3571 0.2667-0.4000  plane waves:    3074
 k-point   689 :   0.4286 0.4000 0.2667  plane waves:    3072
 k-point   690 :   0.4286-0.2667 0.4000  plane waves:    3072
 k-point   691 :   0.4286-0.4000-0.2667  plane waves:    3072
 k-point   692 :   0.4286 0.2667-0.4000  plane waves:    3072
 k-point   693 :   0.5000 0.4000 0.2667  plane waves:    3076
 k-point   694 :   0.5000-0.2667 0.4000  plane waves:    3076
 k-point   695 :   0.0000 0.4667 0.2667  plane waves:    3087
 k-point   696 :   0.0000-0.2667 0.4667  plane waves:    3087
 k-point   697 :   0.0714 0.4667 0.2667  plane waves:    3079
 k-point   698 :   0.0714-0.2667 0.4667  plane waves:    3079
 k-point   699 :   0.0714-0.4667-0.2667  plane waves:    3079
 k-point   700 :   0.0714 0.2667-0.4667  plane waves:    3079
 k-point   701 :   0.1429 0.4667 0.2667  plane waves:    3079
 k-point   702 :   0.1429-0.2667 0.4667  plane waves:    3079
 k-point   703 :   0.1429-0.4667-0.2667  plane waves:    3079
 k-point   704 :   0.1429 0.2667-0.4667  plane waves:    3079
 k-point   705 :   0.2143 0.4667 0.2667  plane waves:    3080
 k-point   706 :   0.2143-0.2667 0.4667  plane waves:    3080
 k-point   707 :   0.2143-0.4667-0.2667  plane waves:    3080
 k-point   708 :   0.2143 0.2667-0.4667  plane waves:    3080
 k-point   709 :   0.2857 0.4667 0.2667  plane waves:    3082
 k-point   710 :   0.2857-0.2667 0.4667  plane waves:    3082
 k-point   711 :   0.2857-0.4667-0.2667  plane waves:    3082
 k-point   712 :   0.2857 0.2667-0.4667  plane waves:    3082
 k-point   713 :   0.3571 0.4667 0.2667  plane waves:    3070
 k-point   714 :   0.3571-0.2667 0.4667  plane waves:    3070
 k-point   715 :   0.3571-0.4667-0.2667  plane waves:    3070
 k-point   716 :   0.3571 0.2667-0.4667  plane waves:    3070
 k-point   717 :   0.4286 0.4667 0.2667  plane waves:    3078
 k-point   718 :   0.4286-0.2667 0.4667  plane waves:    3078
 k-point   719 :   0.4286-0.4667-0.2667  plane waves:    3078
 k-point   720 :   0.4286 0.2667-0.4667  plane waves:    3078
 k-point   721 :   0.5000 0.4667 0.2667  plane waves:    3074
 k-point   722 :   0.5000-0.2667 0.4667  plane waves:    3074
 k-point   723 :   0.0000 0.3333 0.3333  plane waves:    3088
 k-point   724 :   0.0714 0.3333 0.3333  plane waves:    3084
 k-point   725 :   0.0714-0.3333-0.3333  plane waves:    3084
 k-point   726 :   0.1429 0.3333 0.3333  plane waves:    3089
 k-point   727 :   0.1429-0.3333-0.3333  plane waves:    3089
 k-point   728 :   0.2143 0.3333 0.3333  plane waves:    3077
 k-point   729 :   0.2143-0.3333-0.3333  plane waves:    3077
 k-point   730 :   0.2857 0.3333 0.3333  plane waves:    3078
 k-point   731 :   0.2857-0.3333-0.3333  plane waves:    3078
 k-point   732 :   0.3571 0.3333 0.3333  plane waves:    3074
 k-point   733 :   0.3571-0.3333-0.3333  plane waves:    3074
 k-point   734 :   0.4286 0.3333 0.3333  plane waves:    3084
 k-point   735 :   0.4286-0.3333-0.3333  plane waves:    3084
 k-point   736 :   0.5000 0.3333 0.3333  plane waves:    3082
 k-point   737 :   0.0000 0.4000 0.3333  plane waves:    3080
 k-point   738 :   0.0000-0.3333 0.4000  plane waves:    3080
 k-point   739 :   0.0714 0.4000 0.3333  plane waves:    3090
 k-point   740 :   0.0714-0.3333 0.4000  plane waves:    3090
 k-point   741 :   0.0714-0.4000-0.3333  plane waves:    3090
 k-point   742 :   0.0714 0.3333-0.4000  plane waves:    3090
 k-point   743 :   0.1429 0.4000 0.3333  plane waves:    3085
 k-point   744 :   0.1429-0.3333 0.4000  plane waves:    3085
 k-point   745 :   0.1429-0.4000-0.3333  plane waves:    3085
 k-point   746 :   0.1429 0.3333-0.4000  plane waves:    3085
 k-point   747 :   0.2143 0.4000 0.3333  plane waves:    3086
 k-point   748 :   0.2143-0.3333 0.4000  plane waves:    3086
 k-point   749 :   0.2143-0.4000-0.3333  plane waves:    3086
 k-point   750 :   0.2143 0.3333-0.4000  plane waves:    3086
 k-point   751 :   0.2857 0.4000 0.3333  plane waves:    3086
 k-point   752 :   0.2857-0.3333 0.4000  plane waves:    3086
 k-point   753 :   0.2857-0.4000-0.3333  plane waves:    3086
 k-point   754 :   0.2857 0.3333-0.4000  plane waves:    3086
 k-point   755 :   0.3571 0.4000 0.3333  plane waves:    3080
 k-point   756 :   0.3571-0.3333 0.4000  plane waves:    3080
 k-point   757 :   0.3571-0.4000-0.3333  plane waves:    3080
 k-point   758 :   0.3571 0.3333-0.4000  plane waves:    3080
 k-point   759 :   0.4286 0.4000 0.3333  plane waves:    3080
 k-point   760 :   0.4286-0.3333 0.4000  plane waves:    3080
 k-point   761 :   0.4286-0.4000-0.3333  plane waves:    3080
 k-point   762 :   0.4286 0.3333-0.4000  plane waves:    3080
 k-point   763 :   0.5000 0.4000 0.3333  plane waves:    3076
 k-point   764 :   0.5000-0.3333 0.4000  plane waves:    3076
 k-point   765 :   0.0000 0.4667 0.3333  plane waves:    3087
 k-point   766 :   0.0000-0.3333 0.4667  plane waves:    3087
 k-point   767 :   0.0714 0.4667 0.3333  plane waves:    3093
 k-point   768 :   0.0714-0.3333 0.4667  plane waves:    3093
 k-point   769 :   0.0714-0.4667-0.3333  plane waves:    3093
 k-point   770 :   0.0714 0.3333-0.4667  plane waves:    3093
 k-point   771 :   0.1429 0.4667 0.3333  plane waves:    3098
 k-point   772 :   0.1429-0.3333 0.4667  plane waves:    3098
 k-point   773 :   0.1429-0.4667-0.3333  plane waves:    3098
 k-point   774 :   0.1429 0.3333-0.4667  plane waves:    3098
 k-point   775 :   0.2143 0.4667 0.3333  plane waves:    3083
 k-point   776 :   0.2143-0.3333 0.4667  plane waves:    3083
 k-point   777 :   0.2143-0.4667-0.3333  plane waves:    3083
 k-point   778 :   0.2143 0.3333-0.4667  plane waves:    3083
 k-point   779 :   0.2857 0.4667 0.3333  plane waves:    3081
 k-point   780 :   0.2857-0.3333 0.4667  plane waves:    3081
 k-point   781 :   0.2857-0.4667-0.3333  plane waves:    3081
 k-point   782 :   0.2857 0.3333-0.4667  plane waves:    3081
 k-point   783 :   0.3571 0.4667 0.3333  plane waves:    3077
 k-point   784 :   0.3571-0.3333 0.4667  plane waves:    3077
 k-point   785 :   0.3571-0.4667-0.3333  plane waves:    3077
 k-point   786 :   0.3571 0.3333-0.4667  plane waves:    3077
 k-point   787 :   0.4286 0.4667 0.3333  plane waves:    3072
 k-point   788 :   0.4286-0.3333 0.4667  plane waves:    3072
 k-point   789 :   0.4286-0.4667-0.3333  plane waves:    3072
 k-point   790 :   0.4286 0.3333-0.4667  plane waves:    3072
 k-point   791 :   0.5000 0.4667 0.3333  plane waves:    3068
 k-point   792 :   0.5000-0.3333 0.4667  plane waves:    3068
 k-point   793 :   0.0000 0.4000 0.4000  plane waves:    3090
 k-point   794 :   0.0714 0.4000 0.4000  plane waves:    3105
 k-point   795 :   0.0714-0.4000-0.4000  plane waves:    3105
 k-point   796 :   0.1429 0.4000 0.4000  plane waves:    3096
 k-point   797 :   0.1429-0.4000-0.4000  plane waves:    3096
 k-point   798 :   0.2143 0.4000 0.4000  plane waves:    3086
 k-point   799 :   0.2143-0.4000-0.4000  plane waves:    3086
 k-point   800 :   0.2857 0.4000 0.4000  plane waves:    3076
 k-point   801 :   0.2857-0.4000-0.4000  plane waves:    3076
 k-point   802 :   0.3571 0.4000 0.4000  plane waves:    3073
 k-point   803 :   0.3571-0.4000-0.4000  plane waves:    3073
 k-point   804 :   0.4286 0.4000 0.4000  plane waves:    3081
 k-point   805 :   0.4286-0.4000-0.4000  plane waves:    3081
 k-point   806 :   0.5000 0.4000 0.4000  plane waves:    3070
 k-point   807 :   0.0000 0.4667 0.4000  plane waves:    3109
 k-point   808 :   0.0000-0.4000 0.4667  plane waves:    3109
 k-point   809 :   0.0714 0.4667 0.4000  plane waves:    3104
 k-point   810 :   0.0714-0.4000 0.4667  plane waves:    3104
 k-point   811 :   0.0714-0.4667-0.4000  plane waves:    3104
 k-point   812 :   0.0714 0.4000-0.4667  plane waves:    3104
 k-point   813 :   0.1429 0.4667 0.4000  plane waves:    3100
 k-point   814 :   0.1429-0.4000 0.4667  plane waves:    3100
 k-point   815 :   0.1429-0.4667-0.4000  plane waves:    3100
 k-point   816 :   0.1429 0.4000-0.4667  plane waves:    3100
 k-point   817 :   0.2143 0.4667 0.4000  plane waves:    3086
 k-point   818 :   0.2143-0.4000 0.4667  plane waves:    3086
 k-point   819 :   0.2143-0.4667-0.4000  plane waves:    3086
 k-point   820 :   0.2143 0.4000-0.4667  plane waves:    3086
 k-point   821 :   0.2857 0.4667 0.4000  plane waves:    3080
 k-point   822 :   0.2857-0.4000 0.4667  plane waves:    3080
 k-point   823 :   0.2857-0.4667-0.4000  plane waves:    3080
 k-point   824 :   0.2857 0.4000-0.4667  plane waves:    3080
 k-point   825 :   0.3571 0.4667 0.4000  plane waves:    3082
 k-point   826 :   0.3571-0.4000 0.4667  plane waves:    3082
 k-point   827 :   0.3571-0.4667-0.4000  plane waves:    3082
 k-point   828 :   0.3571 0.4000-0.4667  plane waves:    3082
 k-point   829 :   0.4286 0.4667 0.4000  plane waves:    3075
 k-point   830 :   0.4286-0.4000 0.4667  plane waves:    3075
 k-point   831 :   0.4286-0.4667-0.4000  plane waves:    3075
 k-point   832 :   0.4286 0.4000-0.4667  plane waves:    3075
 k-point   833 :   0.5000 0.4667 0.4000  plane waves:    3080
 k-point   834 :   0.5000-0.4000 0.4667  plane waves:    3080
 k-point   835 :   0.0000 0.4667 0.4667  plane waves:    3108
 k-point   836 :   0.0714 0.4667 0.4667  plane waves:    3102
 k-point   837 :   0.0714-0.4667-0.4667  plane waves:    3102
 k-point   838 :   0.1429 0.4667 0.4667  plane waves:    3100
 k-point   839 :   0.1429-0.4667-0.4667  plane waves:    3100
 k-point   840 :   0.2143 0.4667 0.4667  plane waves:    3090
 k-point   841 :   0.2143-0.4667-0.4667  plane waves:    3090
 k-point   842 :   0.2857 0.4667 0.4667  plane waves:    3084
 k-point   843 :   0.2857-0.4667-0.4667  plane waves:    3084
 k-point   844 :   0.3571 0.4667 0.4667  plane waves:    3072
 k-point   845 :   0.3571-0.4667-0.4667  plane waves:    3072
 k-point   846 :   0.4286 0.4667 0.4667  plane waves:    3072
 k-point   847 :   0.4286-0.4667-0.4667  plane waves:    3072
 k-point   848 :   0.5000 0.4667 0.4667  plane waves:    3080

 maximum and minimum number of plane-waves per node :      3109     3053

 maximum number of plane-waves:      3109
 maximum index in each direction: 
   IXMAX=    9   IYMAX=    9   IZMAX=    9
   IXMIN=   -9   IYMIN=   -9   IZMIN=   -9


 serial   3D FFT for wavefunctions
 parallel 3D FFT for charge:
    minimum data exchange during FFTs selected (reduces bandwidth)


 total amount of memory used by VASP MPI-rank0   492040. kBytes
=======================================================================

   base                                    :      30000. kBytes
   nonlr-proj                              :        619. kBytes
   fftplans                                :      14504. kBytes
   grid                                    :      22371. kBytes
   one-center                              :          4. kBytes
   wavefun                                 :     424542. kBytes
 
     INWAV:  cpu time      0.0000: real time      0.0000
 Broyden mixing: mesh for mixing (old mesh)
   NGX = 19   NGY = 17   NGZ = 17
  (NGX  = 80   NGY  = 72   NGZ  = 72)
  gives a total of   5491 points

 initial charge density was supplied:
 charge density of overlapping atoms calculated
 number of electron      12.0000000 magnetization 
 keeping initial charge density in first step


--------------------------------------------------------------------------------------------------------


 Maximum index for non-local projection operator          2520
 Maximum index for augmentation-charges          6708 (set IRDMAX)


--------------------------------------------------------------------------------------------------------


 First call to EWALD:  gamma=   0.392
 Maximum number of real-space cells   3x   3x   3
 Maximum number of reciprocal cells   3x   3x   3

    FEWALD:  cpu time      0.0015: real time      0.0015


--------------------------------------- Ionic step        1  -------------------------------------------




--------------------------------------- Iteration      1(   1)  ---------------------------------------


    POTLOK:  cpu time      0.0229: real time      0.0236
    SETDIJ:  cpu time      0.0028: real time      0.0028
     EDDAV:  cpu time      8.5445: real time      8.5710
       DOS:  cpu time      0.0028: real time      0.0028
    --------------------------------------------
      LOOP:  cpu time      8.5730: real time      8.6002

 eigenvalue-minimisations  : 16960
 total energy-change (2. order) : 0.3290187E+02  (-0.6682800E+03)
 number of electron      12.0000000 magnetization 
 augmentation part       12.0000000 magnetization 

 Free energy of the ion-electron system (eV)
  ---------------------------------------------------
  alpha Z        PSCENC =         3.99774373
  Ewald energy   TEWEN  =      -253.96157074
  -Hartree energ DENC   =      -178.07772962
  -exchange      EXHF   =         0.00000000
  -V(xc)+E(xc)   XCENC  =        48.19132536
  PAW double counting   =       319.04650337     -380.66826624
  entropy T*S    EENTRO =        -0.00021471
  eigenvalues    EBANDS =      -336.72893842
  atomic energy  EATOM  =       811.10301397
  Solvation  Ediel_sol  =         0.00000000
  ---------------------------------------------------
  free energy    TOTEN  =        32.90186670 eV

  energy without entropy =       32.90208141  energy(sigma->0) =       32.90197406


--------------------------------------------------------------------------------------------------------




--------------------------------------- Iteration      1(   2)  ---------------------------------------


     EDDAV:  cpu time      8.7836: real time      8.8123
       DOS:  cpu time      0.0029: real time      0.0029
    --------------------------------------------
      LOOP:  cpu time      8.7865: real time      8.8151

 eigenvalue-minimisations  : 17698
 total energy-change (2. order) :-0.2729796E+02  (-0.2681609E+02)
 number of electron      12.0000000 magnetization 
 augmentation part       12.0000000 magnetization 

 Free energy of the ion-electron system (eV)
  ---------------------------------------------------
  alpha Z        PSCENC =         3.99774373
  Ewald energy   TEWEN  =      -253.96157074
  -Hartree energ DENC   =      -178.07772962
  -exchange      EXHF   =         0.00000000
  -V(xc)+E(xc)   XCENC  =        48.19132536
  PAW double counting   =       319.04650337     -380.66826624
  entropy T*S    EENTRO =        -0.00023782
  eigenvalues    EBANDS =      -364.02687319
  atomic energy  EATOM  =       811.10301397
  Solvation  Ediel_sol  =         0.00000000
  ---------------------------------------------------
  free energy    TOTEN  =         5.60390883 eV

  energy without entropy =        5.60414665  energy(sigma->0) =        5.60402774


--------------------------------------------------------------------------------------------------------




--------------------------------------- Iteration      1(   3)  ---------------------------------------


     EDDAV:  cpu time     14.1285: real time     14.1728
       DOS:  cpu time      0.0028: real time      0.0028
    --------------------------------------------
      LOOP:  cpu time     14.1313: real time     14.1756

 eigenvalue-minimisations  : 33282
 total energy-change (2. order) :-0.1154306E+02  (-0.1142551E+02)
 number of electron      12.0000000 magnetization 
 augmentation part       12.0000000 magnetization 

 Free energy of the ion-electron system (eV)
  ---------------------------------------------------
  alpha Z        PSCENC =         3.99774373
  Ewald energy   TEWEN  =      -253.96157074
  -Hartree energ DENC   =      -178.07772962
  -exchange      EXHF   =         0.00000000
  -V(xc)+E(xc)   XCENC  =        48.19132536
  PAW double counting   =       319.04650337     -380.66826624
  entropy T*S    EENTRO =        -0.00025248
  eigenvalues    EBANDS =      -375.56991733
  atomic energy  EATOM  =       811.10301397
  Solvation  Ediel_sol  =         0.00000000
  ---------------------------------------------------
  free energy    TOTEN  =        -5.93914997 eV

  energy without entropy =       -5.93889749  energy(sigma->0) =       -5.93902373


--------------------------------------------------------------------------------------------------------




--------------------------------------- Iteration      1(   4)  ---------------------------------------


     EDDAV:  cpu time      9.6235: real time      9.6538
       DOS:  cpu time      0.0028: real time      0.0028
    --------------------------------------------
      LOOP:  cpu time      9.6264: real time      9.6567

 eigenvalue-minimisations  : 19586
 total energy-change (2. order) :-0.5722338E+00  (-0.5714296E+00)
 number of electron      12.0000000 magnetization 
 augmentation part       12.0000000 magnetization 

 Free energy of the ion-electron system (eV)
  ---------------------------------------------------
  alpha Z        PSCENC =         3.99774373
  Ewald energy   TEWEN  =      -253.96157074
  -Hartree energ DENC   =      -178.07772962
  -exchange      EXHF   =         0.00000000
  -V(xc)+E(xc)   XCENC  =        48.19132536
  PAW double counting   =       319.04650337     -380.66826624
  entropy T*S    EENTRO =        -0.00019374
  eigenvalues    EBANDS =      -376.14220990
  atomic energy  EATOM  =       811.10301397
  Solvation  Ediel_sol  =         0.00000000
  ---------------------------------------------------
  free energy    TOTEN  =        -6.51138380 eV

  energy without entropy =       -6.51119007  energy(sigma->0) =       -6.51128694


--------------------------------------------------------------------------------------------------------




--------------------------------------- Iteration      1(   5)  ---------------------------------------


     EDDAV:  cpu time     12.7071: real time     12.7471
       DOS:  cpu time      0.0028: real time      0.0028
    CHARGE:  cpu time      0.8130: real time      0.8147
    MIXING:  cpu time      0.0047: real time      0.0047
    --------------------------------------------
      LOOP:  cpu time     13.5277: real time     13.5693

 eigenvalue-minimisations  : 29116
 total energy-change (2. order) :-0.6261983E-01  (-0.6260420E-01)
 number of electron      12.0000007 magnetization 
 augmentation part        3.7283555 magnetization 

 Broyden mixing:
  rms(total) = 0.59047E-01    rms(broyden)= 0.58942E-01
  rms(prec ) = 0.13485E+00
  weight for this iteration     100.00

 Free energy of the ion-electron system (eV)
  ---------------------------------------------------
  alpha Z        PSCENC =         3.99774373
  Ewald energy   TEWEN  =      -253.96157074
  -Hartree energ DENC   =      -178.07772962
  -exchange      EXHF   =         0.00000000
  -V(xc)+E(xc)   XCENC  =        48.19132536
  PAW double counting   =       319.04650337     -380.66826624
  entropy T*S    EENTRO =        -0.00019475
  eigenvalues    EBANDS =      -376.20482872
  atomic energy  EATOM  =       811.10301397
  Solvation  Ediel_sol  =         0.00000000
  ---------------------------------------------------
  free energy    TOTEN  =        -6.57400364 eV

  energy without entropy =       -6.57380889  energy(sigma->0) =       -6.57390626


--------------------------------------------------------------------------------------------------------




--------------------------------------- Iteration      1(   6)  ---------------------------------------


    POTLOK:  cpu time      0.0059: real time      0.0059
    SETDIJ:  cpu time      0.0026: real time      0.0026
     EDDAV:  cpu time     10.8302: real time     10.8640
       DOS:  cpu time      0.0029: real time      0.0029
    CHARGE:  cpu time      0.8115: real time      0.8131
    MIXING:  cpu time      0.0049: real time      0.0049
    --------------------------------------------
      LOOP:  cpu time     11.6579: real time     11.6935

 eigenvalue-minimisations  : 23478
 total energy-change (2. order) : 0.8517805E-02  (-0.1335686E-02)
 number of electron      12.0000007 magnetization 
 augmentation part        3.7206486 magnetization 

 Broyden mixing:
  rms(total) = 0.33725E-01    rms(broyden)= 0.33721E-01
  rms(prec ) = 0.80699E-01
  weight for this iteration     100.00

 eigenvalues of (default mixing * dielectric matrix)
  average eigenvalue GAMMA=   2.2502
  2.2502

 Free energy of the ion-electron system (eV)
  ---------------------------------------------------
  alpha Z        PSCENC =         3.99774373
  Ewald energy   TEWEN  =      -253.96157074
  -Hartree energ DENC   =      -176.87197002
  -exchange      EXHF   =         0.00000000
  -V(xc)+E(xc)   XCENC  =        48.09943029
  PAW double counting   =       319.06575184     -380.81457481
  entropy T*S    EENTRO =        -0.00021416
  eigenvalues    EBANDS =      -377.18309592
  atomic energy  EATOM  =       811.10301397
  Solvation  Ediel_sol  =         0.00000000
  ---------------------------------------------------
  free energy    TOTEN  =        -6.56548583 eV

  energy without entropy =       -6.56527167  energy(sigma->0) =       -6.56537875


--------------------------------------------------------------------------------------------------------




--------------------------------------- Iteration      1(   7)  ---------------------------------------


    POTLOK:  cpu time      0.0059: real time      0.0065
    SETDIJ:  cpu time      0.0025: real time      0.0025
     EDDAV:  cpu time     11.7731: real time     11.8090
       DOS:  cpu time      0.0028: real time      0.0028
    CHARGE:  cpu time      0.8146: real time      0.8163
    MIXING:  cpu time      0.0050: real time      0.0050
    --------------------------------------------
      LOOP:  cpu time     12.6039: real time     12.6421

 eigenvalue-minimisations  : 26556
 total energy-change (2. order) : 0.4704897E-02  (-0.1166574E-02)
 number of electron      12.0000007 magnetization 
 augmentation part        3.7030445 magnetization 

 Broyden mixing:
  rms(total) = 0.82049E-02    rms(broyden)= 0.81197E-02
  rms(prec ) = 0.14709E-01
  weight for this iteration     100.00

 eigenvalues of (default mixing * dielectric matrix)
  average eigenvalue GAMMA=   2.4409
  2.4409  2.4409

 Free energy of the ion-electron system (eV)
  ---------------------------------------------------
  alpha Z        PSCENC =         3.99774373
  Ewald energy   TEWEN  =      -253.96157074
  -Hartree energ DENC   =      -175.10391200
  -exchange      EXHF   =         0.00000000
  -V(xc)+E(xc)   XCENC  =        47.97244360
  PAW double counting   =       319.58915688     -381.53040275
  entropy T*S    EENTRO =        -0.00025009
  eigenvalues    EBANDS =      -378.62700353
  atomic energy  EATOM  =       811.10301397
  Solvation  Ediel_sol  =         0.00000000
  ---------------------------------------------------
  free energy    TOTEN  =        -6.56078094 eV

  energy without entropy =       -6.56053085  energy(sigma->0) =       -6.56065589


--------------------------------------------------------------------------------------------------------




--------------------------------------- Iteration      1(   8)  ---------------------------------------


    POTLOK:  cpu time      0.0059: real time      0.0059
    SETDIJ:  cpu time      0.0025: real time      0.0025
     EDDAV:  cpu time     10.2821: real time     10.3144
       DOS:  cpu time      0.0026: real time      0.0026
    CHARGE:  cpu time      0.8113: real time      0.8129
    MIXING:  cpu time      0.0049: real time      0.0049
    --------------------------------------------
      LOOP:  cpu time     11.1094: real time     11.1433

 eigenvalue-minimisations  : 21846
 total energy-change (2. order) :-0.6833245E-04  (-0.1372129E-03)
 number of electron      12.0000007 magnetization 
 augmentation part        3.7009172 magnetization 

 Broyden mixing:
  rms(total) = 0.22575E-02    rms(broyden)= 0.22106E-02
  rms(prec ) = 0.54779E-02
  weight for this iteration     100.00

 eigenvalues of (default mixing * dielectric matrix)
  average eigenvalue GAMMA=   2.1123
  1.2030  2.8215  2.3122

 Free energy of the ion-electron system (eV)
  ---------------------------------------------------
  alpha Z        PSCENC =         3.99774373
  Ewald energy   TEWEN  =      -253.96157074
  -Hartree energ DENC   =      -175.13922835
  -exchange      EXHF   =         0.00000000
  -V(xc)+E(xc)   XCENC  =        47.98708041
  PAW double counting   =       320.93507253     -382.87676688
  entropy T*S    EENTRO =        -0.00025430
  eigenvalues    EBANDS =      -378.60593964
  atomic energy  EATOM  =       811.10301397
  Solvation  Ediel_sol  =         0.00000000
  ---------------------------------------------------
  free energy    TOTEN  =        -6.56084927 eV

  energy without entropy =       -6.56059497  energy(sigma->0) =       -6.56072212


--------------------------------------------------------------------------------------------------------




--------------------------------------- Iteration      1(   9)  ---------------------------------------


    POTLOK:  cpu time      0.0053: real time      0.0054
    SETDIJ:  cpu time      0.0025: real time      0.0025
     EDDAV:  cpu time     12.5086: real time     12.5474
       DOS:  cpu time      0.0028: real time      0.0028
    CHARGE:  cpu time      0.8106: real time      0.8122
    MIXING:  cpu time      0.0050: real time      0.0050
    --------------------------------------------
      LOOP:  cpu time     13.3348: real time     13.3753

 eigenvalue-minimisations  : 28696
 total energy-change (2. order) :-0.1898604E-05  (-0.1290905E-04)
 number of electron      12.0000007 magnetization 
 augmentation part        3.7000160 magnetization 

 Broyden mixing:
  rms(total) = 0.16910E-02    rms(broyden)= 0.16813E-02
  rms(prec ) = 0.24183E-02
  weight for this iteration     100.00

 eigenvalues of (default mixing * dielectric matrix)
  average eigenvalue GAMMA=   1.9826
  1.0261  2.5553  2.5553  1.7936

 Free energy of the ion-electron system (eV)
  ---------------------------------------------------
  alpha Z        PSCENC =         3.99774373
  Ewald energy   TEWEN  =      -253.96157074
  -Hartree energ DENC   =      -175.02684978
  -exchange      EXHF   =         0.00000000
  -V(xc)+E(xc)   XCENC  =        47.98205139
  PAW double counting   =       321.31643376     -383.26865749
  entropy T*S    EENTRO =        -0.00025784
  eigenvalues    EBANDS =      -378.70275816
  atomic energy  EATOM  =       811.10301397
  Solvation  Ediel_sol  =         0.00000000
  ---------------------------------------------------
  free energy    TOTEN  =        -6.56085117 eV

  energy without entropy =       -6.56059333  energy(sigma->0) =       -6.56072225


--------------------------------------------------------------------------------------------------------




--------------------------------------- Iteration      1(  10)  ---------------------------------------


    POTLOK:  cpu time      0.0059: real time      0.0059
    SETDIJ:  cpu time      0.0025: real time      0.0025
     EDDAV:  cpu time     10.3759: real time     10.4081
       DOS:  cpu time      0.0029: real time      0.0029
    CHARGE:  cpu time      0.8095: real time      0.8112
    MIXING:  cpu time      0.0050: real time      0.0050
    --------------------------------------------
      LOOP:  cpu time     11.2016: real time     11.2355

 eigenvalue-minimisations  : 22176
 total energy-change (2. order) : 0.7086689E-05  (-0.5786440E-06)
 number of electron      12.0000007 magnetization 
 augmentation part        3.7000928 magnetization 

 Broyden mixing:
  rms(total) = 0.27638E-03    rms(broyden)= 0.27431E-03
  rms(prec ) = 0.38324E-03
  weight for this iteration     100.00

 eigenvalues of (default mixing * dielectric matrix)
  average eigenvalue GAMMA=   1.9496
  2.7611  2.7611  1.9044  1.0047  1.3168

 Free energy of the ion-electron system (eV)
  ---------------------------------------------------
  alpha Z        PSCENC =         3.99774373
  Ewald energy   TEWEN  =      -253.96157074
  -Hartree energ DENC   =      -175.07467028
  -exchange      EXHF   =         0.00000000
  -V(xc)+E(xc)   XCENC  =        47.98661612
  PAW double counting   =       321.48101780     -383.42299252
  entropy T*S    EENTRO =        -0.00025709
  eigenvalues    EBANDS =      -378.66974507
  atomic energy  EATOM  =       811.10301397
  Solvation  Ediel_sol  =         0.00000000
  ---------------------------------------------------
  free energy    TOTEN  =        -6.56084408 eV

  energy without entropy =       -6.56058699  energy(sigma->0) =       -6.56071554


--------------------------------------------------------------------------------------------------------




--------------------------------------- Iteration      1(  11)  ---------------------------------------


    POTLOK:  cpu time      0.0055: real time      0.0068
    SETDIJ:  cpu time      0.0025: real time      0.0025
     EDDAV:  cpu time      7.0824: real time      7.1044
       DOS:  cpu time      0.0029: real time      0.0029
    CHARGE:  cpu time      0.8113: real time      0.8130
    MIXING:  cpu time      0.0052: real time      0.0052
    --------------------------------------------
      LOOP:  cpu time      7.9096: real time      7.9346

 eigenvalue-minimisations  : 11340
 total energy-change (2. order) : 0.1052884E-05  (-0.5582375E-07)
 number of electron      12.0000007 magnetization 
 augmentation part        3.7001236 magnetization 

 Broyden mixing:
  rms(total) = 0.11495E-03    rms(broyden)= 0.11488E-03
  rms(prec ) = 0.15075E-03
  weight for this iteration     100.00

 eigenvalues of (default mixing * dielectric matrix)
  average eigenvalue GAMMA=   1.8889
  2.8592  2.3222  2.3222  1.8038  0.9465  1.0795

 Free energy of the ion-electron system (eV)
  ---------------------------------------------------
  alpha Z        PSCENC =         3.99774373
  Ewald energy   TEWEN  =      -253.96157074
  -Hartree energ DENC   =      -175.08263301
  -exchange      EXHF   =         0.00000000
  -V(xc)+E(xc)   XCENC  =        47.98750063
  PAW double counting   =       321.54610576     -383.48429940
  entropy T*S    EENTRO =        -0.00025702
  eigenvalues    EBANDS =      -378.66644695
  atomic energy  EATOM  =       811.10301397
  Solvation  Ediel_sol  =         0.00000000
  ---------------------------------------------------
  free energy    TOTEN  =        -6.56084303 eV

  energy without entropy =       -6.56058601  energy(sigma->0) =       -6.56071452


--------------------------------------------------------------------------------------------------------




--------------------------------------- Iteration      1(  12)  ---------------------------------------


    POTLOK:  cpu time      0.0060: real time      0.0060
    SETDIJ:  cpu time      0.0025: real time      0.0025
     EDDAV:  cpu time      6.1693: real time      6.1889
       DOS:  cpu time      0.0028: real time      0.0028
    --------------------------------------------
      LOOP:  cpu time      6.1806: real time      6.2002

 eigenvalue-minimisations  :  9500
 total energy-change (2. order) :-0.3017989E-06  (-0.1795634E-07)
 number of electron      12.0000007 magnetization 
 augmentation part        3.7001236 magnetization 

 Free energy of the ion-electron system (eV)
  ---------------------------------------------------
  alpha Z        PSCENC =         3.99774373
  Ewald energy   TEWEN  =      -253.96157074
  -Hartree energ DENC   =      -175.07941600
  -exchange      EXHF   =         0.00000000
  -V(xc)+E(xc)   XCENC  =        47.98711378
  PAW double counting   =       321.53388657     -383.47188374
  entropy T*S    EENTRO =        -0.00025706
  eigenvalues    EBANDS =      -378.66947385
  atomic energy  EATOM  =       811.10301397
  Solvation  Ediel_sol  =         0.00000000
  ---------------------------------------------------
  free energy    TOTEN  =        -6.56084333 eV

  energy without entropy =       -6.56058627  energy(sigma->0) =       -6.56071480


--------------------------------------------------------------------------------------------------------




 average (electrostatic) potential at core
  the test charge radii are     0.7079
  (the norm of the test charge is              1.0000)
       1 -65.9370       2 -65.9058       3 -65.9370       4 -65.9058
 
 
 
 E-fermi :   0.4286     XC(G=0):  -6.7294     alpha+bet : -6.4942

 val. band max:        0.4269794707   @ k =   0.3571  -0.0667   0.3333
 cond. band min:       0.4308487662   @ k =   0.4286  -0.0667   0.4667
 fundamental gap:      0.0038692956
 Fermi energy:         0.4286420993

 k-point     1 :       0.0000    0.0000    0.0000
  band No.  band energies     occupation 
      1     -46.8516      2.00000
      2     -46.8285      2.00000
      3     -46.8046      2.00000
      4     -46.7922      2.00000
      5      -3.0694      2.00000
      6       2.1161      0.00000
      7       2.3031      0.00000
      8       2.7018      0.00000
      9       2.7978      0.00000
     10       2.8109      0.00000

 k-point     2 :       0.0714    0.0000    0.0000
  band No.  band energies     occupation 
      1     -46.8513      2.00000
      2     -46.8287      2.00000
      3     -46.8046      2.00000
      4     -46.7921      2.00000
      5      -3.0423      2.00000
      6       1.5275      0.00000
      7       2.5660      0.00000
      8       2.7195      0.00000
      9       2.8350      0.00000
     10       2.9040      0.00000

 k-point     3 :       0.1429    0.0000    0.0000
  band No.  band energies     occupation 
      1     -46.8505      2.00000
      2     -46.8294      2.00000
      3     -46.8049      2.00000
      4     -46.7920      2.00000
      5      -2.9616      2.00000
      6       0.8590      0.00000
      7       2.6090      0.00000
      8       2.7468      0.00000
      9       2.9365      0.00000
     10       2.9959      0.00000

 k-point     4 :       0.2143    0.0000    0.0000
  band No.  band energies     occupation 
      1     -46.8493      2.00000
      2     -46.8305      2.00000
      3     -46.8051      2.00000
      4     -46.7918      2.00000
      5      -2.8268      2.00000
      6       0.2323      2.00000
      7       2.6406      0.00000
      8       2.7847      0.00000
      9       3.0861      0.00000
     10       3.1428      0.00000

 k-point     5 :       0.2857    0.0000    0.0000
  band No.  band energies     occupation 
      1     -46.8478      2.00000
      2     -46.8320      2.00000
      3     -46.8054      2.00000
      4     -46.7916      2.00000
      5      -2.6377      2.00000
      6      -0.3432      2.00000
      7       2.6805      0.00000
      8       2.8284      0.00000
      9       3.2749      0.00000
     10       3.3369      0.00000

 k-point     6 :       0.3571    0.0000    0.0000
  band No.  band energies     occupation 
      1     -46.8461      2.00000
      2     -46.8337      2.00000
      3     -46.8056      2.00000
      4     -46.7914      2.00000
      5      -2.3940      2.00000
      6      -0.8644      2.00000
      7       2.7218      0.00000
      8       2.8696      0.00000
      9       3.4863      0.00000
     10       3.5596      0.00000

 k-point     7 :       0.4286    0.0000    0.0000
  band No.  band energies     occupation 
      1     -46.8446      2.00000
      2     -46.8352      2.00000
      3     -46.8058      2.00000
      4     -46.7913      2.00000
      5      -2.0954      2.00000
      6      -1.3299      2.00000
      7       2.7533      0.00000
      8       2.8995      0.00000
      9       3.6818      0.00000
     10       3.7635      0.00000

 k-point     8 :       0.5000    0.0000    0.0000
  band No.  band energies     occupation 
      1     -46.8438      2.00000
      2     -46.8359      2.00000
      3     -46.8058      2.00000
      4     -46.7913      2.00000
      5      -1.7613      2.00000
      6      -1.7197      2.00000
      7       2.7651      0.00000
      8       2.9104      0.00000
      9       3.7725      0.00000
     10       3.8528      0.00000

 k-point     9 :       0.0000    0.0667    0.0000
  band No.  band energies     occupation 
      1     -46.8513      2.00000
      2     -46.8288      2.00000
      3     -46.8045      2.00000
      4     -46.7923      2.00000
      5      -3.0435      2.00000
      6       2.0656      0.00000
      7       2.1343      0.00000
      8       2.3315      0.00000
      9       2.7667      0.00000
     10       2.8214      0.00000

 k-point    10 :       0.0000    0.0000    0.0667
  band No.  band energies     occupation 
      1     -46.8513      2.00000
      2     -46.8286      2.00000
      3     -46.8049      2.00000
      4     -46.7921      2.00000
      5      -3.0435      2.00000
      6       2.0453      0.00000
      7       2.1347      0.00000
      8       2.3254      0.00000
      9       2.7821      0.00000
     10       2.8709      0.00000

 k-point    11 :       0.0714    0.0667    0.0000
  band No.  band energies     occupation 
      1     -46.8510      2.00000
      2     -46.8290      2.00000
      3     -46.8045      2.00000
      4     -46.7923      2.00000
      5      -3.0165      2.00000
      6       1.5430      0.00000
      7       2.0919      0.00000
      8       2.6554      0.00000
      9       2.7799      0.00000
     10       3.0928      0.00000

 k-point    12 :       0.0714    0.0000    0.0667
  band No.  band energies     occupation 
      1     -46.8509      2.00000
      2     -46.8290      2.00000
      3     -46.8046      2.00000
      4     -46.7922      2.00000
      5      -3.0166      2.00000
      6       1.5552      0.00000
      7       2.0709      0.00000
      8       2.6074      0.00000
      9       2.8656      0.00000
     10       3.0778      0.00000

 k-point    13 :       0.0714    0.0000   -0.0667
  band No.  band energies     occupation 
      1     -46.8511      2.00000
      2     -46.8285      2.00000
      3     -46.8052      2.00000
      4     -46.7919      2.00000
      5      -3.0165      2.00000
      6       1.5335      0.00000
      7       2.0633      0.00000
      8       2.6990      0.00000
      9       2.8098      0.00000
     10       3.1163      0.00000

 k-point    14 :       0.1429    0.0667    0.0000
  band No.  band energies     occupation 
      1     -46.8503      2.00000
      2     -46.8296      2.00000
      3     -46.8047      2.00000
      4     -46.7921      2.00000
      5      -2.9358      2.00000
      6       0.8782      0.00000
      7       2.1528      0.00000
      8       2.7347      0.00000
      9       2.8362      0.00000
     10       3.4777      0.00000

 k-point    15 :       0.1429    0.0000    0.0667
  band No.  band energies     occupation 
      1     -46.8501      2.00000
      2     -46.8299      2.00000
      3     -46.8046      2.00000
      4     -46.7921      2.00000
      5      -2.9359      2.00000
      6       0.8853      0.00000
      7       2.1360      0.00000
      8       2.6824      0.00000
      9       2.9330      0.00000
     10       3.4213      0.00000

 k-point    16 :       0.1429    0.0000   -0.0667
  band No.  band energies     occupation 
      1     -46.8505      2.00000
      2     -46.8290      2.00000
      3     -46.8056      2.00000
      4     -46.7917      2.00000
      5      -2.9357      2.00000
      6       0.8726      0.00000
      7       2.1190      0.00000
      8       2.7975      0.00000
      9       2.8522      0.00000
     10       3.4805      0.00000

 k-point    17 :       0.2143    0.0667    0.0000
  band No.  band energies     occupation 
      1     -46.8491      2.00000
      2     -46.8307      2.00000
      3     -46.8050      2.00000
      4     -46.7919      2.00000
      5      -2.8010      2.00000
      6       0.2538      2.00000
      7       2.2480      0.00000
      8       2.7863      0.00000
      9       2.9377      0.00000
     10       3.6273      0.00000

 k-point    18 :       0.2143    0.0000    0.0667
  band No.  band energies     occupation 
      1     -46.8489      2.00000
      2     -46.8311      2.00000
      3     -46.8048      2.00000
      4     -46.7920      2.00000
      5      -2.8012      2.00000
      6       0.2583      2.00000
      7       2.2373      0.00000
      8       2.7266      0.00000
      9       3.0408      0.00000
     10       3.5664      0.00000

 k-point    19 :       0.2143    0.0000   -0.0667
  band No.  band energies     occupation 
      1     -46.8494      2.00000
      2     -46.8299      2.00000
      3     -46.8059      2.00000
      4     -46.7915      2.00000
      5      -2.8009      2.00000
      6       0.2502      2.00000
      7       2.2078      0.00000
      8       2.8899      0.00000
      9       2.9157      0.00000
     10       3.6111      0.00000

 k-point    20 :       0.2857    0.0667    0.0000
  band No.  band energies     occupation 
      1     -46.8476      2.00000
      2     -46.8321      2.00000
      3     -46.8053      2.00000
      4     -46.7918      2.00000
      5      -2.6121      2.00000
      6      -0.3202      2.00000
      7       2.3670      0.00000
      8       2.8270      0.00000
      9       3.0838      0.00000
     10       3.7453      0.00000

 k-point    21 :       0.2857    0.0000    0.0667
  band No.  band energies     occupation 
      1     -46.8473      2.00000
      2     -46.8326      2.00000
      3     -46.8051      2.00000
      4     -46.7918      2.00000
      5      -2.6123      2.00000
      6      -0.3172      2.00000
      7       2.3669      0.00000
      8       2.7575      0.00000
      9       3.1912      0.00000
     10       3.6840      0.00000

 k-point    22 :       0.2857    0.0000   -0.0667
  band No.  band energies     occupation 
      1     -46.8479      2.00000
      2     -46.8313      2.00000
      3     -46.8062      2.00000
      4     -46.7914      2.00000
      5      -2.6118      2.00000
      6      -0.3226      2.00000
      7       2.3204      0.00000
      8       2.9215      0.00000
      9       3.0689      0.00000
     10       3.7318      0.00000

 k-point    23 :       0.3571    0.0667    0.0000
  band No.  band energies     occupation 
      1     -46.8459      2.00000
      2     -46.8337      2.00000
      3     -46.8055      2.00000
      4     -46.7916      2.00000
      5      -2.3684      2.00000
      6      -0.8404      2.00000
      7       2.4940      0.00000
      8       2.8461      0.00000
      9       3.2704      0.00000
     10       3.8323      0.00000

 k-point    24 :       0.3571    0.0000    0.0667
  band No.  band energies     occupation 
      1     -46.8456      2.00000
      2     -46.8342      2.00000
      3     -46.8054      2.00000
      4     -46.7916      2.00000
      5      -2.3688      2.00000
      6      -0.8383      2.00000
      7       2.5125      0.00000
      8       2.7630      0.00000
      9       3.3795      0.00000
     10       3.7757      0.00000

 k-point    25 :       0.3571    0.0000   -0.0667
  band No.  band energies     occupation 
      1     -46.8463      2.00000
      2     -46.8329      2.00000
      3     -46.8063      2.00000
      4     -46.7913      2.00000
      5      -2.3680      2.00000
      6      -0.8420      2.00000
      7       2.4438      0.00000
      8       2.9215      0.00000
      9       3.2606      0.00000
     10       3.8409      0.00000

 k-point    26 :       0.4286    0.0667    0.0000
  band No.  band energies     occupation 
      1     -46.8444      2.00000
      2     -46.8352      2.00000
      3     -46.8057      2.00000
      4     -46.7915      2.00000
      5      -2.0701      2.00000
      6      -1.3053      2.00000
      7       2.6068      0.00000
      8       2.8359      0.00000
      9       3.4836      0.00000
     10       3.8287      0.00000

 k-point    27 :       0.4286    0.0000    0.0667
  band No.  band energies     occupation 
      1     -46.8442      2.00000
      2     -46.8354      2.00000
      3     -46.8058      2.00000
      4     -46.7914      2.00000
      5      -2.0705      2.00000
      6      -1.3039      2.00000
      7       2.6582      0.00000
      8       2.7328      0.00000
      9       3.5881      0.00000
     10       3.7882      0.00000

 k-point    28 :       0.4286    0.0000   -0.0667
  band No.  band energies     occupation 
      1     -46.8447      2.00000
      2     -46.8346      2.00000
      3     -46.8062      2.00000
      4     -46.7913      2.00000
      5      -2.0694      2.00000
      6      -1.3063      2.00000
      7       2.5635      0.00000
      8       2.8768      0.00000
      9       3.4735      0.00000
     10       3.8789      0.00000

 k-point    29 :       0.5000    0.0667    0.0000
  band No.  band energies     occupation 
      1     -46.8437      2.00000
      2     -46.8359      2.00000
      3     -46.8057      2.00000
      4     -46.7915      2.00000
      5      -1.7366      2.00000
      6      -1.6943      2.00000
      7       2.6615      0.00000
      8       2.8182      0.00000
      9       3.6614      0.00000
     10       3.7257      0.00000

 k-point    30 :       0.5000    0.0000    0.0667
  band No.  band energies     occupation 
      1     -46.8438      2.00000
      2     -46.8356      2.00000
      3     -46.8060      2.00000
      4     -46.7913      2.00000
      5      -1.7365      2.00000
      6      -1.6942      2.00000
      7       2.6640      0.00000
      8       2.7856      0.00000
      9       3.6652      0.00000
     10       3.7888      0.00000

 k-point    31 :       0.0000    0.1333    0.0000
  band No.  band energies     occupation 
      1     -46.8505      2.00000
      2     -46.8295      2.00000
      3     -46.8040      2.00000
      4     -46.7927      2.00000
      5      -2.9659      2.00000
      6       1.3688      0.00000
      7       2.1865      0.00000
      8       2.3620      0.00000
      9       2.8434      0.00000
     10       2.8925      0.00000

 k-point    32 :       0.0000    0.0000    0.1333
  band No.  band energies     occupation 
      1     -46.8506      2.00000
      2     -46.8287      2.00000
      3     -46.8056      2.00000
      4     -46.7920      2.00000
      5      -2.9660      2.00000
      6       1.3528      0.00000
      7       2.1770      0.00000
      8       2.3694      0.00000
      9       2.8543      0.00000
     10       2.9414      0.00000

 k-point    33 :       0.0714    0.1333    0.0000
  band No.  band energies     occupation 
      1     -46.8503      2.00000
      2     -46.8297      2.00000
      3     -46.8041      2.00000
      4     -46.7927      2.00000
      5      -2.9390      2.00000
      6       1.3583      0.00000
      7       1.6547      0.00000
      8       2.6678      0.00000
      9       2.8465      0.00000
     10       3.1764      0.00000

 k-point    34 :       0.0714    0.0000    0.1333
  band No.  band energies     occupation 
      1     -46.8501      2.00000
      2     -46.8294      2.00000
      3     -46.8052      2.00000
      4     -46.7921      2.00000
      5      -2.9391      2.00000
      6       1.3552      0.00000
      7       1.6595      0.00000
      8       2.6104      0.00000
      9       2.9281      0.00000
     10       3.1653      0.00000

 k-point    35 :       0.0714    0.0000   -0.1333
  band No.  band energies     occupation 
      1     -46.8505      2.00000
      2     -46.8285      2.00000
      3     -46.8061      2.00000
      4     -46.7917      2.00000
      5      -2.9390      2.00000
      6       1.3441      0.00000
      7       1.6283      0.00000
      8       2.7405      0.00000
      9       2.8514      0.00000
     10       3.2080      0.00000

 k-point    36 :       0.1429    0.1333    0.0000
  band No.  band energies     occupation 
      1     -46.8496      2.00000
      2     -46.8303      2.00000
      3     -46.8043      2.00000
      4     -46.7925      2.00000
      5      -2.8583      2.00000
      6       0.9195      0.00000
      7       1.5138      0.00000
      8       2.7487      0.00000
      9       2.8978      0.00000
     10       3.6838      0.00000

 k-point    37 :       0.1429    0.0000    0.1333
  band No.  band energies     occupation 
      1     -46.8493      2.00000
      2     -46.8304      2.00000
      3     -46.8050      2.00000
      4     -46.7922      2.00000
      5      -2.8585      2.00000
      6       0.9357      0.00000
      7       1.4929      0.00000
      8       2.6908      0.00000
      9       2.9915      0.00000
     10       3.6284      0.00000

 k-point    38 :       0.1429    0.0000   -0.1333
  band No.  band energies     occupation 
      1     -46.8500      2.00000
      2     -46.8286      2.00000
      3     -46.8067      2.00000
      4     -46.7915      2.00000
      5      -2.8582      2.00000
      6       0.9119      0.00000
      7       1.4840      0.00000
      8       2.8396      0.00000
      9       2.8873      0.00000
     10       3.7324      0.00000

 k-point    39 :       0.2143    0.1333    0.0000
  band No.  band energies     occupation 
      1     -46.8485      2.00000
      2     -46.8312      2.00000
      3     -46.8046      2.00000
      4     -46.7924      2.00000
      5      -2.7238      2.00000
      6       0.3139      2.00000
      7       1.6204      0.00000
      8       2.7862      0.00000
      9       2.9888      0.00000
     10       3.9198      0.00000

 k-point    40 :       0.2143    0.0000    0.1333
  band No.  band energies     occupation 
      1     -46.8480      2.00000
      2     -46.8316      2.00000
      3     -46.8050      2.00000
      4     -46.7921      2.00000
      5      -2.7241      2.00000
      6       0.3240      2.00000
      7       1.6032      0.00000
      8       2.7220      0.00000
      9       3.0933      0.00000
     10       3.8440      0.00000

 k-point    41 :       0.2143    0.0000   -0.1333
  band No.  band energies     occupation 
      1     -46.8490      2.00000
      2     -46.8293      2.00000
      3     -46.8071      2.00000
      4     -46.7913      2.00000
      5      -2.7234      2.00000
      6       0.3086      2.00000
      7       1.5874      0.00000
      8       2.8963      0.00000
      9       2.9593      0.00000
     10       3.9444      0.00000

 k-point    42 :       0.2857    0.1333    0.0000
  band No.  band energies     occupation 
      1     -46.8470      2.00000
      2     -46.8325      2.00000
      3     -46.8049      2.00000
      4     -46.7922      2.00000
      5      -2.5351      2.00000
      6      -0.2530      2.00000
      7       1.7774      0.00000
      8       2.7919      0.00000
      9       3.1134      0.00000
     10       3.9335      0.00000

 k-point    43 :       0.2857    0.0000    0.1333
  band No.  band energies     occupation 
      1     -46.8464      2.00000
      2     -46.8330      2.00000
      3     -46.8053      2.00000
      4     -46.7920      2.00000
      5      -2.5354      2.00000
      6      -0.2463      2.00000
      7       1.7642      0.00000
      8       2.7182      0.00000
      9       3.2306      0.00000
     10       3.8711      0.00000

 k-point    44 :       0.2857    0.0000   -0.1333
  band No.  band energies     occupation 
      1     -46.8477      2.00000
      2     -46.8305      2.00000
      3     -46.8074      2.00000
      4     -46.7912      2.00000
      5      -2.5344      2.00000
      6      -0.2566      2.00000
      7       1.7391      0.00000
      8       2.8881      0.00000
      9       3.0901      0.00000
     10       3.9562      0.00000

 k-point    45 :       0.3571    0.1333    0.0000
  band No.  band energies     occupation 
      1     -46.8454      2.00000
      2     -46.8340      2.00000
      3     -46.8052      2.00000
      4     -46.7921      2.00000
      5      -2.2919      2.00000
      6      -0.7693      2.00000
      7       1.9693      0.00000
      8       2.7407      0.00000
      9       3.2635      0.00000
     10       3.8544      0.00000

 k-point    46 :       0.3571    0.0000    0.1333
  band No.  band energies     occupation 
      1     -46.8449      2.00000
      2     -46.8343      2.00000
      3     -46.8058      2.00000
      4     -46.7918      2.00000
      5      -2.2924      2.00000
      6      -0.7648      2.00000
      7       1.9629      0.00000
      8       2.6572      0.00000
      9       3.3951      0.00000
     10       3.8185      0.00000

 k-point    47 :       0.3571    0.0000   -0.1333
  band No.  band energies     occupation 
      1     -46.8462      2.00000
      2     -46.8320      2.00000
      3     -46.8074      2.00000
      4     -46.7912      2.00000
      5      -2.2909      2.00000
      6      -0.7718      2.00000
      7       1.9249      0.00000
      8       2.8062      0.00000
      9       3.2480      0.00000
     10       3.9165      0.00000

 k-point    48 :       0.4286    0.1333    0.0000
  band No.  band energies     occupation 
      1     -46.8440      2.00000
      2     -46.8354      2.00000
      3     -46.8054      2.00000
      4     -46.7921      2.00000
      5      -1.9942      2.00000
      6      -1.2318      2.00000
      7       2.1788      0.00000
      8       2.6191      0.00000
      9       3.4263      0.00000
     10       3.7350      0.00000

 k-point    49 :       0.4286    0.0000    0.1333
  band No.  band energies     occupation 
      1     -46.8438      2.00000
      2     -46.8352      2.00000
      3     -46.8063      2.00000
      4     -46.7916      2.00000
      5      -1.9950      2.00000
      6      -1.2287      2.00000
      7       2.1874      0.00000
      8       2.5282      0.00000
      9       3.5693      0.00000
     10       3.7222      0.00000

 k-point    50 :       0.4286    0.0000   -0.1333
  band No.  band energies     occupation 
      1     -46.8447      2.00000
      2     -46.8336      2.00000
      3     -46.8072      2.00000
      4     -46.7913      2.00000
      5      -1.9927      2.00000
      6      -1.2335      2.00000
      7       2.1314      0.00000
      8       2.6434      0.00000
      9       3.4180      0.00000
     10       3.8493      0.00000

 k-point    51 :       0.5000    0.1333    0.0000
  band No.  band energies     occupation 
      1     -46.8434      2.00000
      2     -46.8360      2.00000
      3     -46.8054      2.00000
      4     -46.7921      2.00000
      5      -1.6628      2.00000
      6      -1.6183      2.00000
      7       2.3310      0.00000
      8       2.4953      0.00000
      9       3.5674      0.00000
     10       3.6107      0.00000

 k-point    52 :       0.5000    0.0000    0.1333
  band No.  band energies     occupation 
      1     -46.8437      2.00000
      2     -46.8349      2.00000
      3     -46.8068      2.00000
      4     -46.7915      2.00000
      5      -1.6624      2.00000
      6      -1.6177      2.00000
      7       2.3339      0.00000
      8       2.4326      0.00000
      9       3.5795      0.00000
     10       3.7360      0.00000

 k-point    53 :       0.0000    0.2000    0.0000
  band No.  band energies     occupation 
      1     -46.8494      2.00000
      2     -46.8307      2.00000
      3     -46.8034      2.00000
      4     -46.7933      2.00000
      5      -2.8365      2.00000
      6       0.7118      0.00000
      7       2.2662      0.00000
      8       2.4171      0.00000
      9       2.9691      0.00000
     10       3.0119      0.00000

 k-point    54 :       0.0000    0.0000    0.2000
  band No.  band energies     occupation 
      1     -46.8494      2.00000
      2     -46.8291      2.00000
      3     -46.8066      2.00000
      4     -46.7917      2.00000
      5      -2.8366      2.00000
      6       0.6999      0.00000
      7       2.2438      0.00000
      8       2.4398      0.00000
      9       2.9710      0.00000
     10       3.0626      0.00000

 k-point    55 :       0.0714    0.2000    0.0000
  band No.  band energies     occupation 
      1     -46.8491      2.00000
      2     -46.8309      2.00000
      3     -46.8035      2.00000
      4     -46.7933      2.00000
      5      -2.8096      2.00000
      6       0.7275      0.00000
      7       1.7381      0.00000
      8       2.6896      0.00000
      9       2.9545      0.00000
     10       3.3003      0.00000

 k-point    56 :       0.0714    0.0000    0.2000
  band No.  band energies     occupation 
      1     -46.8489      2.00000
      2     -46.8299      2.00000
      3     -46.8061      2.00000
      4     -46.7920      2.00000
      5      -2.8098      2.00000
      6       0.7184      0.00000
      7       1.7640      0.00000
      8       2.6157      0.00000
      9       3.0281      0.00000
     10       3.2900      0.00000

 k-point    57 :       0.0714    0.0000   -0.2000
  band No.  band energies     occupation 
      1     -46.8494      2.00000
      2     -46.8286      2.00000
      3     -46.8073      2.00000
      4     -46.7915      2.00000
      5      -2.8096      2.00000
      6       0.7158      0.00000
      7       1.7021      0.00000
      8       2.7878      0.00000
      9       2.9371      0.00000
     10       3.3441      0.00000

 k-point    58 :       0.1429    0.2000    0.0000
  band No.  band energies     occupation 
      1     -46.8485      2.00000
      2     -46.8314      2.00000
      3     -46.8037      2.00000
      4     -46.7933      2.00000
      5      -2.7292      2.00000
      6       0.7277      0.00000
      7       1.1790      0.00000
      8       2.7596      0.00000
      9       3.0029      0.00000
     10       3.7522      0.00000

 k-point    59 :       0.1429    0.0000    0.2000
  band No.  band energies     occupation 
      1     -46.8480      2.00000
      2     -46.8309      2.00000
      3     -46.8058      2.00000
      4     -46.7921      2.00000
      5      -2.7294      2.00000
      6       0.7310      0.00000
      7       1.1814      0.00000
      8       2.6857      0.00000
      9       3.0902      0.00000
     10       3.7011      0.00000

 k-point    60 :       0.1429    0.0000   -0.2000
  band No.  band energies     occupation 
      1     -46.8490      2.00000
      2     -46.8284      2.00000
      3     -46.8080      2.00000
      4     -46.7913      2.00000
      5      -2.7289      2.00000
      6       0.7248      0.00000
      7       1.1424      0.00000
      8       2.8696      0.00000
      9       2.9712      0.00000
     10       3.8233      0.00000

 k-point    61 :       0.2143    0.2000    0.0000
  band No.  band energies     occupation 
      1     -46.8474      2.00000
      2     -46.8321      2.00000
      3     -46.8040      2.00000
      4     -46.7932      2.00000
      5      -2.5948      2.00000
      6       0.3796      1.99947
      7       1.0453      0.00000
      8       2.7542      0.00000
      9       3.0935      0.00000
     10       3.9274      0.00000

 k-point    62 :       0.2143    0.0000    0.2000
  band No.  band energies     occupation 
      1     -46.8468      2.00000
      2     -46.8320      2.00000
      3     -46.8058      2.00000
      4     -46.7922      2.00000
      5      -2.5952      2.00000
      6       0.3960      1.97920
      7       1.0292      0.00000
      8       2.6749      0.00000
      9       3.1928      0.00000
     10       3.8693      0.00000

 k-point    63 :       0.2143    0.0000   -0.2000
  band No.  band energies     occupation 
      1     -46.8482      2.00000
      2     -46.8288      2.00000
      3     -46.8086      2.00000
      4     -46.7912      2.00000
      5      -2.5943      2.00000
      6       0.3791      1.99954
      7       1.0087      0.00000
      8       2.8580      0.00000
      9       3.0589      0.00000
     10       3.9911      0.00000

 k-point    64 :       0.2857    0.2000    0.0000
  band No.  band energies     occupation 
      1     -46.8461      2.00000
      2     -46.8332      2.00000
      3     -46.8044      2.00000
      4     -46.7931      2.00000
      5      -2.4066      2.00000
      6      -0.1502      2.00000
      7       1.1850      0.00000
      8       2.6709      0.00000
      9       3.2158      0.00000
     10       3.8729      0.00000

 k-point    65 :       0.2857    0.0000    0.2000
  band No.  band energies     occupation 
      1     -46.8454      2.00000
      2     -46.8332      2.00000
      3     -46.8061      2.00000
      4     -46.7921      2.00000
      5      -2.4071      2.00000
      6      -0.1392      2.00000
      7       1.1719      0.00000
      8       2.5867      0.00000
      9       3.3300      0.00000
     10       3.8395      0.00000

 k-point    66 :       0.2857    0.0000   -0.2000
  band No.  band energies     occupation 
      1     -46.8471      2.00000
      2     -46.8296      2.00000
      3     -46.8088      2.00000
      4     -46.7912      2.00000
      5      -2.4057      2.00000
      6      -0.1525      2.00000
      7       1.1495      0.00000
      8       2.7473      0.00000
      9       3.1862      0.00000
     10       3.9467      0.00000

 k-point    67 :       0.3571    0.2000    0.0000
  band No.  band energies     occupation 
      1     -46.8446      2.00000
      2     -46.8344      2.00000
      3     -46.8046      2.00000
      4     -46.7930      2.00000
      5      -2.1643      2.00000
      6      -0.6545      2.00000
      7       1.3928      0.00000
      8       2.4879      0.00000
      9       3.3582      0.00000
     10       3.7907      0.00000

 k-point    68 :       0.3571    0.0000    0.2000
  band No.  band energies     occupation 
      1     -46.8440      2.00000
      2     -46.8341      2.00000
      3     -46.8066      2.00000
      4     -46.7920      2.00000
      5      -2.1649      2.00000
      6      -0.6470      2.00000
      7       1.3842      0.00000
      8       2.4059      0.00000
      9       3.4912      0.00000
     10       3.7752      0.00000

 k-point    69 :       0.3571    0.0000   -0.2000
  band No.  band energies     occupation 
      1     -46.8458      2.00000
      2     -46.8309      2.00000
      3     -46.8087      2.00000
      4     -46.7913      2.00000
      5      -2.1628      2.00000
      6      -0.6565      2.00000
      7       1.3544      0.00000
      8       2.5280      0.00000
      9       3.3350      0.00000
     10       3.9070      0.00000

 k-point    70 :       0.4286    0.2000    0.0000
  band No.  band energies     occupation 
      1     -46.8433      2.00000
      2     -46.8357      2.00000
      3     -46.8049      2.00000
      4     -46.7930      2.00000
      5      -1.8681      2.00000
      6      -1.1110      2.00000
      7       1.6409      0.00000
      8       2.2318      0.00000
      9       3.5027      0.00000
     10       3.7216      0.00000

 k-point    71 :       0.4286    0.0000    0.2000
  band No.  band energies     occupation 
      1     -46.8433      2.00000
      2     -46.8345      2.00000
      3     -46.8072      2.00000
      4     -46.7918      2.00000
      5      -1.8689      2.00000
      6      -1.1060      2.00000
      7       1.6403      0.00000
      8       2.1565      0.00000
      9       3.6555      0.00000
     10       3.7119      0.00000

 k-point    72 :       0.4286    0.0000   -0.2000
  band No.  band energies     occupation 
      1     -46.8446      2.00000
      2     -46.8325      2.00000
      3     -46.8084      2.00000
      4     -46.7914      2.00000
      5      -1.8658      2.00000
      6      -1.1125      2.00000
      7       1.5992      0.00000
      8       2.2417      0.00000
      9       3.4866      0.00000
     10       3.8752      0.00000

 k-point    73 :       0.5000    0.2000    0.0000
  band No.  band energies     occupation 
      1     -46.8428      2.00000
      2     -46.8361      2.00000
      3     -46.8049      2.00000
      4     -46.7930      2.00000
      5      -1.5405      2.00000
      6      -1.4923      2.00000
      7       1.8562      0.00000
      8       2.0089      0.00000
      9       3.6115      0.00000
     10       3.6479      0.00000

 k-point    74 :       0.5000    0.0000    0.2000
  band No.  band energies     occupation 
      1     -46.8435      2.00000
      2     -46.8338      2.00000
      3     -46.8079      2.00000
      4     -46.7916      2.00000
      5      -1.5395      2.00000
      6      -1.4909      2.00000
      7       1.8527      0.00000
      8       1.9559      0.00000
      9       3.6170      0.00000
     10       3.7959      0.00000

 k-point    75 :       0.0000    0.2667    0.0000
  band No.  band energies     occupation 
      1     -46.8478      2.00000
      2     -46.8323      2.00000
      3     -46.8025      2.00000
      4     -46.7942      2.00000
      5      -2.6548      2.00000
      6       0.1044      2.00000
      7       2.3625      0.00000
      8       2.4842      0.00000
      9       3.1389      0.00000
     10       3.1786      0.00000

 k-point    76 :       0.0000    0.0000    0.2667
  band No.  band energies     occupation 
      1     -46.8479      2.00000
      2     -46.8296      2.00000
      3     -46.8077      2.00000
      4     -46.7916      2.00000
      5      -2.6551      2.00000
      6       0.0959      2.00000
      7       2.3221      0.00000
      8       2.5264      0.00000
      9       3.1264      0.00000
     10       3.2363      0.00000

 k-point    77 :       0.0714    0.2667    0.0000
  band No.  band energies     occupation 
      1     -46.8476      2.00000
      2     -46.8324      2.00000
      3     -46.8026      2.00000
      4     -46.7942      2.00000
      5      -2.6281      2.00000
      6       0.1255      2.00000
      7       1.8750      0.00000
      8       2.7053      0.00000
      9       3.0991      0.00000
     10       3.4594      0.00000

 k-point    78 :       0.0714    0.0000    0.2667
  band No.  band energies     occupation 
      1     -46.8474      2.00000
      2     -46.8304      2.00000
      3     -46.8072      2.00000
      4     -46.7918      2.00000
      5      -2.6285      2.00000
      6       0.1181      2.00000
      7       1.9161      0.00000
      8       2.6129      0.00000
      9       3.1616      0.00000
     10       3.4494      0.00000

 k-point    79 :       0.0714    0.0000   -0.2667
  band No.  band energies     occupation 
      1     -46.8480      2.00000
      2     -46.8289      2.00000
      3     -46.8085      2.00000
      4     -46.7914      2.00000
      5      -2.6282      2.00000
      6       0.1170      2.00000
      7       1.8251      0.00000
      8       2.8180      0.00000
      9       3.0706      0.00000
     10       3.5178      0.00000

 k-point    80 :       0.1429    0.2667    0.0000
  band No.  band energies     occupation 
      1     -46.8470      2.00000
      2     -46.8328      2.00000
      3     -46.8029      2.00000
      4     -46.7942      2.00000
      5      -2.5479      2.00000
      6       0.1807      2.00000
      7       1.2870      0.00000
      8       2.7349      0.00000
      9       3.1426      0.00000
     10       3.7894      0.00000

 k-point    81 :       0.1429    0.0000    0.2667
  band No.  band energies     occupation 
      1     -46.8465      2.00000
      2     -46.8314      2.00000
      3     -46.8069      2.00000
      4     -46.7920      2.00000
      5      -2.5483      2.00000
      6       0.1767      2.00000
      7       1.3084      0.00000
      8       2.6422      0.00000
      9       3.2213      0.00000
     10       3.7486      0.00000

 k-point    82 :       0.1429    0.0000   -0.2667
  band No.  band energies     occupation 
      1     -46.8478      2.00000
      2     -46.8285      2.00000
      3     -46.8093      2.00000
      4     -46.7912      2.00000
      5      -2.5476      2.00000
      6       0.1752      2.00000
      7       1.2480      0.00000
      8       2.8467      0.00000
      9       3.1040      0.00000
     10       3.8739      0.00000

 k-point    83 :       0.2143    0.2667    0.0000
  band No.  band energies     occupation 
      1     -46.8460      2.00000
      2     -46.8334      2.00000
      3     -46.8032      2.00000
      4     -46.7942      2.00000
      5      -2.4142      2.00000
      6       0.2084      2.00000
      7       0.7934      0.00000
      8       2.6381      0.00000
      9       3.2345      0.00000
     10       3.8578      0.00000

 k-point    84 :       0.2143    0.0000    0.2667
  band No.  band energies     occupation 
      1     -46.8454      2.00000
      2     -46.8323      2.00000
      3     -46.8069      2.00000
      4     -46.7922      2.00000
      5      -2.4146      2.00000
      6       0.2149      2.00000
      7       0.7955      0.00000
      8       2.5462      0.00000
      9       3.3264      0.00000
     10       3.8265      0.00000

 k-point    85 :       0.2143    0.0000   -0.2667
  band No.  band energies     occupation 
      1     -46.8472      2.00000
      2     -46.8285      2.00000
      3     -46.8100      2.00000
      4     -46.7912      2.00000
      5      -2.4135      2.00000
      6       0.2150      2.00000
      7       0.7482      0.00000
      8       2.7273      0.00000
      9       3.1952      0.00000
     10       3.9404      0.00000

 k-point    86 :       0.2857    0.2667    0.0000
  band No.  band energies     occupation 
      1     -46.8448      2.00000
      2     -46.8342      2.00000
      3     -46.8036      2.00000
      4     -46.7942      2.00000
      5      -2.2268      2.00000
      6      -0.0560      2.00000
      7       0.6812      0.00000
      8       2.4167      0.00000
      9       3.3598      0.00000
     10       3.8281      0.00000

 k-point    87 :       0.2857    0.0000    0.2667
  band No.  band energies     occupation 
      1     -46.8442      2.00000
      2     -46.8331      2.00000
      3     -46.8072      2.00000
      4     -46.7922      2.00000
      5      -2.2273      2.00000
      6      -0.0405      2.00000
      7       0.6700      0.00000
      8       2.3330      0.00000
      9       3.4678      0.00000
     10       3.8101      0.00000

 k-point    88 :       0.2857    0.0000   -0.2667
  band No.  band energies     occupation 
      1     -46.8463      2.00000
      2     -46.8289      2.00000
      3     -46.8103      2.00000
      4     -46.7912      2.00000
      5      -2.2256      2.00000
      6      -0.0487      2.00000
      7       0.6373      0.00000
      8       2.4713      0.00000
      9       3.3240      0.00000
     10       3.9337      0.00000

 k-point    89 :       0.3571    0.2667    0.0000
  band No.  band energies     occupation 
      1     -46.8436      2.00000
      2     -46.8351      2.00000
      3     -46.8039      2.00000
      4     -46.7942      2.00000
      5      -1.9861      2.00000
      6      -0.5071      2.00000
      7       0.8514      0.00000
      8       2.1046      0.00000
      9       3.5043      0.00000
     10       3.8233      0.00000

 k-point    90 :       0.3571    0.0000    0.2667
  band No.  band energies     occupation 
      1     -46.8433      2.00000
      2     -46.8335      2.00000
      3     -46.8077      2.00000
      4     -46.7922      2.00000
      5      -1.9865      2.00000
      6      -0.4961      2.00000
      7       0.8434      0.00000
      8       2.0336      0.00000
      9       3.6334      0.00000
     10       3.8066      0.00000

 k-point    91 :       0.3571    0.0000   -0.2667
  band No.  band energies     occupation 
      1     -46.8453      2.00000
      2     -46.8298      2.00000
      3     -46.8102      2.00000
      4     -46.7914      2.00000
      5      -1.9840      2.00000
      6      -0.5054      2.00000
      7       0.8125      0.00000
      8       2.1307      0.00000
      9       3.4732      0.00000
     10       3.9663      0.00000

 k-point    92 :       0.4286    0.2667    0.0000
  band No.  band energies     occupation 
      1     -46.8425      2.00000
      2     -46.8360      2.00000
      3     -46.8041      2.00000
      4     -46.7942      2.00000
      5      -1.6924      2.00000
      6      -0.9469      2.00000
      7       1.1048      0.00000
      8       1.7622      0.00000
      9       3.6464      0.00000
     10       3.8164      0.00000

 k-point    93 :       0.4286    0.0000    0.2667
  band No.  band energies     occupation 
      1     -46.8429      2.00000
      2     -46.8334      2.00000
      3     -46.8085      2.00000
      4     -46.7920      2.00000
      5      -1.6928      2.00000
      6      -0.9395      2.00000
      7       1.1026      0.00000
      8       1.7015      0.00000
      9       3.7957      0.00000
     10       3.8015      0.00000

 k-point    94 :       0.4286    0.0000   -0.2667
  band No.  band energies     occupation 
      1     -46.8442      2.00000
      2     -46.8311      2.00000
      3     -46.8099      2.00000
      4     -46.7916      2.00000
      5      -1.6892      2.00000
      6      -0.9467      2.00000
      7       1.0658      0.00000
      8       1.7691      0.00000
      9       3.6205      0.00000
     10       3.9869      0.00000

 k-point    95 :       0.5000    0.2667    0.0000
  band No.  band energies     occupation 
      1     -46.8420      2.00000
      2     -46.8364      2.00000
      3     -46.8042      2.00000
      4     -46.7942      2.00000
      5      -1.3711      2.00000
      6      -1.3184      2.00000
      7       1.3497      0.00000
      8       1.4856      0.00000
      9       3.7435      0.00000
     10       3.7755      0.00000

 k-point    96 :       0.5000    0.0000    0.2667
  band No.  band energies     occupation 
      1     -46.8433      2.00000
      2     -46.8324      2.00000
      3     -46.8092      2.00000
      4     -46.7918      2.00000
      5      -1.3693      2.00000
      6      -1.3156      2.00000
      7       1.3408      0.00000
      8       1.4466      0.00000
      9       3.7363      0.00000
     10       3.9332      0.00000

 k-point    97 :       0.0000    0.3333    0.0000
  band No.  band energies     occupation 
      1     -46.8458      2.00000
      2     -46.8342      2.00000
      3     -46.8014      2.00000
      4     -46.7952      2.00000
      5      -2.4207      2.00000
      6      -0.4505      2.00000
      7       2.4613      0.00000
      8       2.5511      0.00000
      9       3.3437      0.00000
     10       3.3856      0.00000

 k-point    98 :       0.0000    0.0000    0.3333
  band No.  band energies     occupation 
      1     -46.8463      2.00000
      2     -46.8303      2.00000
      3     -46.8087      2.00000
      4     -46.7914      2.00000
      5      -2.4212      2.00000
      6      -0.4565      2.00000
      7       2.3981      0.00000
      8       2.6166      0.00000
      9       3.3147      0.00000
     10       3.4530      0.00000

 k-point    99 :       0.0714    0.3333    0.0000
  band No.  band energies     occupation 
      1     -46.8456      2.00000
      2     -46.8343      2.00000
      3     -46.8015      2.00000
      4     -46.7953      2.00000
      5      -2.3941      2.00000
      6      -0.4272      2.00000
      7       2.0401      0.00000
      8       2.6964      0.00000
      9       3.2742      0.00000
     10       3.6310      0.00000

 k-point   100 :       0.0714    0.0000    0.3333
  band No.  band energies     occupation 
      1     -46.8458      2.00000
      2     -46.8311      2.00000
      3     -46.8083      2.00000
      4     -46.7916      2.00000
      5      -2.3947      2.00000
      6      -0.4325      2.00000
      7       2.0981      0.00000
      8       2.5878      0.00000
      9       3.3237      0.00000
     10       3.6202      0.00000

 k-point   101 :       0.0714    0.0000   -0.3333
  band No.  band energies     occupation 
      1     -46.8465      2.00000
      2     -46.8295      2.00000
      3     -46.8095      2.00000
      4     -46.7913      2.00000
      5      -2.3944      2.00000
      6      -0.4331      2.00000
      7       1.9738      0.00000
      8       2.8165      0.00000
      9       3.2416      0.00000
     10       3.7039      0.00000

 k-point   102 :       0.1429    0.3333    0.0000
  band No.  band energies     occupation 
      1     -46.8451      2.00000
      2     -46.8345      2.00000
      3     -46.8018      2.00000
      4     -46.7953      2.00000
      5      -2.3144      2.00000
      6      -0.3595      2.00000
      7       1.4776      0.00000
      8       2.6388      0.00000
      9       3.3077      0.00000
     10       3.8098      0.00000

 k-point   103 :       0.1429    0.0000    0.3333
  band No.  band energies     occupation 
      1     -46.8451      2.00000
      2     -46.8318      2.00000
      3     -46.8081      2.00000
      4     -46.7919      2.00000
      5      -2.3150      2.00000
      6      -0.3631      2.00000
      7       1.5111      0.00000
      8       2.5345      0.00000
      9       3.3766      0.00000
     10       3.7836      0.00000

 k-point   104 :       0.1429    0.0000   -0.3333
  band No.  band energies     occupation 
      1     -46.8464      2.00000
      2     -46.8289      2.00000
      3     -46.8103      2.00000
      4     -46.7912      2.00000
      5      -2.3143      2.00000
      6      -0.3640      2.00000
      7       1.4298      0.00000
      8       2.7443      0.00000
      9       3.2661      0.00000
     10       3.8934      0.00000

 k-point   105 :       0.2143    0.3333    0.0000
  band No.  band energies     occupation 
      1     -46.8443      2.00000
      2     -46.8349      2.00000
      3     -46.8021      2.00000
      4     -46.7953      2.00000
      5      -2.1815      2.00000
      6      -0.2599      2.00000
      7       0.9315      0.00000
      8       2.4101      0.00000
      9       3.4004      0.00000
     10       3.8321      0.00000

 k-point   106 :       0.2143    0.0000    0.3333
  band No.  band energies     occupation 
      1     -46.8441      2.00000
      2     -46.8323      2.00000
      3     -46.8081      2.00000
      4     -46.7921      2.00000
      5      -2.1820      2.00000
      6      -0.2600      2.00000
      7       0.9490      0.00000
      8       2.3193      0.00000
      9       3.4840      0.00000
     10       3.8130      0.00000

 k-point   107 :       0.2143    0.0000   -0.3333
  band No.  band energies     occupation 
      1     -46.8459      2.00000
      2     -46.8285      2.00000
      3     -46.8110      2.00000
      4     -46.7912      2.00000
      5      -2.1808      2.00000
      6      -0.2595      2.00000
      7       0.8889      0.00000
      8       2.4821      0.00000
      9       3.3571      0.00000
     10       3.9213      0.00000

 k-point   108 :       0.2857    0.3333    0.0000
  band No.  band energies     occupation 
      1     -46.8434      2.00000
      2     -46.8353      2.00000
      3     -46.8025      2.00000
      4     -46.7955      2.00000
      5      -1.9958      2.00000
      6      -0.1925      2.00000
      7       0.5004      0.00000
      8       2.0636      0.00000
      9       3.5308      0.00000
     10       3.8658      0.00000

 k-point   109 :       0.2857    0.0000    0.3333
  band No.  band energies     occupation 
      1     -46.8433      2.00000
      2     -46.8326      2.00000
      3     -46.8085      2.00000
      4     -46.7922      2.00000
      5      -1.9962      2.00000
      6      -0.1839      2.00000
      7       0.5022      0.00000
      8       1.9902      0.00000
      9       3.6315      0.00000
     10       3.8450      0.00000

 k-point   110 :       0.2857    0.0000   -0.3333
  band No.  band energies     occupation 
      1     -46.8453      2.00000
      2     -46.8285      2.00000
      3     -46.8115      2.00000
      4     -46.7914      2.00000
      5      -1.9943      2.00000
      6      -0.1785      2.00000
      7       0.4487      0.15622
      8       2.1045      0.00000
      9       3.4890      0.00000
     10       3.9825      0.00000

 k-point   111 :       0.3571    0.3333    0.0000
  band No.  band energies     occupation 
      1     -46.8423      2.00000
      2     -46.8360      2.00000
      3     -46.8029      2.00000
      4     -46.7955      2.00000
      5      -1.7578      2.00000
      6      -0.3781      2.00000
      7       0.4165      1.60985
      8       1.6720      0.00000
      9       3.6819      0.00000
     10       3.9283      0.00000

 k-point   112 :       0.3571    0.0000    0.3333
  band No.  band energies     occupation 
      1     -46.8428      2.00000
      2     -46.8325      2.00000
      3     -46.8092      2.00000
      4     -46.7923      2.00000
      5      -1.7578      2.00000
      6      -0.3637      2.00000
      7       0.4093      1.82939
      8       1.6125      0.00000
      9       3.8054      0.00000
     10       3.9012      0.00000

 k-point   113 :       0.3571    0.0000   -0.3333
  band No.  band energies     occupation 
      1     -46.8446      2.00000
      2     -46.8289      2.00000
      3     -46.8116      2.00000
      4     -46.7916      2.00000
      5      -1.7552      2.00000
      6      -0.3641      2.00000
      7       0.3661      1.99999
      8       1.6924      0.00000
      9       3.6422      0.00000
     10       4.0805      0.00000

 k-point   114 :       0.4286    0.3333    0.0000
  band No.  band energies     occupation 
      1     -46.8414      2.00000
      2     -46.8366      2.00000
      3     -46.8031      2.00000
      4     -46.7956      2.00000
      5      -1.4688      2.00000
      6      -0.7522      2.00000
      7       0.6178      0.00000
      8       1.2867      0.00000
      9       3.8287      0.00000
     10       3.9687      0.00000

 k-point   115 :       0.4286    0.0000    0.3333
  band No.  band energies     occupation 
      1     -46.8427      2.00000
      2     -46.8319      2.00000
      3     -46.8099      2.00000
      4     -46.7922      2.00000
      5      -1.4682      2.00000
      6      -0.7420      2.00000
      7       0.6148      0.00000
      8       1.2356      0.00000
      9       3.9342      0.00000
     10       3.9830      0.00000

 k-point   116 :       0.4286    0.0000   -0.3333
  band No.  band energies     occupation 
      1     -46.8438      2.00000
      2     -46.8298      2.00000
      3     -46.8113      2.00000
      4     -46.7918      2.00000
      5      -1.4647      2.00000
      6      -0.7468      2.00000
      7       0.5758      0.00000
      8       1.2935      0.00000
      9       3.7914      0.00000
     10       4.1485      0.00000

 k-point   117 :       0.5000    0.3333    0.0000
  band No.  band energies     occupation 
      1     -46.8411      2.00000
      2     -46.8368      2.00000
      3     -46.8031      2.00000
      4     -46.7956      2.00000
      5      -1.1587      2.00000
      6      -1.1012      2.00000
      7       0.8670      0.00000
      8       0.9844      0.00000
      9       3.9232      0.00000
     10       3.9496      0.00000

 k-point   118 :       0.5000    0.0000    0.3333
  band No.  band energies     occupation 
      1     -46.8431      2.00000
      2     -46.8309      2.00000
      3     -46.8107      2.00000
      4     -46.7920      2.00000
      5      -1.1555      2.00000
      6      -1.0957      2.00000
      7       0.8522      0.00000
      8       0.9558      0.00000
      9       3.9000      0.00000
     10       4.1158      0.00000

 k-point   119 :       0.0000    0.4000    0.0000
  band No.  band energies     occupation 
      1     -46.8436      2.00000
      2     -46.8364      2.00000
      3     -46.8002      2.00000
      4     -46.7964      2.00000
      5      -2.1338      2.00000
      6      -0.9520      2.00000
      7       2.5468      0.00000
      8       2.6023      0.00000
      9       3.5622      0.00000
     10       3.6060      0.00000

 k-point   120 :       0.0000    0.0000    0.4000
  band No.  band energies     occupation 
      1     -46.8448      2.00000
      2     -46.8310      2.00000
      3     -46.8095      2.00000
      4     -46.7913      2.00000
      5      -2.1347      2.00000
      6      -0.9561      2.00000
      7       2.4582      0.00000
      8       2.6935      0.00000
      9       3.5231      0.00000
     10       3.6772      0.00000

 k-point   121 :       0.0714    0.4000    0.0000
  band No.  band energies     occupation 
      1     -46.8434      2.00000
      2     -46.8365      2.00000
      3     -46.8003      2.00000
      4     -46.7964      2.00000
      5      -2.1074      2.00000
      6      -0.9273      2.00000
      7       2.2189      0.00000
      8       2.6446      0.00000
      9       3.4678      0.00000
     10       3.7629      0.00000

 k-point   122 :       0.0714    0.0000    0.4000
  band No.  band energies     occupation 
      1     -46.8444      2.00000
      2     -46.8316      2.00000
      3     -46.8092      2.00000
      4     -46.7915      2.00000
      5      -2.1084      2.00000
      6      -0.9309      2.00000
      7       2.2960      0.00000
      8       2.5276      0.00000
      9       3.5052      0.00000
     10       3.7491      0.00000

 k-point   123 :       0.0714    0.0000   -0.4000
  band No.  band energies     occupation 
      1     -46.8450      2.00000
      2     -46.8304      2.00000
      3     -46.8100      2.00000
      4     -46.7912      2.00000
      5      -2.1081      2.00000
      6      -0.9314      2.00000
      7       2.1344      0.00000
      8       2.7652      0.00000
      9       3.4354      0.00000
     10       3.8395      0.00000

 k-point   124 :       0.1429    0.4000    0.0000
  band No.  band energies     occupation 
      1     -46.8431      2.00000
      2     -46.8365      2.00000
      3     -46.8006      2.00000
      4     -46.7966      2.00000
      5      -2.0283      2.00000
      6      -0.8542      2.00000
      7       1.7078      0.00000
      8       2.4599      0.00000
      9       3.4833      0.00000
     10       3.8090      0.00000

 k-point   125 :       0.1429    0.0000    0.4000
  band No.  band energies     occupation 
      1     -46.8439      2.00000
      2     -46.8319      2.00000
      3     -46.8092      2.00000
      4     -46.7917      2.00000
      5      -2.0294      2.00000
      6      -0.8568      2.00000
      7       1.7538      0.00000
      8       2.3579      0.00000
      9       3.5429      0.00000
     10       3.7900      0.00000

 k-point   126 :       0.1429    0.0000   -0.4000
  band No.  band energies     occupation 
      1     -46.8450      2.00000
      2     -46.8297      2.00000
      3     -46.8107      2.00000
      4     -46.7913      2.00000
      5      -2.0286      2.00000
      6      -0.8575      2.00000
      7       1.6480      0.00000
      8       2.5523      0.00000
      9       3.4423      0.00000
     10       3.8810      0.00000

 k-point   127 :       0.2143    0.4000    0.0000
  band No.  band energies     occupation 
      1     -46.8425      2.00000
      2     -46.8366      2.00000
      3     -46.8009      2.00000
      4     -46.7967      2.00000
      5      -1.8969      2.00000
      6      -0.7368      2.00000
      7       1.1711      0.00000
      8       2.1056      0.00000
      9       3.5734      0.00000
     10       3.8404      0.00000

 k-point   128 :       0.2143    0.0000    0.4000
  band No.  band energies     occupation 
      1     -46.8433      2.00000
      2     -46.8320      2.00000
      3     -46.8094      2.00000
      4     -46.7919      2.00000
      5      -1.8977      2.00000
      6      -0.7374      2.00000
      7       1.1978      0.00000
      8       2.0261      0.00000
      9       3.6498      0.00000
     10       3.8175      0.00000

 k-point   129 :       0.2143    0.0000   -0.4000
  band No.  band energies     occupation 
      1     -46.8448      2.00000
      2     -46.8291      2.00000
      3     -46.8115      2.00000
      4     -46.7914      2.00000
      5      -1.8965      2.00000
      6      -0.7377      2.00000
      7       1.1237      0.00000
      8       2.1631      0.00000
      9       3.5283      0.00000
     10       3.9263      0.00000

 k-point   130 :       0.2857    0.4000    0.0000
  band No.  band energies     occupation 
      1     -46.8418      2.00000
      2     -46.8368      2.00000
      3     -46.8013      2.00000
      4     -46.7969      2.00000
      5      -1.7139      2.00000
      6      -0.5890      2.00000
      7       0.6749      0.00000
      8       1.6783      0.00000
      9       3.7086      0.00000
     10       3.9274      0.00000

 k-point   131 :       0.2857    0.0000    0.4000
  band No.  band energies     occupation 
      1     -46.8429      2.00000
      2     -46.8318      2.00000
      3     -46.8100      2.00000
      4     -46.7921      2.00000
      5      -1.7141      2.00000
      6      -0.5860      2.00000
      7       0.6883      0.00000
      8       1.6164      0.00000
      9       3.8034      0.00000
     10       3.8960      0.00000

 k-point   132 :       0.2857    0.0000   -0.4000
  band No.  band energies     occupation 
      1     -46.8444      2.00000
      2     -46.8286      2.00000
      3     -46.8121      2.00000
      4     -46.7916      2.00000
      5      -1.7124      2.00000
      6      -0.5840      2.00000
      7       0.6292      0.00000
      8       1.7110      0.00000
      9       3.6620      0.00000
     10       4.0410      0.00000

 k-point   133 :       0.3571    0.4000    0.0000
  band No.  band energies     occupation 
      1     -46.8410      2.00000
      2     -46.8370      2.00000
      3     -46.8016      2.00000
      4     -46.7971      2.00000
      5      -1.4807      2.00000
      6      -0.4727      2.00000
      7       0.3000      2.00000
      8       1.2451      0.00000
      9       3.8677      0.00000
     10       4.0412      0.00000

 k-point   134 :       0.3571    0.0000    0.4000
  band No.  band energies     occupation 
      1     -46.8426      2.00000
      2     -46.8312      2.00000
      3     -46.8106      2.00000
      4     -46.7923      2.00000
      5      -1.4799      2.00000
      6      -0.4623      2.00000
      7       0.3007      2.00000
      8       1.1939      0.00000
      9       3.9841      0.00000
     10       4.0048      0.00000

 k-point   135 :       0.3571    0.0000   -0.4000
  band No.  band energies     occupation 
      1     -46.8439      2.00000
      2     -46.8286      2.00000
      3     -46.8125      2.00000
      4     -46.7918      2.00000
      5      -1.4777      2.00000
      6      -0.4536      2.00000
      7       0.2436      2.00000
      8       1.2623      0.00000
      9       3.8198      0.00000
     10       4.1915      0.00000

 k-point   136 :       0.4286    0.4000    0.0000
  band No.  band energies     occupation 
      1     -46.8404      2.00000
      2     -46.8373      2.00000
      3     -46.8018      2.00000
      4     -46.7972      2.00000
      5      -1.2016      2.00000
      6      -0.5822      2.00000
      7       0.2471      2.00000
      8       0.8426      0.00000
      9       4.0208      0.00000
     10       4.1264      0.00000

 k-point   137 :       0.4286    0.0000    0.4000
  band No.  band energies     occupation 
      1     -46.8426      2.00000
      2     -46.8304      2.00000
      3     -46.8113      2.00000
      4     -46.7923      2.00000
      5      -1.1988      2.00000
      6      -0.5682      2.00000
      7       0.2424      2.00000
      8       0.7964      0.00000
      9       4.0769      0.00000
     10       4.1775      0.00000

 k-point   138 :       0.4286    0.0000   -0.4000
  band No.  band energies     occupation 
      1     -46.8433      2.00000
      2     -46.8289      2.00000
      3     -46.8124      2.00000
      4     -46.7920      2.00000
      5      -1.1964      2.00000
      6      -0.5628      2.00000
      7       0.1917      2.00000
      8       0.8493      0.00000
      9       3.9715      0.00000
     10       4.3121      0.00000

 k-point   139 :       0.5000    0.4000    0.0000
  band No.  band energies     occupation 
      1     -46.8401      2.00000
      2     -46.8375      2.00000
      3     -46.8019      2.00000
      4     -46.7972      2.00000
      5      -0.9146      2.00000
      6      -0.8564      2.00000
      7       0.4429      0.31354
      8       0.5372      0.00000
      9       4.1133      0.00000
     10       4.1317      0.00000

 k-point   140 :       0.5000    0.0000    0.4000
  band No.  band energies     occupation 
      1     -46.8429      2.00000
      2     -46.8296      2.00000
      3     -46.8120      2.00000
      4     -46.7922      2.00000
      5      -0.9104      2.00000
      6      -0.8435      2.00000
      7       0.4170      1.59090
      8       0.5167      0.00000
      9       4.0714      0.00000
     10       4.3109      0.00000

 k-point   141 :       0.0000    0.4667    0.0000
  band No.  band energies     occupation 
      1     -46.8413      2.00000
      2     -46.8388      2.00000
      3     -46.7989      2.00000
      4     -46.7976      2.00000
      5      -1.7936      2.00000
      6      -1.3997      2.00000
      7       2.6042      0.00000
      8       2.6230      0.00000
      9       3.7388      0.00000
     10       3.7625      0.00000

 k-point   142 :       0.0000    0.0000    0.4667
  band No.  band energies     occupation 
      1     -46.8439      2.00000
      2     -46.8316      2.00000
      3     -46.8099      2.00000
      4     -46.7912      2.00000
      5      -1.7953      2.00000
      6      -1.4023      2.00000
      7       2.4914      0.00000
      8       2.7383      0.00000
      9       3.7032      0.00000
     10       3.8206      0.00000

 k-point   143 :       0.0714    0.4667    0.0000
  band No.  band energies     occupation 
      1     -46.8411      2.00000
      2     -46.8388      2.00000
      3     -46.7990      2.00000
      4     -46.7977      2.00000
      5      -1.7675      2.00000
      6      -1.3742      2.00000
      7       2.3932      0.00000
      8       2.5413      0.00000
      9       3.6536      0.00000
     10       3.7753      0.00000

 k-point   144 :       0.0714    0.0000    0.4667
  band No.  band energies     occupation 
      1     -46.8437      2.00000
      2     -46.8317      2.00000
      3     -46.8099      2.00000
      4     -46.7913      2.00000
      5      -1.7693      2.00000
      6      -1.3764      2.00000
      7       2.4265      0.00000
      8       2.4900      0.00000
      9       3.6818      0.00000
     10       3.7630      0.00000

 k-point   145 :       0.0714    0.0000   -0.4667
  band No.  band energies     occupation 
      1     -46.8440      2.00000
      2     -46.8312      2.00000
      3     -46.8101      2.00000
      4     -46.7913      2.00000
      5      -1.7690      2.00000
      6      -1.3768      2.00000
      7       2.2911      0.00000
      8       2.6537      0.00000
      9       3.6234      0.00000
     10       3.8330      0.00000

 k-point   146 :       0.1429    0.4667    0.0000
  band No.  band energies     occupation 
      1     -46.8409      2.00000
      2     -46.8387      2.00000
      3     -46.7992      2.00000
      4     -46.7979      2.00000
      5      -1.6896      2.00000
      6      -1.2981      2.00000
      7       1.9624      0.00000
      8       2.2224      0.00000
      9       3.6447      0.00000
     10       3.7596      0.00000

 k-point   147 :       0.1429    0.0000    0.4667
  band No.  band energies     occupation 
      1     -46.8435      2.00000
      2     -46.8315      2.00000
      3     -46.8101      2.00000
      4     -46.7915      2.00000
      5      -1.6912      2.00000
      6      -1.2995      2.00000
      7       2.0221      0.00000
      8       2.1335      0.00000
      9       3.6944      0.00000
     10       3.7404      0.00000

 k-point   148 :       0.1429    0.0000   -0.4667
  band No.  band energies     occupation 
      1     -46.8439      2.00000
      2     -46.8307      2.00000
      3     -46.8106      2.00000
      4     -46.7914      2.00000
      5      -1.6905      2.00000
      6      -1.3002      2.00000
      7       1.8882      0.00000
      8       2.2988      0.00000
      9       3.6089      0.00000
     10       3.8202      0.00000

 k-point   149 :       0.2143    0.4667    0.0000
  band No.  band energies     occupation 
      1     -46.8405      2.00000
      2     -46.8385      2.00000
      3     -46.7995      2.00000
      4     -46.7981      2.00000
      5      -1.5605      2.00000
      6      -1.1731      2.00000
      7       1.4588      0.00000
      8       1.7770      0.00000
      9       3.7245      0.00000
     10       3.8179      0.00000

 k-point   150 :       0.2143    0.0000    0.4667
  band No.  band energies     occupation 
      1     -46.8432      2.00000
      2     -46.8312      2.00000
      3     -46.8106      2.00000
      4     -46.7918      2.00000
      5      -1.5616      2.00000
      6      -1.1731      2.00000
      7       1.4940      0.00000
      8       1.7109      0.00000
      9       3.7824      0.00000
     10       3.8000      0.00000

 k-point   151 :       0.2143    0.0000   -0.4667
  band No.  band energies     occupation 
      1     -46.8438      2.00000
      2     -46.8300      2.00000
      3     -46.8113      2.00000
      4     -46.7916      2.00000
      5      -1.5606      2.00000
      6      -1.1739      2.00000
      7       1.4028      0.00000
      8       1.8231      0.00000
      9       3.6822      0.00000
     10       3.8960      0.00000

 k-point   152 :       0.2857    0.4667    0.0000
  band No.  band energies     occupation 
      1     -46.8401      2.00000
      2     -46.8384      2.00000
      3     -46.7999      2.00000
      4     -46.7984      2.00000
      5      -1.3822      2.00000
      6      -1.0037      2.00000
      7       0.9622      0.00000
      8       1.3034      0.00000
      9       3.8595      0.00000
     10       3.9389      0.00000

 k-point   153 :       0.2857    0.0000    0.4667
  band No.  band energies     occupation 
      1     -46.8430      2.00000
      2     -46.8306      2.00000
      3     -46.8112      2.00000
      4     -46.7920      2.00000
      5      -1.3821      2.00000
      6      -1.0015      2.00000
      7       0.9818      0.00000
      8       1.2511      0.00000
      9       3.8964      0.00000
     10       3.9544      0.00000

 k-point   154 :       0.2857    0.0000   -0.4667
  band No.  band energies     occupation 
      1     -46.8435      2.00000
      2     -46.8294      2.00000
      3     -46.8120      2.00000
      4     -46.7918      2.00000
      5      -1.3808      2.00000
      6      -1.0017      2.00000
      7       0.9145      0.00000
      8       1.3302      0.00000
      9       3.8117      0.00000
     10       4.0419      0.00000

 k-point   155 :       0.3571    0.4667    0.0000
  band No.  band energies     occupation 
      1     -46.8396      2.00000
      2     -46.8383      2.00000
      3     -46.8002      2.00000
      4     -46.7987      2.00000
      5      -1.1587      2.00000
      6      -0.8039      2.00000
      7       0.5167      0.00000
      8       0.8522      0.00000
      9       4.0219      0.00000
     10       4.0883      0.00000

 k-point   156 :       0.3571    0.0000    0.4667
  band No.  band energies     occupation 
      1     -46.8428      2.00000
      2     -46.8299      2.00000
      3     -46.8118      2.00000
      4     -46.7922      2.00000
      5      -1.1564      2.00000
      6      -0.7977      2.00000
      7       0.5248      0.00000
      8       0.8064      0.00000
      9       4.0366      0.00000
     10       4.1473      0.00000

 k-point   157 :       0.3571    0.0000   -0.4667
  band No.  band energies     occupation 
      1     -46.8432      2.00000
      2     -46.8289      2.00000
      3     -46.8125      2.00000
      4     -46.7921      2.00000
      5      -1.1554      2.00000
      6      -0.7954      2.00000
      7       0.4684      0.00497
      8       0.8667      0.00000
      9       3.9687      0.00000
     10       4.2265      0.00000

 k-point   158 :       0.4286    0.4667    0.0000
  band No.  band energies     occupation 
      1     -46.8393      2.00000
      2     -46.8382      2.00000
      3     -46.8004      2.00000
      4     -46.7988      2.00000
      5      -0.9036      2.00000
      6      -0.6317      2.00000
      7       0.1921      2.00000
      8       0.4568      0.04623
      9       4.1740      0.00000
     10       4.2169      0.00000

 k-point   159 :       0.4286    0.0000    0.4667
  band No.  band energies     occupation 
      1     -46.8427      2.00000
      2     -46.8292      2.00000
      3     -46.8124      2.00000
      4     -46.7923      2.00000
      5      -0.8967      2.00000
      6      -0.6175      2.00000
      7       0.1879      2.00000
      8       0.4117      1.76796
      9       4.1567      0.00000
     10       4.3410      0.00000

 k-point   160 :       0.4286    0.0000   -0.4667
  band No.  band energies     occupation 
      1     -46.8430      2.00000
      2     -46.8287      2.00000
      3     -46.8128      2.00000
      4     -46.7922      2.00000
      5      -0.8979      2.00000
      6      -0.6076      2.00000
      7       0.1312      2.00000
      8       0.4631      0.01492
      9       4.1148      0.00000
     10       4.3991      0.00000

 k-point   161 :       0.5000    0.4667    0.0000
  band No.  band energies     occupation 
      1     -46.8391      2.00000
      2     -46.8382      2.00000
      3     -46.8005      2.00000
      4     -46.7989      2.00000
      5      -0.6862      2.00000
      6      -0.6514      2.00000
      7       0.1528      2.00000
      8       0.1997      2.00000
      9       4.2521      0.00000
     10       4.2590      0.00000

 k-point   162 :       0.5000    0.0000    0.4667
  band No.  band energies     occupation 
      1     -46.8428      2.00000
      2     -46.8288      2.00000
      3     -46.8128      2.00000
      4     -46.7923      2.00000
      5      -0.6880      2.00000
      6      -0.6134      2.00000
      7       0.0953      2.00000
      8       0.1942      2.00000
      9       4.1923      0.00000
     10       4.4563      0.00000

 k-point   163 :       0.0000    0.0667    0.0667
  band No.  band energies     occupation 
      1     -46.8511      2.00000
      2     -46.8288      2.00000
      3     -46.8047      2.00000
      4     -46.7923      2.00000
      5      -3.0177      2.00000
      6       1.9968      0.00000
      7       2.1397      0.00000
      8       2.1744      0.00000
      9       2.3644      0.00000
     10       3.3874      0.00000

 k-point   164 :       0.0714    0.0667    0.0667
  band No.  band energies     occupation 
      1     -46.8507      2.00000
      2     -46.8292      2.00000
      3     -46.8045      2.00000
      4     -46.7923      2.00000
      5      -2.9908      2.00000
      6       1.5710      0.00000
      7       2.0226      0.00000
      8       2.1823      0.00000
      9       2.8381      0.00000
     10       3.4837      0.00000

 k-point   165 :       0.0714   -0.0667   -0.0667
  band No.  band energies     occupation 
      1     -46.8509      2.00000
      2     -46.8288      2.00000
      3     -46.8050      2.00000
      4     -46.7921      2.00000
      5      -2.9907      2.00000
      6       1.5510      0.00000
      7       2.0177      0.00000
      8       2.1858      0.00000
      9       2.9136      0.00000
     10       3.4468      0.00000

 k-point   166 :       0.1429    0.0667    0.0667
  band No.  band energies     occupation 
      1     -46.8499      2.00000
      2     -46.8301      2.00000
      3     -46.8045      2.00000
      4     -46.7923      2.00000
      5      -2.9101      2.00000
      6       0.9046      0.00000
      7       2.0905      0.00000
      8       2.2397      0.00000
      9       3.1086      0.00000
     10       3.6816      0.00000

 k-point   167 :       0.1429   -0.0667   -0.0667
  band No.  band energies     occupation 
      1     -46.8503      2.00000
      2     -46.8292      2.00000
      3     -46.8054      2.00000
      4     -46.7919      2.00000
      5      -2.9100      2.00000
      6       0.8924      0.00000
      7       2.0771      0.00000
      8       2.2503      0.00000
      9       3.1821      0.00000
     10       3.6674      0.00000

 k-point   168 :       0.2143    0.0667    0.0667
  band No.  band energies     occupation 
      1     -46.8487      2.00000
      2     -46.8312      2.00000
      3     -46.8047      2.00000
      4     -46.7921      2.00000
      5      -2.7755      2.00000
      6       0.2799      2.00000
      7       2.1942      0.00000
      8       2.3338      0.00000
      9       3.1887      0.00000
     10       3.8039      0.00000

 k-point   169 :       0.2143   -0.0667   -0.0667
  band No.  band energies     occupation 
      1     -46.8492      2.00000
      2     -46.8301      2.00000
      3     -46.8058      2.00000
      4     -46.7917      2.00000
      5      -2.7752      2.00000
      6       0.2720      2.00000
      7       2.1671      0.00000
      8       2.3599      0.00000
      9       3.2367      0.00000
     10       3.8064      0.00000

 k-point   170 :       0.2857    0.0667    0.0667
  band No.  band energies     occupation 
      1     -46.8471      2.00000
      2     -46.8327      2.00000
      3     -46.8050      2.00000
      4     -46.7920      2.00000
      5      -2.5866      2.00000
      6      -0.2941      2.00000
      7       2.3212      0.00000
      8       2.4562      0.00000
      9       3.2336      0.00000
     10       3.8898      0.00000

 k-point   171 :       0.2857   -0.0667   -0.0667
  band No.  band energies     occupation 
      1     -46.8477      2.00000
      2     -46.8314      2.00000
      3     -46.8060      2.00000
      4     -46.7915      2.00000
      5      -2.5861      2.00000
      6      -0.2995      2.00000
      7       2.2759      0.00000
      8       2.5085      0.00000
      9       3.2538      0.00000
     10       3.9054      0.00000

 k-point   172 :       0.3571    0.0667    0.0667
  band No.  band energies     occupation 
      1     -46.8454      2.00000
      2     -46.8342      2.00000
      3     -46.8054      2.00000
      4     -46.7918      2.00000
      5      -2.3433      2.00000
      6      -0.8144      2.00000
      7       2.4565      0.00000
      8       2.5771      0.00000
      9       3.2948      0.00000
     10       3.8993      0.00000

 k-point   173 :       0.3571   -0.0667   -0.0667
  band No.  band energies     occupation 
      1     -46.8461      2.00000
      2     -46.8330      2.00000
      3     -46.8062      2.00000
      4     -46.7915      2.00000
      5      -2.3425      2.00000
      6      -0.8180      2.00000
      7       2.3930      0.00000
      8       2.6640      0.00000
      9       3.2747      0.00000
     10       3.9333      0.00000

 k-point   174 :       0.4286    0.0667    0.0667
  band No.  band energies     occupation 
      1     -46.8441      2.00000
      2     -46.8355      2.00000
      3     -46.8057      2.00000
      4     -46.7916      2.00000
      5      -2.0453      2.00000
      6      -1.2793      2.00000
      7       2.5756      0.00000
      8       2.6509      0.00000
      9       3.4193      0.00000
     10       3.7800      0.00000

 k-point   175 :       0.4286   -0.0667   -0.0667
  band No.  band energies     occupation 
      1     -46.8446      2.00000
      2     -46.8347      2.00000
      3     -46.8061      2.00000
      4     -46.7915      2.00000
      5      -2.0441      2.00000
      6      -1.2817      2.00000
      7       2.5048      0.00000
      8       2.7498      0.00000
      9       3.3646      0.00000
     10       3.8308      0.00000

 k-point   176 :       0.5000    0.0667    0.0667
  band No.  band energies     occupation 
      1     -46.8437      2.00000
      2     -46.8357      2.00000
      3     -46.8060      2.00000
      4     -46.7915      2.00000
      5      -1.7118      2.00000
      6      -1.6687      2.00000
      7       2.5865      0.00000
      8       2.7200      0.00000
      9       3.5399      0.00000
     10       3.6468      0.00000

 k-point   177 :       0.0000    0.1333    0.0667
  band No.  band energies     occupation 
      1     -46.8503      2.00000
      2     -46.8296      2.00000
      3     -46.8043      2.00000
      4     -46.7927      2.00000
      5      -2.9401      2.00000
      6       1.3797      0.00000
      7       2.1337      0.00000
      8       2.2172      0.00000
      9       2.4240      0.00000
     10       3.5175      0.00000

 k-point   178 :       0.0000   -0.0667    0.1333
  band No.  band energies     occupation 
      1     -46.8503      2.00000
      2     -46.8290      2.00000
      3     -46.8054      2.00000
      4     -46.7921      2.00000
      5      -2.9402      2.00000
      6       1.3649      0.00000
      7       2.1199      0.00000
      8       2.2574      0.00000
      9       2.4161      0.00000
     10       3.5502      0.00000

 k-point   179 :       0.0714    0.1333    0.0667
  band No.  band energies     occupation 
      1     -46.8500      2.00000
      2     -46.8299      2.00000
      3     -46.8041      2.00000
      4     -46.7927      2.00000
      5      -2.9133      2.00000
      6       1.3726      0.00000
      7       1.6757      0.00000
      8       2.1773      0.00000
      9       2.8694      0.00000
     10       3.6193      0.00000

 k-point   180 :       0.0714   -0.0667    0.1333
  band No.  band energies     occupation 
      1     -46.8499      2.00000
      2     -46.8296      2.00000
      3     -46.8050      2.00000
      4     -46.7923      2.00000
      5      -2.9133      2.00000
      6       1.3702      0.00000
      7       1.6700      0.00000
      8       2.1847      0.00000
      9       2.8725      0.00000
     10       3.6338      0.00000

 k-point   181 :       0.0714   -0.1333   -0.0667
  band No.  band energies     occupation 
      1     -46.8502      2.00000
      2     -46.8295      2.00000
      3     -46.8046      2.00000
      4     -46.7925      2.00000
      5      -2.9132      2.00000
      6       1.3753      0.00000
      7       1.6539      0.00000
      8       2.1665      0.00000
      9       2.9539      0.00000
     10       3.5731      0.00000

 k-point   182 :       0.0714    0.0667   -0.1333
  band No.  band energies     occupation 
      1     -46.8503      2.00000
      2     -46.8287      2.00000
      3     -46.8060      2.00000
      4     -46.7919      2.00000
      5      -2.9132      2.00000
      6       1.3613      0.00000
      7       1.6368      0.00000
      8       2.2023      0.00000
      9       2.9578      0.00000
     10       3.6205      0.00000

 k-point   183 :       0.1429    0.1333    0.0667
  band No.  band energies     occupation 
      1     -46.8492      2.00000
      2     -46.8307      2.00000
      3     -46.8042      2.00000
      4     -46.7927      2.00000
      5      -2.8327      2.00000
      6       0.9462      0.00000
      7       1.5213      0.00000
      8       2.2340      0.00000
      9       3.1563      0.00000
     10       3.8963      0.00000

 k-point   184 :       0.1429   -0.0667    0.1333
  band No.  band energies     occupation 
      1     -46.8490      2.00000
      2     -46.8306      2.00000
      3     -46.8049      2.00000
      4     -46.7923      2.00000
      5      -2.8328      2.00000
      6       0.9566      0.00000
      7       1.5013      0.00000
      8       2.2383      0.00000
      9       3.1760      0.00000
     10       3.8700      0.00000

 k-point   185 :       0.1429   -0.1333   -0.0667
  band No.  band energies     occupation 
      1     -46.8495      2.00000
      2     -46.8299      2.00000
      3     -46.8050      2.00000
      4     -46.7923      2.00000
      5      -2.8325      2.00000
      6       0.9368      0.00000
      7       1.5196      0.00000
      8       2.2203      0.00000
      9       3.2515      0.00000
     10       3.8468      0.00000

 k-point   186 :       0.1429    0.0667   -0.1333
  band No.  band energies     occupation 
      1     -46.8497      2.00000
      2     -46.8289      2.00000
      3     -46.8065      2.00000
      4     -46.7917      2.00000
      5      -2.8324      2.00000
      6       0.9338      0.00000
      7       1.4917      0.00000
      8       2.2588      0.00000
      9       3.2568      0.00000
     10       3.9047      0.00000

 k-point   187 :       0.2143    0.1333    0.0667
  band No.  band energies     occupation 
      1     -46.8480      2.00000
      2     -46.8317      2.00000
      3     -46.8044      2.00000
      4     -46.7926      2.00000
      5      -2.6982      2.00000
      6       0.3402      2.00000
      7       1.6283      0.00000
      8       2.3236      0.00000
      9       3.2343      0.00000
     10       4.0605      0.00000

 k-point   188 :       0.2143   -0.0667    0.1333
  band No.  band energies     occupation 
      1     -46.8478      2.00000
      2     -46.8317      2.00000
      3     -46.8049      2.00000
      4     -46.7923      2.00000
      5      -2.6983      2.00000
      6       0.3461      2.00000
      7       1.6134      0.00000
      8       2.3202      0.00000
      9       3.2637      0.00000
     10       4.0204      0.00000

 k-point   189 :       0.2143   -0.1333   -0.0667
  band No.  band energies     occupation 
      1     -46.8485      2.00000
      2     -46.8307      2.00000
      3     -46.8054      2.00000
      4     -46.7922      2.00000
      5      -2.6978      2.00000
      6       0.3331      2.00000
      7       1.6296      0.00000
      8       2.3060      0.00000
      9       3.3086      0.00000
     10       4.0420      0.00000

 k-point   190 :       0.2143    0.0667   -0.1333
  band No.  band energies     occupation 
      1     -46.8488      2.00000
      2     -46.8295      2.00000
      3     -46.8070      2.00000
      4     -46.7915      2.00000
      5      -2.6976      2.00000
      6       0.3310      2.00000
      7       1.5973      0.00000
      8       2.3526      0.00000
      9       3.3117      0.00000
     10       4.0749      0.00000

 k-point   191 :       0.2857    0.1333    0.0667
  band No.  band energies     occupation 
      1     -46.8465      2.00000
      2     -46.8330      2.00000
      3     -46.8047      2.00000
      4     -46.7925      2.00000
      5      -2.5096      2.00000
      6      -0.2268      2.00000
      7       1.7848      0.00000
      8       2.4311      0.00000
      9       3.2417      0.00000
     10       4.0323      0.00000

 k-point   192 :       0.2857   -0.0667    0.1333
  band No.  band energies     occupation 
      1     -46.8463      2.00000
      2     -46.8331      2.00000
      3     -46.8052      2.00000
      4     -46.7922      2.00000
      5      -2.5098      2.00000
      6      -0.2231      2.00000
      7       1.7747      0.00000
      8       2.4126      0.00000
      9       3.2789      0.00000
     10       4.0136      0.00000

 k-point   193 :       0.2857   -0.1333   -0.0667
  band No.  band energies     occupation 
      1     -46.8472      2.00000
      2     -46.8319      2.00000
      3     -46.8057      2.00000
      4     -46.7920      2.00000
      5      -2.5091      2.00000
      6      -0.2318      2.00000
      7       1.7871      0.00000
      8       2.4119      0.00000
      9       3.2952      0.00000
     10       4.0361      0.00000

 k-point   194 :       0.2857    0.0667   -0.1333
  band No.  band energies     occupation 
      1     -46.8475      2.00000
      2     -46.8306      2.00000
      3     -46.8072      2.00000
      4     -46.7914      2.00000
      5      -2.5088      2.00000
      6      -0.2332      2.00000
      7       1.7490      0.00000
      8       2.4686      0.00000
      9       3.2860      0.00000
     10       4.0653      0.00000

 k-point   195 :       0.3571    0.1333    0.0667
  band No.  band energies     occupation 
      1     -46.8450      2.00000
      2     -46.8344      2.00000
      3     -46.8051      2.00000
      4     -46.7923      2.00000
      5      -2.2667      2.00000
      6      -0.7432      2.00000
      7       1.9734      0.00000
      8       2.5194      0.00000
      9       3.2363      0.00000
     10       3.8772      0.00000

 k-point   196 :       0.3571   -0.0667    0.1333
  band No.  band energies     occupation 
      1     -46.8447      2.00000
      2     -46.8344      2.00000
      3     -46.8057      2.00000
      4     -46.7920      2.00000
      5      -2.2669      2.00000
      6      -0.7407      2.00000
      7       1.9713      0.00000
      8       2.4745      0.00000
      9       3.2889      0.00000
     10       3.8884      0.00000

 k-point   197 :       0.3571   -0.1333   -0.0667
  band No.  band energies     occupation 
      1     -46.8456      2.00000
      2     -46.8334      2.00000
      3     -46.8058      2.00000
      4     -46.7920      2.00000
      5      -2.2659      2.00000
      6      -0.7467      2.00000
      7       1.9755      0.00000
      8       2.5052      0.00000
      9       3.2605      0.00000
     10       3.9006      0.00000

 k-point   198 :       0.3571    0.0667   -0.1333
  band No.  band energies     occupation 
      1     -46.8460      2.00000
      2     -46.8321      2.00000
      3     -46.8072      2.00000
      4     -46.7914      2.00000
      5      -2.2654      2.00000
      6      -0.7476      2.00000
      7       1.9316      0.00000
      8       2.5660      0.00000
      9       3.2382      0.00000
     10       3.9489      0.00000

 k-point   199 :       0.4286    0.1333    0.0667
  band No.  band energies     occupation 
      1     -46.8437      2.00000
      2     -46.8356      2.00000
      3     -46.8054      2.00000
      4     -46.7922      2.00000
      5      -1.9693      2.00000
      6      -1.2057      2.00000
      7       2.1727      0.00000
      8       2.5215      0.00000
      9       3.2939      0.00000
     10       3.6561      0.00000

 k-point   200 :       0.4286   -0.0667    0.1333
  band No.  band energies     occupation 
      1     -46.8436      2.00000
      2     -46.8352      2.00000
      3     -46.8062      2.00000
      4     -46.7918      2.00000
      5      -1.9696      2.00000
      6      -1.2040      2.00000
      7       2.1877      0.00000
      8       2.4468      0.00000
      9       3.3621      0.00000
     10       3.6828      0.00000

 k-point   201 :       0.4286   -0.1333   -0.0667
  band No.  band energies     occupation 
      1     -46.8442      2.00000
      2     -46.8348      2.00000
      3     -46.8058      2.00000
      4     -46.7920      2.00000
      5      -1.9682      2.00000
      6      -1.2081      2.00000
      7       2.1733      0.00000
      8       2.5185      0.00000
      9       3.2838      0.00000
     10       3.6898      0.00000

 k-point   202 :       0.4286    0.0667   -0.1333
  band No.  band energies     occupation 
      1     -46.8446      2.00000
      2     -46.8337      2.00000
      3     -46.8070      2.00000
      4     -46.7915      2.00000
      5      -1.9674      2.00000
      6      -1.2087      2.00000
      7       2.1282      0.00000
      8       2.5539      0.00000
      9       3.2727      0.00000
     10       3.7567      0.00000

 k-point   203 :       0.5000    0.1333    0.0667
  band No.  band energies     occupation 
      1     -46.8433      2.00000
      2     -46.8358      2.00000
      3     -46.8057      2.00000
      4     -46.7921      2.00000
      5      -1.6380      2.00000
      6      -1.5927      2.00000
      7       2.3043      0.00000
      8       2.4576      0.00000
      9       3.4012      0.00000
     10       3.4940      0.00000

 k-point   204 :       0.5000   -0.0667    0.1333
  band No.  band energies     occupation 
      1     -46.8436      2.00000
      2     -46.8350      2.00000
      3     -46.8067      2.00000
      4     -46.7917      2.00000
      5      -1.6377      2.00000
      6      -1.5922      2.00000
      7       2.3085      0.00000
      8       2.4077      0.00000
      9       3.4236      0.00000
     10       3.5610      0.00000

 k-point   205 :       0.0000    0.2000    0.0667
  band No.  band energies     occupation 
      1     -46.8491      2.00000
      2     -46.8307      2.00000
      3     -46.8036      2.00000
      4     -46.7933      2.00000
      5      -2.8107      2.00000
      6       0.7300      0.00000
      7       2.2010      0.00000
      8       2.3110      0.00000
      9       2.5376      0.00000
     10       3.6078      0.00000

 k-point   206 :       0.0000   -0.0667    0.2000
  band No.  band energies     occupation 
      1     -46.8492      2.00000
      2     -46.8293      2.00000
      3     -46.8065      2.00000
      4     -46.7919      2.00000
      5      -2.8108      2.00000
      6       0.7185      0.00000
      7       2.1744      0.00000
      8       2.3695      0.00000
      9       2.5226      0.00000
     10       3.6411      0.00000

 k-point   207 :       0.0714    0.2000    0.0667
  band No.  band energies     occupation 
      1     -46.8488      2.00000
      2     -46.8311      2.00000
      3     -46.8035      2.00000
      4     -46.7934      2.00000
      5      -2.7839      2.00000
      6       0.7456      0.00000
      7       1.7620      0.00000
      8       2.2719      0.00000
      9       2.9197      0.00000
     10       3.7152      0.00000

 k-point   208 :       0.0714   -0.0667    0.2000
  band No.  band energies     occupation 
      1     -46.8487      2.00000
      2     -46.8301      2.00000
      3     -46.8059      2.00000
      4     -46.7921      2.00000
      5      -2.7840      2.00000
      6       0.7375      0.00000
      7       1.7769      0.00000
      8       2.2646      0.00000
      9       2.9159      0.00000
     10       3.7288      0.00000

 k-point   209 :       0.0714   -0.2000   -0.0667
  band No.  band energies     occupation 
      1     -46.8490      2.00000
      2     -46.8307      2.00000
      3     -46.8039      2.00000
      4     -46.7932      2.00000
      5      -2.7838      2.00000
      6       0.7472      0.00000
      7       1.7431      0.00000
      8       2.2544      0.00000
      9       3.0052      0.00000
     10       3.6720      0.00000

 k-point   210 :       0.0714    0.0667   -0.2000
  band No.  band energies     occupation 
      1     -46.8492      2.00000
      2     -46.8288      2.00000
      3     -46.8071      2.00000
      4     -46.7917      2.00000
      5      -2.7838      2.00000
      6       0.7351      0.00000
      7       1.7153      0.00000
      8       2.3004      0.00000
      9       3.0172      0.00000
     10       3.7228      0.00000

 k-point   211 :       0.1429    0.2000    0.0667
  band No.  band energies     occupation 
      1     -46.8481      2.00000
      2     -46.8317      2.00000
      3     -46.8036      2.00000
      4     -46.7934      2.00000
      5      -2.7035      2.00000
      6       0.7490      0.00000
      7       1.1995      0.00000
      8       2.3182      0.00000
      9       3.1713      0.00000
     10       3.9716      0.00000

 k-point   212 :       0.1429   -0.0667    0.2000
  band No.  band energies     occupation 
      1     -46.8478      2.00000
      2     -46.8310      2.00000
      3     -46.8057      2.00000
      4     -46.7923      2.00000
      5      -2.7037      2.00000
      6       0.7532      0.00000
      7       1.1950      0.00000
      8       2.3078      0.00000
      9       3.1833      0.00000
     10       3.9473      0.00000

 k-point   213 :       0.1429   -0.2000   -0.0667
  band No.  band energies     occupation 
      1     -46.8484      2.00000
      2     -46.8310      2.00000
      3     -46.8043      2.00000
      4     -46.7931      2.00000
      5      -2.7033      2.00000
      6       0.7514      0.00000
      7       1.1856      0.00000
      8       2.2998      0.00000
      9       3.2642      0.00000
     10       3.9247      0.00000

 k-point   214 :       0.1429    0.0667   -0.2000
  band No.  band energies     occupation 
      1     -46.8488      2.00000
      2     -46.8287      2.00000
      3     -46.8078      2.00000
      4     -46.7915      2.00000
      5      -2.7031      2.00000
      6       0.7476      0.00000
      7       1.1561      0.00000
      8       2.3455      0.00000
      9       3.2722      0.00000
     10       4.0004      0.00000

 k-point   215 :       0.2143    0.2000    0.0667
  band No.  band energies     occupation 
      1     -46.8470      2.00000
      2     -46.8325      2.00000
      3     -46.8039      2.00000
      4     -46.7934      2.00000
      5      -2.5693      2.00000
      6       0.4061      1.88829
      7       1.0599      0.00000
      8       2.3860      0.00000
      9       3.2248      0.00000
     10       4.0784      0.00000

 k-point   216 :       0.2143   -0.0667    0.2000
  band No.  band energies     occupation 
      1     -46.8466      2.00000
      2     -46.8321      2.00000
      3     -46.8057      2.00000
      4     -46.7924      2.00000
      5      -2.5695      2.00000
      6       0.4197      1.47312
      7       1.0433      0.00000
      8       2.3629      0.00000
      9       3.2516      0.00000
     10       4.0544      0.00000

 k-point   217 :       0.2143   -0.2000   -0.0667
  band No.  band energies     occupation 
      1     -46.8475      2.00000
      2     -46.8317      2.00000
      3     -46.8047      2.00000
      4     -46.7930      2.00000
      5      -2.5690      2.00000
      6       0.4018      1.94229
      7       1.0577      0.00000
      8       2.3633      0.00000
      9       3.2996      0.00000
     10       4.0582      0.00000

 k-point   218 :       0.2143    0.0667   -0.2000
  band No.  band energies     occupation 
      1     -46.8480      2.00000
      2     -46.8290      2.00000
      3     -46.8084      2.00000
      4     -46.7914      2.00000
      5      -2.5686      2.00000
      6       0.4033      1.92733
      7       1.0230      0.00000
      8       2.4177      0.00000
      9       3.2936      0.00000
     10       4.1248      0.00000

 k-point   219 :       0.2857    0.2000    0.0667
  band No.  band energies     occupation 
      1     -46.8456      2.00000
      2     -46.8336      2.00000
      3     -46.8042      2.00000
      4     -46.7933      2.00000
      5      -2.3812      2.00000
      6      -0.1238      2.00000
      7       1.1989      0.00000
      8       2.4360      0.00000
      9       3.1981      0.00000
     10       3.9825      0.00000

 k-point   220 :       0.2857   -0.0667    0.2000
  band No.  band energies     occupation 
      1     -46.8452      2.00000
      2     -46.8333      2.00000
      3     -46.8060      2.00000
      4     -46.7923      2.00000
      5      -2.3815      2.00000
      6      -0.1153      2.00000
      7       1.1872      0.00000
      8       2.3895      0.00000
      9       3.2438      0.00000
     10       3.9964      0.00000

 k-point   221 :       0.2857   -0.2000   -0.0667
  band No.  band energies     occupation 
      1     -46.8462      2.00000
      2     -46.8326      2.00000
      3     -46.8050      2.00000
      4     -46.7929      2.00000
      5      -2.3807      2.00000
      6      -0.1281      2.00000
      7       1.2002      0.00000
      8       2.4111      0.00000
      9       3.2501      0.00000
     10       3.9881      0.00000

 k-point   222 :       0.2857    0.0667   -0.2000
  band No.  band energies     occupation 
      1     -46.8469      2.00000
      2     -46.8298      2.00000
      3     -46.8086      2.00000
      4     -46.7914      2.00000
      5      -2.3801      2.00000
      6      -0.1285      2.00000
      7       1.1650      0.00000
      8       2.4739      0.00000
      9       3.2222      0.00000
     10       4.0577      0.00000

 k-point   223 :       0.3571    0.2000    0.0667
  band No.  band energies     occupation 
      1     -46.8442      2.00000
      2     -46.8348      2.00000
      3     -46.8046      2.00000
      4     -46.7932      2.00000
      5      -2.1391      2.00000
      6      -0.6283      2.00000
      7       1.4049      0.00000
      8       2.3889      0.00000
      9       3.1945      0.00000
     10       3.8265      0.00000

 k-point   224 :       0.3571   -0.0667    0.2000
  band No.  band energies     occupation 
      1     -46.8439      2.00000
      2     -46.8342      2.00000
      3     -46.8065      2.00000
      4     -46.7922      2.00000
      5      -2.1394      2.00000
      6      -0.6227      2.00000
      7       1.3987      0.00000
      8       2.3193      0.00000
      9       3.2634      0.00000
     10       3.8691      0.00000

 k-point   225 :       0.3571   -0.2000   -0.0667
  band No.  band energies     occupation 
      1     -46.8448      2.00000
      2     -46.8339      2.00000
      3     -46.8052      2.00000
      4     -46.7929      2.00000
      5      -2.1384      2.00000
      6      -0.6314      2.00000
      7       1.4079      0.00000
      8       2.3700      0.00000
      9       3.2162      0.00000
     10       3.8512      0.00000

 k-point   226 :       0.3571    0.0667   -0.2000
  band No.  band energies     occupation 
      1     -46.8457      2.00000
      2     -46.8311      2.00000
      3     -46.8086      2.00000
      4     -46.7915      2.00000
      5      -2.1373      2.00000
      6      -0.6320      2.00000
      7       1.3689      0.00000
      8       2.4209      0.00000
      9       3.1885      0.00000
     10       3.9387      0.00000

 k-point   227 :       0.4286    0.2000    0.0667
  band No.  band energies     occupation 
      1     -46.8430      2.00000
      2     -46.8357      2.00000
      3     -46.8049      2.00000
      4     -46.7931      2.00000
      5      -1.8432      2.00000
      6      -1.0848      2.00000
      7       1.6481      0.00000
      8       2.2058      0.00000
      9       3.2946      0.00000
     10       3.6492      0.00000

 k-point   228 :       0.4286   -0.0667    0.2000
  band No.  band energies     occupation 
      1     -46.8432      2.00000
      2     -46.8345      2.00000
      3     -46.8071      2.00000
      4     -46.7920      2.00000
      5      -1.8434      2.00000
      6      -1.0811      2.00000
      7       1.6511      0.00000
      8       2.1312      0.00000
      9       3.3707      0.00000
     10       3.7001      0.00000

 k-point   229 :       0.4286   -0.2000   -0.0667
  band No.  band energies     occupation 
      1     -46.8435      2.00000
      2     -46.8351      2.00000
      3     -46.8052      2.00000
      4     -46.7930      2.00000
      5      -1.8421      2.00000
      6      -1.0871      2.00000
      7       1.6524      0.00000
      8       2.1953      0.00000
      9       3.2895      0.00000
     10       3.6786      0.00000

 k-point   230 :       0.4286    0.0667   -0.2000
  band No.  band energies     occupation 
      1     -46.8444      2.00000
      2     -46.8325      2.00000
      3     -46.8083      2.00000
      4     -46.7916      2.00000
      5      -1.8404      2.00000
      6      -1.0876      2.00000
      7       1.6098      0.00000
      8       2.2146      0.00000
      9       3.2876      0.00000
     10       3.7753      0.00000

 k-point   231 :       0.5000    0.2000    0.0667
  band No.  band energies     occupation 
      1     -46.8427      2.00000
      2     -46.8359      2.00000
      3     -46.8051      2.00000
      4     -46.7930      2.00000
      5      -1.5156      2.00000
      6      -1.4667      2.00000
      7       1.8558      0.00000
      8       2.0061      0.00000
      9       3.4191      0.00000
     10       3.5133      0.00000

 k-point   232 :       0.5000   -0.0667    0.2000
  band No.  band energies     occupation 
      1     -46.8434      2.00000
      2     -46.8338      2.00000
      3     -46.8077      2.00000
      4     -46.7918      2.00000
      5      -1.5147      2.00000
      6      -1.4654      2.00000
      7       1.8543      0.00000
      8       1.9554      0.00000
      9       3.4437      0.00000
     10       3.6067      0.00000

 k-point   233 :       0.0000    0.2667    0.0667
  band No.  band energies     occupation 
      1     -46.8475      2.00000
      2     -46.8323      2.00000
      3     -46.8027      2.00000
      4     -46.7942      2.00000
      5      -2.6291      2.00000
      6       0.1257      2.00000
      7       2.2875      0.00000
      8       2.4185      0.00000
      9       2.7066      0.00000
     10       3.7066      0.00000

 k-point   234 :       0.0000   -0.0667    0.2667
  band No.  band energies     occupation 
      1     -46.8477      2.00000
      2     -46.8298      2.00000
      3     -46.8076      2.00000
      4     -46.7918      2.00000
      5      -2.6294      2.00000
      6       0.1173      2.00000
      7       2.2511      0.00000
      8       2.4790      0.00000
      9       2.6964      0.00000
     10       3.7366      0.00000

 k-point   235 :       0.0714    0.2667    0.0667
  band No.  band energies     occupation 
      1     -46.8473      2.00000
      2     -46.8326      2.00000
      3     -46.8027      2.00000
      4     -46.7943      2.00000
      5      -2.6025      2.00000
      6       0.1465      2.00000
      7       1.8960      0.00000
      8       2.3938      0.00000
      9       2.9820      0.00000
     10       3.8165      0.00000

 k-point   236 :       0.0714   -0.0667    0.2667
  band No.  band energies     occupation 
      1     -46.8472      2.00000
      2     -46.8306      2.00000
      3     -46.8070      2.00000
      4     -46.7920      2.00000
      5      -2.6028      2.00000
      6       0.1398      2.00000
      7       1.9280      0.00000
      8       2.3601      0.00000
      9       2.9774      0.00000
     10       3.8247      0.00000

 k-point   237 :       0.0714   -0.2667   -0.0667
  band No.  band energies     occupation 
      1     -46.8474      2.00000
      2     -46.8323      2.00000
      3     -46.8030      2.00000
      4     -46.7941      2.00000
      5      -2.6024      2.00000
      6       0.1474      2.00000
      7       1.8811      0.00000
      8       2.3682      0.00000
      9       3.0654      0.00000
     10       3.7791      0.00000

 k-point   238 :       0.0714    0.0667   -0.2667
  band No.  band energies     occupation 
      1     -46.8478      2.00000
      2     -46.8291      2.00000
      3     -46.8083      2.00000
      4     -46.7915      2.00000
      5      -2.6024      2.00000
      6       0.1387      2.00000
      7       1.8373      0.00000
      8       2.4301      0.00000
      9       3.0809      0.00000
     10       3.8311      0.00000

 k-point   239 :       0.1429    0.2667    0.0667
  band No.  band energies     occupation 
      1     -46.8466      2.00000
      2     -46.8330      2.00000
      3     -46.8028      2.00000
      4     -46.7944      2.00000
      5      -2.5223      2.00000
      6       0.2022      2.00000
      7       1.3102      0.00000
      8       2.4152      0.00000
      9       3.1623      0.00000
     10       4.0014      0.00000

 k-point   240 :       0.1429   -0.0667    0.2667
  band No.  band energies     occupation 
      1     -46.8463      2.00000
      2     -46.8315      2.00000
      3     -46.8068      2.00000
      4     -46.7922      2.00000
      5      -2.5226      2.00000
      6       0.1991      2.00000
      7       1.3244      0.00000
      8       2.3784      0.00000
      9       3.1720      0.00000
     10       3.9847      0.00000

 k-point   241 :       0.1429   -0.2667   -0.0667
  band No.  band energies     occupation 
      1     -46.8469      2.00000
      2     -46.8325      2.00000
      3     -46.8033      2.00000
      4     -46.7941      2.00000
      5      -2.5221      2.00000
      6       0.2040      2.00000
      7       1.2973      0.00000
      8       2.3921      0.00000
      9       3.2455      0.00000
     10       3.9656      0.00000

 k-point   242 :       0.1429    0.0667   -0.2667
  band No.  band energies     occupation 
      1     -46.8476      2.00000
      2     -46.8287      2.00000
      3     -46.8091      2.00000
      4     -46.7914      2.00000
      5      -2.5220      2.00000
      6       0.1977      2.00000
      7       1.2650      0.00000
      8       2.4504      0.00000
      9       3.2503      0.00000
     10       4.0425      0.00000

 k-point   243 :       0.2143    0.2667    0.0667
  band No.  band energies     occupation 
      1     -46.8456      2.00000
      2     -46.8336      2.00000
      3     -46.8031      2.00000
      4     -46.7944      2.00000
      5      -2.3887      2.00000
      6       0.2323      2.00000
      7       0.8138      0.00000
      8       2.4203      0.00000
      9       3.1743      0.00000
     10       4.0234      0.00000

 k-point   244 :       0.2143   -0.0667    0.2667
  band No.  band energies     occupation 
      1     -46.8452      2.00000
      2     -46.8324      2.00000
      3     -46.8068      2.00000
      4     -46.7924      2.00000
      5      -2.3890      2.00000
      6       0.2395      2.00000
      7       0.8115      0.00000
      8       2.3648      0.00000
      9       3.2079      0.00000
     10       4.0260      0.00000

 k-point   245 :       0.2143   -0.2667   -0.0667
  band No.  band energies     occupation 
      1     -46.8460      2.00000
      2     -46.8330      2.00000
      3     -46.8037      2.00000
      4     -46.7940      2.00000
      5      -2.3883      2.00000
      6       0.2342      2.00000
      7       0.8050      0.00000
      8       2.3960      0.00000
      9       3.2368      0.00000
     10       4.0110      0.00000

 k-point   246 :       0.2143    0.0667   -0.2667
  band No.  band energies     occupation 
      1     -46.8470      2.00000
      2     -46.8287      2.00000
      3     -46.8097      2.00000
      4     -46.7914      2.00000
      5      -2.3878      2.00000
      6       0.2399      2.00000
      7       0.7648      0.00000
      8       2.4617      0.00000
      9       3.2165      0.00000
     10       4.0828      0.00000

 k-point   247 :       0.2857    0.2667    0.0667
  band No.  band energies     occupation 
      1     -46.8444      2.00000
      2     -46.8344      2.00000
      3     -46.8035      2.00000
      4     -46.7944      2.00000
      5      -2.2015      2.00000
      6      -0.0293      2.00000
      7       0.6983      0.00000
      8       2.3225      0.00000
      9       3.1633      0.00000
     10       3.9657      0.00000

 k-point   248 :       0.2857   -0.0667    0.2667
  band No.  band energies     occupation 
      1     -46.8441      2.00000
      2     -46.8332      2.00000
      3     -46.8071      2.00000
      4     -46.7924      2.00000
      5      -2.2017      2.00000
      6      -0.0153      2.00000
      7       0.6866      0.00000
      8       2.2500      0.00000
      9       3.2213      0.00000
     10       3.9979      0.00000

 k-point   249 :       0.2857   -0.2667   -0.0667
  band No.  band energies     occupation 
      1     -46.8449      2.00000
      2     -46.8337      2.00000
      3     -46.8041      2.00000
      4     -46.7940      2.00000
      5      -2.2009      2.00000
      6      -0.0314      2.00000
      7       0.6966      0.00000
      8       2.3033      0.00000
      9       3.1975      0.00000
     10       3.9763      0.00000

 k-point   250 :       0.2857    0.0667   -0.2667
  band No.  band energies     occupation 
      1     -46.8461      2.00000
      2     -46.8291      2.00000
      3     -46.8101      2.00000
      4     -46.7915      2.00000
      5      -2.2000      2.00000
      6      -0.0233      2.00000
      7       0.6542      0.00000
      8       2.3620      0.00000
      9       3.1675      0.00000
     10       4.0591      0.00000

 k-point   251 :       0.3571    0.2667    0.0667
  band No.  band energies     occupation 
      1     -46.8432      2.00000
      2     -46.8353      2.00000
      3     -46.8038      2.00000
      4     -46.7944      2.00000
      5      -1.9609      2.00000
      6      -0.4806      2.00000
      7       0.8675      0.00000
      8       2.0799      0.00000
      9       3.2438      0.00000
     10       3.8875      0.00000

 k-point   252 :       0.3571   -0.0667    0.2667
  band No.  band energies     occupation 
      1     -46.8431      2.00000
      2     -46.8336      2.00000
      3     -46.8076      2.00000
      4     -46.7924      2.00000
      5      -1.9611      2.00000
      6      -0.4713      2.00000
      7       0.8605      0.00000
      8       2.0094      0.00000
      9       3.3106      0.00000
     10       3.9377      0.00000

 k-point   253 :       0.3571   -0.2667   -0.0667
  band No.  band energies     occupation 
      1     -46.8437      2.00000
      2     -46.8346      2.00000
      3     -46.8043      2.00000
      4     -46.7941      2.00000
      5      -1.9601      2.00000
      6      -0.4832      2.00000
      7       0.8688      0.00000
      8       2.0688      0.00000
      9       3.2524      0.00000
     10       3.9124      0.00000

 k-point   254 :       0.3571    0.0667   -0.2667
  band No.  band energies     occupation 
      1     -46.8451      2.00000
      2     -46.8300      2.00000
      3     -46.8100      2.00000
      4     -46.7916      2.00000
      5      -1.9585      2.00000
      6      -0.4805      2.00000
      7       0.8300      0.00000
      8       2.1019      0.00000
      9       3.2402      0.00000
     10       4.0108      0.00000

 k-point   255 :       0.4286    0.2667    0.0667
  band No.  band energies     occupation 
      1     -46.8422      2.00000
      2     -46.8361      2.00000
      3     -46.8042      2.00000
      4     -46.7943      2.00000
      5      -1.6675      2.00000
      6      -0.9206      2.00000
      7       1.1185      0.00000
      8       1.7647      0.00000
      9       3.4026      0.00000
     10       3.7615      0.00000

 k-point   256 :       0.4286   -0.0667    0.2667
  band No.  band energies     occupation 
      1     -46.8428      2.00000
      2     -46.8334      2.00000
      3     -46.8083      2.00000
      4     -46.7922      2.00000
      5      -1.6674      2.00000
      6      -0.9144      2.00000
      7       1.1183      0.00000
      8       1.7027      0.00000
      9       3.4676      0.00000
     10       3.8198      0.00000

 k-point   257 :       0.4286   -0.2667   -0.0667
  band No.  band energies     occupation 
      1     -46.8426      2.00000
      2     -46.8356      2.00000
      3     -46.8044      2.00000
      4     -46.7942      2.00000
      5      -1.6664      2.00000
      6      -0.9226      2.00000
      7       1.1213      0.00000
      8       1.7581      0.00000
      9       3.3943      0.00000
     10       3.7885      0.00000

 k-point   258 :       0.4286    0.0667   -0.2667
  band No.  band energies     occupation 
      1     -46.8440      2.00000
      2     -46.8312      2.00000
      3     -46.8097      2.00000
      4     -46.7918      2.00000
      5      -1.6638      2.00000
      6      -0.9216      2.00000
      7       1.0818      0.00000
      8       1.7694      0.00000
      9       3.4004      0.00000
     10       3.8921      0.00000

 k-point   259 :       0.5000    0.2667    0.0667
  band No.  band energies     occupation 
      1     -46.8419      2.00000
      2     -46.8362      2.00000
      3     -46.8044      2.00000
      4     -46.7943      2.00000
      5      -1.3462      2.00000
      6      -1.2926      2.00000
      7       1.3603      0.00000
      8       1.4961      0.00000
      9       3.5442      0.00000
     10       3.6397      0.00000

 k-point   260 :       0.5000   -0.0667    0.2667
  band No.  band energies     occupation 
      1     -46.8432      2.00000
      2     -46.8325      2.00000
      3     -46.8091      2.00000
      4     -46.7920      2.00000
      5      -1.3444      2.00000
      6      -1.2900      2.00000
      7       1.3527      0.00000
      8       1.4577      0.00000
      9       3.5604      0.00000
     10       3.7433      0.00000

 k-point   261 :       0.0000    0.3333    0.0667
  band No.  band energies     occupation 
      1     -46.8456      2.00000
      2     -46.8342      2.00000
      3     -46.8016      2.00000
      4     -46.7953      2.00000
      5      -2.3951      2.00000
      6      -0.4275      2.00000
      7       2.3838      0.00000
      8       2.5137      0.00000
      9       2.9317      0.00000
     10       3.7952      0.00000

 k-point   262 :       0.0000   -0.0667    0.3333
  band No.  band energies     occupation 
      1     -46.8461      2.00000
      2     -46.8304      2.00000
      3     -46.8086      2.00000
      4     -46.7916      2.00000
      5      -2.3956      2.00000
      6      -0.4335      2.00000
      7       2.3355      0.00000
      8       2.5743      0.00000
      9       2.9301      0.00000
     10       3.8210      0.00000

 k-point   263 :       0.0714    0.3333    0.0667
  band No.  band energies     occupation 
      1     -46.8454      2.00000
      2     -46.8344      2.00000
      3     -46.8016      2.00000
      4     -46.7954      2.00000
      5      -2.3686      2.00000
      6      -0.4043      2.00000
      7       2.0546      0.00000
      8       2.5082      0.00000
      9       3.0665      0.00000
     10       3.8874      0.00000

 k-point   264 :       0.0714   -0.0667    0.3333
  band No.  band energies     occupation 
      1     -46.8456      2.00000
      2     -46.8312      2.00000
      3     -46.8081      2.00000
      4     -46.7918      2.00000
      5      -2.3692      2.00000
      6      -0.4093      2.00000
      7       2.1059      0.00000
      8       2.4366      0.00000
      9       3.0736      0.00000
     10       3.8861      0.00000

 k-point   265 :       0.0714   -0.3333   -0.0667
  band No.  band energies     occupation 
      1     -46.8455      2.00000
      2     -46.8342      2.00000
      3     -46.8018      2.00000
      4     -46.7952      2.00000
      5      -2.3685      2.00000
      6      -0.4038      2.00000
      7       2.0440      0.00000
      8       2.4781      0.00000
      9       3.1408      0.00000
     10       3.8593      0.00000

 k-point   266 :       0.0714    0.0667   -0.3333
  band No.  band energies     occupation 
      1     -46.8463      2.00000
      2     -46.8297      2.00000
      3     -46.8093      2.00000
      4     -46.7914      2.00000
      5      -2.3688      2.00000
      6      -0.4099      2.00000
      7       1.9819      0.00000
      8       2.5639      0.00000
      9       3.1487      0.00000
     10       3.9148      0.00000

 k-point   267 :       0.1429    0.3333    0.0667
  band No.  band energies     occupation 
      1     -46.8448      2.00000
      2     -46.8346      2.00000
      3     -46.8018      2.00000
      4     -46.7955      2.00000
      5      -2.2889      2.00000
      6      -0.3366      2.00000
      7       1.4995      0.00000
      8       2.4697      0.00000
      9       3.1588      0.00000
     10       3.9664      0.00000

 k-point   268 :       0.1429   -0.0667    0.3333
  band No.  band energies     occupation 
      1     -46.8449      2.00000
      2     -46.8319      2.00000
      3     -46.8079      2.00000
      4     -46.7921      2.00000
      5      -2.2895      2.00000
      6      -0.3396      2.00000
      7       1.5265      0.00000
      8       2.3958      0.00000
      9       3.1851      0.00000
     10       3.9585      0.00000

 k-point   269 :       0.1429   -0.3333   -0.0667
  band No.  band energies     occupation 
      1     -46.8451      2.00000
      2     -46.8343      2.00000
      3     -46.8021      2.00000
      4     -46.7952      2.00000
      5      -2.2887      2.00000
      6      -0.3355      2.00000
      7       1.4882      0.00000
      8       2.4455      0.00000
      9       3.2255      0.00000
     10       3.9449      0.00000

 k-point   270 :       0.1429    0.0667   -0.3333
  band No.  band energies     occupation 
      1     -46.8462      2.00000
      2     -46.8291      2.00000
      3     -46.8100      2.00000
      4     -46.7914      2.00000
      5      -2.2887      2.00000
      6      -0.3405      2.00000
      7       1.4464      0.00000
      8       2.5239      0.00000
      9       3.2145      0.00000
     10       4.0082      0.00000

 k-point   271 :       0.2143    0.3333    0.0667
  band No.  band energies     occupation 
      1     -46.8440      2.00000
      2     -46.8350      2.00000
      3     -46.8021      2.00000
      4     -46.7956      2.00000
      5      -2.1561      2.00000
      6      -0.2366      2.00000
      7       0.9536      0.00000
      8       2.3291      0.00000
      9       3.1753      0.00000
     10       3.9687      0.00000

 k-point   272 :       0.2143   -0.0667    0.3333
  band No.  band energies     occupation 
      1     -46.8440      2.00000
      2     -46.8324      2.00000
      3     -46.8080      2.00000
      4     -46.7923      2.00000
      5      -2.1565      2.00000
      6      -0.2359      2.00000
      7       0.9664      0.00000
      8       2.2483      0.00000
      9       3.2242      0.00000
     10       3.9793      0.00000

 k-point   273 :       0.2143   -0.3333   -0.0667
  band No.  band energies     occupation 
      1     -46.8443      2.00000
      2     -46.8346      2.00000
      3     -46.8025      2.00000
      4     -46.7953      2.00000
      5      -2.1558      2.00000
      6      -0.2349      2.00000
      7       0.9451      0.00000
      8       2.3111      0.00000
      9       3.2165      0.00000
     10       3.9643      0.00000

 k-point   274 :       0.2143    0.0667   -0.3333
  band No.  band energies     occupation 
      1     -46.8458      2.00000
      2     -46.8287      2.00000
      3     -46.8108      2.00000
      4     -46.7915      2.00000
      5      -2.1553      2.00000
      6      -0.2355      2.00000
      7       0.9073      0.00000
      8       2.3815      0.00000
      9       3.1880      0.00000
     10       4.0262      0.00000

 k-point   275 :       0.2857    0.3333    0.0667
  band No.  band energies     occupation 
      1     -46.8430      2.00000
      2     -46.8355      2.00000
      3     -46.8025      2.00000
      4     -46.7957      2.00000
      5      -1.9705      2.00000
      6      -0.1674      2.00000
      7       0.5206      0.00000
      8       2.0417      0.00000
      9       3.2462      0.00000
     10       3.9903      0.00000

 k-point   276 :       0.2857   -0.0667    0.3333
  band No.  band energies     occupation 
      1     -46.8432      2.00000
      2     -46.8327      2.00000
      3     -46.8084      2.00000
      4     -46.7924      2.00000
      5      -1.9707      2.00000
      6      -0.1581      2.00000
      7       0.5196      0.00000
      8       1.9688      0.00000
      9       3.3025      0.00000
     10       4.0174      0.00000

 k-point   277 :       0.2857   -0.3333   -0.0667
  band No.  band energies     occupation 
      1     -46.8434      2.00000
      2     -46.8350      2.00000
      3     -46.8029      2.00000
      4     -46.7954      2.00000
      5      -1.9699      2.00000
      6      -0.1658      2.00000
      7       0.5149      0.00000
      8       2.0311      0.00000
      9       3.2635      0.00000
     10       4.0001      0.00000

 k-point   278 :       0.2857    0.0667   -0.3333
  band No.  band energies     occupation 
      1     -46.8452      2.00000
      2     -46.8287      2.00000
      3     -46.8112      2.00000
      4     -46.7916      2.00000
      5      -1.9688      2.00000
      6      -0.1528      2.00000
      7       0.4667      0.00713
      8       2.0767      0.00000
      9       3.2438      0.00000
     10       4.0787      0.00000

 k-point   279 :       0.3571    0.3333    0.0667
  band No.  band energies     occupation 
      1     -46.8420      2.00000
      2     -46.8361      2.00000
      3     -46.8029      2.00000
      4     -46.7957      2.00000
      5      -1.7326      2.00000
      6      -0.3513      2.00000
      7       0.4344      0.68199
      8       1.6752      0.00000
      9       3.3915      0.00000
     10       3.9967      0.00000

 k-point   280 :       0.3571   -0.0667    0.3333
  band No.  band energies     occupation 
      1     -46.8426      2.00000
      2     -46.8326      2.00000
      3     -46.8090      2.00000
      4     -46.7925      2.00000
      5      -1.7323      2.00000
      6      -0.3376      2.00000
      7       0.4270      1.09359
      8       1.6145      0.00000
      9       3.4482      0.00000
     10       4.0391      0.00000

 k-point   281 :       0.3571   -0.3333   -0.0667
  band No.  band energies     occupation 
      1     -46.8424      2.00000
      2     -46.8356      2.00000
      3     -46.8032      2.00000
      4     -46.7955      2.00000
      5      -1.7318      2.00000
      6      -0.3523      2.00000
      7       0.4335      0.73217
      8       1.6687      0.00000
      9       3.3932      0.00000
     10       4.0162      0.00000

 k-point   282 :       0.3571    0.0667   -0.3333
  band No.  band energies     occupation 
      1     -46.8444      2.00000
      2     -46.8291      2.00000
      3     -46.8114      2.00000
      4     -46.7918      2.00000
      5      -1.7297      2.00000
      6      -0.3380      2.00000
      7       0.3843      1.99827
      8       1.6928      0.00000
      9       3.3881      0.00000
     10       4.1165      0.00000

 k-point   283 :       0.4286    0.3333    0.0667
  band No.  band energies     occupation 
      1     -46.8412      2.00000
      2     -46.8366      2.00000
      3     -46.8032      2.00000
      4     -46.7958      2.00000
      5      -1.4439      2.00000
      6      -0.7257      2.00000
      7       0.6346      0.00000
      8       1.3000      0.00000
      9       3.5793      0.00000
     10       3.9273      0.00000

 k-point   284 :       0.4286   -0.0667    0.3333
  band No.  band energies     occupation 
      1     -46.8426      2.00000
      2     -46.8320      2.00000
      3     -46.8098      2.00000
      4     -46.7924      2.00000
      5      -1.4429      2.00000
      6      -0.7165      2.00000
      7       0.6328      0.00000
      8       1.2478      0.00000
      9       3.6328      0.00000
     10       3.9841      0.00000

 k-point   285 :       0.4286   -0.3333   -0.0667
  band No.  band energies     occupation 
      1     -46.8415      2.00000
      2     -46.8362      2.00000
      3     -46.8034      2.00000
      4     -46.7956      2.00000
      5      -1.4428      2.00000
      6      -0.7274      2.00000
      7       0.6360      0.00000
      8       1.2957      0.00000
      9       3.5703      0.00000
     10       3.9492      0.00000

 k-point   286 :       0.4286    0.0667   -0.3333
  band No.  band energies     occupation 
      1     -46.8436      2.00000
      2     -46.8300      2.00000
      3     -46.8111      2.00000
      4     -46.7920      2.00000
      5      -1.4393      2.00000
      6      -0.7214      2.00000
      7       0.5942      0.00000
      8       1.3050      0.00000
      9       3.5750      0.00000
     10       4.0594      0.00000

 k-point   287 :       0.5000    0.3333    0.0667
  band No.  band energies     occupation 
      1     -46.8410      2.00000
      2     -46.8367      2.00000
      3     -46.8033      2.00000
      4     -46.7957      2.00000
      5      -1.1336      2.00000
      6      -1.0753      2.00000
      7       0.8826      0.00000
      8       1.0005      0.00000
      9       3.7286      0.00000
     10       3.8223      0.00000

 k-point   288 :       0.5000   -0.0667    0.3333
  band No.  band energies     occupation 
      1     -46.8429      2.00000
      2     -46.8310      2.00000
      3     -46.8105      2.00000
      4     -46.7923      2.00000
      5      -1.1306      2.00000
      6      -1.0699      2.00000
      7       0.8687      0.00000
      8       0.9721      0.00000
      9       3.7323      0.00000
     10       3.9345      0.00000

 k-point   289 :       0.0000    0.4000    0.0667
  band No.  band energies     occupation 
      1     -46.8434      2.00000
      2     -46.8364      2.00000
      3     -46.8004      2.00000
      4     -46.7965      2.00000
      5      -2.1084      2.00000
      6      -0.9280      2.00000
      7       2.4775      0.00000
      8       2.5752      0.00000
      9       3.2004      0.00000
     10       3.8236      0.00000

 k-point   290 :       0.0000   -0.0667    0.4000
  band No.  band energies     occupation 
      1     -46.8447      2.00000
      2     -46.8312      2.00000
      3     -46.8093      2.00000
      4     -46.7915      2.00000
      5      -2.1093      2.00000
      6      -0.9321      2.00000
      7       2.4102      0.00000
      8       2.6473      0.00000
      9       3.2034      0.00000
     10       3.8459      0.00000

 k-point   291 :       0.0714    0.4000    0.0667
  band No.  band energies     occupation 
      1     -46.8433      2.00000
      2     -46.8364      2.00000
      3     -46.8004      2.00000
      4     -46.7965      2.00000
      5      -2.0821      2.00000
      6      -0.9035      2.00000
      7       2.2229      0.00000
      8       2.5553      0.00000
      9       3.2112      0.00000
     10       3.8522      0.00000

 k-point   292 :       0.0714   -0.0667    0.4000
  band No.  band energies     occupation 
      1     -46.8443      2.00000
      2     -46.8317      2.00000
      3     -46.8090      2.00000
      4     -46.7917      2.00000
      5      -2.0831      2.00000
      6      -0.9068      2.00000
      7       2.2943      0.00000
      8       2.4527      0.00000
      9       3.2312      0.00000
     10       3.8450      0.00000

 k-point   293 :       0.0714   -0.4000   -0.0667
  band No.  band energies     occupation 
      1     -46.8433      2.00000
      2     -46.8364      2.00000
      3     -46.8005      2.00000
      4     -46.7965      2.00000
      5      -2.0819      2.00000
      6      -0.9031      2.00000
      7       2.2157      0.00000
      8       2.5322      0.00000
      9       3.2628      0.00000
     10       3.8373      0.00000

 k-point   294 :       0.0714    0.0667   -0.4000
  band No.  band energies     occupation 
      1     -46.8449      2.00000
      2     -46.8305      2.00000
      3     -46.8098      2.00000
      4     -46.7914      2.00000
      5      -2.0827      2.00000
      6      -0.9073      2.00000
      7       2.1349      0.00000
      8       2.6399      0.00000
      9       3.2567      0.00000
     10       3.8882      0.00000

 k-point   295 :       0.1429    0.4000    0.0667
  band No.  band energies     occupation 
      1     -46.8428      2.00000
      2     -46.8365      2.00000
      3     -46.8006      2.00000
      4     -46.7967      2.00000
      5      -2.0031      2.00000
      6      -0.8304      2.00000
      7       1.7257      0.00000
      8       2.4003      0.00000
      9       3.2405      0.00000
     10       3.8399      0.00000

 k-point   296 :       0.1429   -0.0667    0.4000
  band No.  band energies     occupation 
      1     -46.8438      2.00000
      2     -46.8320      2.00000
      3     -46.8090      2.00000
      4     -46.7919      2.00000
      5      -2.0039      2.00000
      6      -0.8325      2.00000
      7       1.7660      0.00000
      8       2.3054      0.00000
      9       3.2803      0.00000
     10       3.8374      0.00000

 k-point   297 :       0.1429   -0.4000   -0.0667
  band No.  band energies     occupation 
      1     -46.8430      2.00000
      2     -46.8363      2.00000
      3     -46.8008      2.00000
      4     -46.7966      2.00000
      5      -2.0028      2.00000
      6      -0.8296      2.00000
      7       1.7159      0.00000
      8       2.3836      0.00000
      9       3.2826      0.00000
     10       3.8321      0.00000

 k-point   298 :       0.1429    0.0667   -0.4000
  band No.  band energies     occupation 
      1     -46.8448      2.00000
      2     -46.8299      2.00000
      3     -46.8105      2.00000
      4     -46.7915      2.00000
      5      -2.0032      2.00000
      6      -0.8332      2.00000
      7       1.6617      0.00000
      8       2.4721      0.00000
      9       3.2590      0.00000
     10       3.8760      0.00000

 k-point   299 :       0.2143    0.4000    0.0667
  band No.  band energies     occupation 
      1     -46.8422      2.00000
      2     -46.8367      2.00000
      3     -46.8009      2.00000
      4     -46.7969      2.00000
      5      -1.8718      2.00000
      6      -0.7128      2.00000
      7       1.1917      0.00000
      8       2.0888      0.00000
      9       3.2987      0.00000
     10       3.8711      0.00000

 k-point   300 :       0.2143   -0.0667    0.4000
  band No.  band energies     occupation 
      1     -46.8432      2.00000
      2     -46.8321      2.00000
      3     -46.8093      2.00000
      4     -46.7921      2.00000
      5      -1.8723      2.00000
      6      -0.7129      2.00000
      7       1.2141      0.00000
      8       2.0093      0.00000
      9       3.3462      0.00000
     10       3.8772      0.00000

 k-point   301 :       0.2143   -0.4000   -0.0667
  band No.  band energies     occupation 
      1     -46.8424      2.00000
      2     -46.8364      2.00000
      3     -46.8012      2.00000
      4     -46.7967      2.00000
      5      -1.8713      2.00000
      6      -0.7117      2.00000
      7       1.1840      0.00000
      8       2.0782      0.00000
      9       3.3214      0.00000
     10       3.8718      0.00000

 k-point   302 :       0.2143    0.0667   -0.4000
  band No.  band energies     occupation 
      1     -46.8446      2.00000
      2     -46.8293      2.00000
      3     -46.8113      2.00000
      4     -46.7916      2.00000
      5      -1.8711      2.00000
      6      -0.7133      2.00000
      7       1.1412      0.00000
      8       2.1387      0.00000
      9       3.2970      0.00000
     10       3.9207      0.00000

 k-point   303 :       0.2857    0.4000    0.0667
  band No.  band energies     occupation 
      1     -46.8415      2.00000
      2     -46.8368      2.00000
      3     -46.8013      2.00000
      4     -46.7971      2.00000
      5      -1.6887      2.00000
      6      -0.5646      2.00000
      7       0.6961      0.00000
      8       1.6829      0.00000
      9       3.4208      0.00000
     10       3.9637      0.00000

 k-point   304 :       0.2857   -0.0667    0.4000
  band No.  band energies     occupation 
      1     -46.8427      2.00000
      2     -46.8318      2.00000
      3     -46.8098      2.00000
      4     -46.7923      2.00000
      5      -1.6887      2.00000
      6      -0.5609      2.00000
      7       0.7064      0.00000
      8       1.6197      0.00000
      9       3.4678      0.00000
     10       3.9786      0.00000

 k-point   305 :       0.2857   -0.4000   -0.0667
  band No.  band energies     occupation 
      1     -46.8417      2.00000
      2     -46.8365      2.00000
      3     -46.8016      2.00000
      4     -46.7969      2.00000
      5      -1.6881      2.00000
      6      -0.5632      2.00000
      7       0.6904      0.00000
      8       1.6762      0.00000
      9       3.4297      0.00000
     10       3.9695      0.00000

 k-point   306 :       0.2857    0.0667   -0.4000
  band No.  band energies     occupation 
      1     -46.8442      2.00000
      2     -46.8288      2.00000
      3     -46.8119      2.00000
      4     -46.7918      2.00000
      5      -1.6870      2.00000
      6      -0.5590      2.00000
      7       0.6482      0.00000
      8       1.7121      0.00000
      9       3.4146      0.00000
     10       4.0358      0.00000

 k-point   307 :       0.3571    0.4000    0.0667
  band No.  band energies     occupation 
      1     -46.8407      2.00000
      2     -46.8371      2.00000
      3     -46.8017      2.00000
      4     -46.7972      2.00000
      5      -1.4557      2.00000
      6      -0.4469      2.00000
      7       0.3198      2.00000
      8       1.2590      0.00000
      9       3.5941      0.00000
     10       4.0609      0.00000

 k-point   308 :       0.3571   -0.0667    0.4000
  band No.  band energies     occupation 
      1     -46.8425      2.00000
      2     -46.8313      2.00000
      3     -46.8104      2.00000
      4     -46.7925      2.00000
      5      -1.4545      2.00000
      6      -0.4360      2.00000
      7       0.3189      2.00000
      8       1.2066      0.00000
      9       3.6405      0.00000
     10       4.0903      0.00000

 k-point   309 :       0.3571   -0.4000   -0.0667
  band No.  band energies     occupation 
      1     -46.8410      2.00000
      2     -46.8368      2.00000
      3     -46.8019      2.00000
      4     -46.7971      2.00000
      5      -1.4548      2.00000
      6      -0.4457      2.00000
      7       0.3162      2.00000
      8       1.2544      0.00000
      9       3.5937      0.00000
     10       4.0712      0.00000

 k-point   310 :       0.3571    0.0667   -0.4000
  band No.  band energies     occupation 
      1     -46.8437      2.00000
      2     -46.8287      2.00000
      3     -46.8122      2.00000
      4     -46.7920      2.00000
      5      -1.4523      2.00000
      6      -0.4273      2.00000
      7       0.2624      2.00000
      8       1.2739      0.00000
      9       3.5869      0.00000
     10       4.1658      0.00000

 k-point   311 :       0.4286    0.4000    0.0667
  band No.  band energies     occupation 
      1     -46.8402      2.00000
      2     -46.8373      2.00000
      3     -46.8019      2.00000
      4     -46.7973      2.00000
      5      -1.1766      2.00000
      6      -0.5552      2.00000
      7       0.2651      2.00000
      8       0.8604      0.00000
      9       3.7926      0.00000
     10       4.0832      0.00000

 k-point   312 :       0.4286   -0.0667    0.4000
  band No.  band energies     occupation 
      1     -46.8425      2.00000
      2     -46.8305      2.00000
      3     -46.8112      2.00000
      4     -46.7925      2.00000
      5      -1.1734      2.00000
      6      -0.5417      2.00000
      7       0.2606      2.00000
      8       0.8135      0.00000
      9       3.8339      0.00000
     10       4.1386      0.00000

 k-point   313 :       0.4286   -0.4000   -0.0667
  band No.  band energies     occupation 
      1     -46.8403      2.00000
      2     -46.8371      2.00000
      3     -46.8020      2.00000
      4     -46.7972      2.00000
      5      -1.1754      2.00000
      6      -0.5559      2.00000
      7       0.2650      2.00000
      8       0.8573      0.00000
      9       3.7852      0.00000
     10       4.0967      0.00000

 k-point   314 :       0.4286    0.0667   -0.4000
  band No.  band energies     occupation 
      1     -46.8432      2.00000
      2     -46.8290      2.00000
      3     -46.8122      2.00000
      4     -46.7923      2.00000
      5      -1.1709      2.00000
      6      -0.5364      2.00000
      7       0.2105      2.00000
      8       0.8657      0.00000
      9       3.7810      0.00000
     10       4.2188      0.00000

 k-point   315 :       0.5000    0.4000    0.0667
  band No.  band energies     occupation 
      1     -46.8400      2.00000
      2     -46.8373      2.00000
      3     -46.8021      2.00000
      4     -46.7973      2.00000
      5      -0.8892      2.00000
      6      -0.8301      2.00000
      7       0.4606      0.02380
      8       0.5558      0.00000
      9       3.9382      0.00000
     10       4.0199      0.00000

 k-point   316 :       0.5000   -0.0667    0.4000
  band No.  band energies     occupation 
      1     -46.8428      2.00000
      2     -46.8297      2.00000
      3     -46.8118      2.00000
      4     -46.7924      2.00000
      5      -0.8852      2.00000
      6      -0.8174      2.00000
      7       0.4355      0.62658
      8       0.5353      0.00000
      9       3.9238      0.00000
     10       4.1499      0.00000

 k-point   317 :       0.0000    0.4667    0.0667
  band No.  band energies     occupation 
      1     -46.8411      2.00000
      2     -46.8387      2.00000
      3     -46.7991      2.00000
      4     -46.7977      2.00000
      5      -1.7685      2.00000
      6      -1.3750      2.00000
      7       2.5518      0.00000
      8       2.5885      0.00000
      9       3.4832      0.00000
     10       3.7189      0.00000

 k-point   318 :       0.0000   -0.0667    0.4667
  band No.  band energies     occupation 
      1     -46.8438      2.00000
      2     -46.8317      2.00000
      3     -46.8097      2.00000
      4     -46.7914      2.00000
      5      -1.7702      2.00000
      6      -1.3776      2.00000
      7       2.4554      0.00000
      8       2.6868      0.00000
      9       3.4835      0.00000
     10       3.7423      0.00000

 k-point   319 :       0.0714    0.4667    0.0667
  band No.  band energies     occupation 
      1     -46.8410      2.00000
      2     -46.8387      2.00000
      3     -46.7991      2.00000
      4     -46.7978      2.00000
      5      -1.7425      2.00000
      6      -1.3496      2.00000
      7       2.3817      0.00000
      8       2.5042      0.00000
      9       3.4302      0.00000
     10       3.6739      0.00000

 k-point   320 :       0.0714   -0.0667    0.4667
  band No.  band energies     occupation 
      1     -46.8436      2.00000
      2     -46.8318      2.00000
      3     -46.8097      2.00000
      4     -46.7915      2.00000
      5      -1.7442      2.00000
      6      -1.3516      2.00000
      7       2.3922      0.00000
      8       2.4729      0.00000
      9       3.4497      0.00000
     10       3.6777      0.00000

 k-point   321 :       0.0714   -0.4667   -0.0667
  band No.  band energies     occupation 
      1     -46.8410      2.00000
      2     -46.8387      2.00000
      3     -46.7992      2.00000
      4     -46.7978      2.00000
      5      -1.7423      2.00000
      6      -1.3494      2.00000
      7       2.3749      0.00000
      8       2.4924      0.00000
      9       3.4541      0.00000
     10       3.6760      0.00000

 k-point   322 :       0.0714    0.0667   -0.4667
  band No.  band energies     occupation 
      1     -46.8438      2.00000
      2     -46.8313      2.00000
      3     -46.8100      2.00000
      4     -46.7915      2.00000
      5      -1.7438      2.00000
      6      -1.3520      2.00000
      7       2.2792      0.00000
      8       2.6020      0.00000
      9       3.4417      0.00000
     10       3.7073      0.00000

 k-point   323 :       0.1429    0.4667    0.0667
  band No.  band energies     occupation 
      1     -46.8407      2.00000
      2     -46.8386      2.00000
      3     -46.7993      2.00000
      4     -46.7980      2.00000
      5      -1.6647      2.00000
      6      -1.2736      2.00000
      7       1.9715      0.00000
      8       2.2116      0.00000
      9       3.4200      0.00000
     10       3.6396      0.00000

 k-point   324 :       0.1429   -0.0667    0.4667
  band No.  band energies     occupation 
      1     -46.8434      2.00000
      2     -46.8317      2.00000
      3     -46.8099      2.00000
      4     -46.7918      2.00000
      5      -1.6661      2.00000
      6      -1.2747      2.00000
      7       2.0251      0.00000
      8       2.1223      0.00000
      9       3.4539      0.00000
     10       3.6430      0.00000

 k-point   325 :       0.1429   -0.4667   -0.0667
  band No.  band energies     occupation 
      1     -46.8408      2.00000
      2     -46.8385      2.00000
      3     -46.7994      2.00000
      4     -46.7980      2.00000
      5      -1.6643      2.00000
      6      -1.2731      2.00000
      7       1.9623      0.00000
      8       2.2011      0.00000
      9       3.4408      0.00000
     10       3.6451      0.00000

 k-point   326 :       0.1429    0.0667   -0.4667
  band No.  band energies     occupation 
      1     -46.8438      2.00000
      2     -46.8308      2.00000
      3     -46.8105      2.00000
      4     -46.7916      2.00000
      5      -1.6654      2.00000
      6      -1.2754      2.00000
      7       1.8940      0.00000
      8       2.2799      0.00000
      9       3.4193      0.00000
     10       3.6774      0.00000

 k-point   327 :       0.2143    0.4667    0.0667
  band No.  band energies     occupation 
      1     -46.8403      2.00000
      2     -46.8385      2.00000
      3     -46.7996      2.00000
      4     -46.7983      2.00000
      5      -1.5357      2.00000
      6      -1.1486      2.00000
      7       1.4752      0.00000
      8       1.7839      0.00000
      9       3.4940      0.00000
     10       3.7023      0.00000

 k-point   328 :       0.2143   -0.0667    0.4667
  band No.  band energies     occupation 
      1     -46.8431      2.00000
      2     -46.8313      2.00000
      3     -46.8104      2.00000
      4     -46.7920      2.00000
      5      -1.5365      2.00000
      6      -1.1482      2.00000
      7       1.5063      0.00000
      8       1.7159      0.00000
      9       3.5289      0.00000
     10       3.7095      0.00000

 k-point   329 :       0.2143   -0.4667   -0.0667
  band No.  band energies     occupation 
      1     -46.8404      2.00000
      2     -46.8384      2.00000
      3     -46.7997      2.00000
      4     -46.7982      2.00000
      5      -1.5351      2.00000
      6      -1.1478      2.00000
      7       1.4680      0.00000
      8       1.7762      0.00000
      9       3.5061      0.00000
     10       3.7078      0.00000

 k-point   330 :       0.2143    0.0667   -0.4667
  band No.  band energies     occupation 
      1     -46.8436      2.00000
      2     -46.8302      2.00000
      3     -46.8111      2.00000
      4     -46.7918      2.00000
      5      -1.5354      2.00000
      6      -1.1491      2.00000
      7       1.4166      0.00000
      8       1.8253      0.00000
      9       3.4845      0.00000
     10       3.7508      0.00000

 k-point   331 :       0.2857    0.4667    0.0667
  band No.  band energies     occupation 
      1     -46.8399      2.00000
      2     -46.8383      2.00000
      3     -46.8000      2.00000
      4     -46.7985      2.00000
      5      -1.3572      2.00000
      6      -0.9791      2.00000
      7       0.9816      0.00000
      8       1.3184      0.00000
      9       3.6330      0.00000
     10       3.8336      0.00000

 k-point   332 :       0.2857   -0.0667    0.4667
  band No.  band energies     occupation 
      1     -46.8428      2.00000
      2     -46.8307      2.00000
      3     -46.8110      2.00000
      4     -46.7922      2.00000
      5      -1.3569      2.00000
      6      -0.9764      2.00000
      7       0.9984      0.00000
      8       1.2643      0.00000
      9       3.6637      0.00000
     10       3.8513      0.00000

 k-point   333 :       0.2857   -0.4667   -0.0667
  band No.  band energies     occupation 
      1     -46.8400      2.00000
      2     -46.8382      2.00000
      3     -46.8001      2.00000
      4     -46.7985      2.00000
      5      -1.3565      2.00000
      6      -0.9780      2.00000
      7       0.9763      0.00000
      8       1.3129      0.00000
      9       3.6382      0.00000
     10       3.8377      0.00000

 k-point   334 :       0.2857    0.0667   -0.4667
  band No.  band energies     occupation 
      1     -46.8434      2.00000
      2     -46.8296      2.00000
      3     -46.8118      2.00000
      4     -46.7920      2.00000
      5      -1.3556      2.00000
      6      -0.9767      2.00000
      7       0.9321      0.00000
      8       1.3421      0.00000
      9       3.6190      0.00000
     10       3.8975      0.00000

 k-point   335 :       0.3571    0.4667    0.0667
  band No.  band energies     occupation 
      1     -46.8394      2.00000
      2     -46.8382      2.00000
      3     -46.8003      2.00000
      4     -46.7988      2.00000
      5      -1.1337      2.00000
      6      -0.7789      2.00000
      7       0.5371      0.00000
      8       0.8708      0.00000
      9       3.8133      0.00000
     10       3.9946      0.00000

 k-point   336 :       0.3571   -0.0667    0.4667
  band No.  band energies     occupation 
      1     -46.8426      2.00000
      2     -46.8300      2.00000
      3     -46.8116      2.00000
      4     -46.7924      2.00000
      5      -1.1310      2.00000
      6      -0.7722      2.00000
      7       0.5432      0.00000
      8       0.8238      0.00000
      9       3.8378      0.00000
     10       4.0331      0.00000

 k-point   337 :       0.3571   -0.4667   -0.0667
  band No.  band energies     occupation 
      1     -46.8395      2.00000
      2     -46.8381      2.00000
      3     -46.8003      2.00000
      4     -46.7987      2.00000
      5      -1.1327      2.00000
      6      -0.7777      2.00000
      7       0.5332      0.00000
      8       0.8668      0.00000
      9       3.8133      0.00000
     10       3.9975      0.00000

 k-point   338 :       0.3571    0.0667   -0.4667
  band No.  band energies     occupation 
      1     -46.8431      2.00000
      2     -46.8290      2.00000
      3     -46.8123      2.00000
      4     -46.7923      2.00000
      5      -1.1300      2.00000
      6      -0.7699      2.00000
      7       0.4876      0.00003
      8       0.8832      0.00000
      9       3.7941      0.00000
     10       4.0859      0.00000

 k-point   339 :       0.4286    0.4667    0.0667
  band No.  band energies     occupation 
      1     -46.8391      2.00000
      2     -46.8381      2.00000
      3     -46.8005      2.00000
      4     -46.7989      2.00000
      5      -0.8784      2.00000
      6      -0.6054      2.00000
      7       0.2114      2.00000
      8       0.4765      0.00071
      9       4.0018      0.00000
     10       4.1268      0.00000

 k-point   340 :       0.4286   -0.0667    0.4667
  band No.  band energies     occupation 
      1     -46.8426      2.00000
      2     -46.8294      2.00000
      3     -46.8122      2.00000
      4     -46.7925      2.00000
      5      -0.8711      2.00000
      6      -0.5909      2.00000
      7       0.2063      2.00000
      8       0.4308      0.87601
      9       4.0070      0.00000
     10       4.2141      0.00000

 k-point   341 :       0.4286   -0.4667   -0.0667
  band No.  band energies     occupation 
      1     -46.8392      2.00000
      2     -46.8381      2.00000
      3     -46.8005      2.00000
      4     -46.7989      2.00000
      5      -0.8772      2.00000
      6      -0.6045      2.00000
      7       0.2094      2.00000
      8       0.4739      0.00137
      9       3.9981      0.00000
     10       4.1301      0.00000

 k-point   342 :       0.4286    0.0667   -0.4667
  band No.  band energies     occupation 
      1     -46.8428      2.00000
      2     -46.8288      2.00000
      3     -46.8126      2.00000
      4     -46.7924      2.00000
      5      -0.8722      2.00000
      6      -0.5811      2.00000
      7       0.1503      2.00000
      8       0.4815      0.00019
      9       3.9709      0.00000
     10       4.2667      0.00000

 k-point   343 :       0.5000    0.4667    0.0667
  band No.  band energies     occupation 
      1     -46.8390      2.00000
      2     -46.8381      2.00000
      3     -46.8006      2.00000
      4     -46.7990      2.00000
      5      -0.6598      2.00000
      6      -0.6244      2.00000
      7       0.1708      2.00000
      8       0.2183      2.00000
      9       4.1161      0.00000
     10       4.1541      0.00000

 k-point   344 :       0.5000   -0.0667    0.4667
  band No.  band energies     occupation 
      1     -46.8427      2.00000
      2     -46.8289      2.00000
      3     -46.8126      2.00000
      4     -46.7925      2.00000
      5      -0.6619      2.00000
      6      -0.5864      2.00000
      7       0.1140      2.00000
      8       0.2130      2.00000
      9       4.0712      0.00000
     10       4.3253      0.00000

 k-point   345 :       0.0000    0.1333    0.1333
  band No.  band energies     occupation 
      1     -46.8496      2.00000
      2     -46.8297      2.00000
      3     -46.8050      2.00000
      4     -46.7926      2.00000
      5      -2.8626      2.00000
      6       1.2950      0.00000
      7       1.6317      0.00000
      8       2.2657      0.00000
      9       2.4582      0.00000
     10       3.9418      0.00000

 k-point   346 :       0.0714    0.1333    0.1333
  band No.  band energies     occupation 
      1     -46.8492      2.00000
      2     -46.8302      2.00000
      3     -46.8047      2.00000
      4     -46.7927      2.00000
      5      -2.8359      2.00000
      6       1.3096      0.00000
      7       1.5861      0.00000
      8       1.8039      0.00000
      9       2.8998      0.00000
     10       4.0150      0.00000

 k-point   347 :       0.0714   -0.1333   -0.1333
  band No.  band energies     occupation 
      1     -46.8495      2.00000
      2     -46.8295      2.00000
      3     -46.8055      2.00000
      4     -46.7923      2.00000
      5      -2.8357      2.00000
      6       1.3143      0.00000
      7       1.5576      0.00000
      8       1.7909      0.00000
      9       2.9970      0.00000
     10       3.9832      0.00000

 k-point   348 :       0.1429    0.1333    0.1333
  band No.  band energies     occupation 
      1     -46.8484      2.00000
      2     -46.8311      2.00000
      3     -46.8045      2.00000
      4     -46.7928      2.00000
      5      -2.7554      2.00000
      6       1.0042      0.00000
      7       1.4282      0.00000
      8       1.7569      0.00000
      9       3.2416      0.00000
     10       4.1810      0.00000

 k-point   349 :       0.1429   -0.1333   -0.1333
  band No.  band energies     occupation 
      1     -46.8490      2.00000
      2     -46.8296      2.00000
      3     -46.8060      2.00000
      4     -46.7922      2.00000
      5      -2.7550      2.00000
      6       0.9874      0.00000
      7       1.4171      0.00000
      8       1.7586      0.00000
      9       3.3604      0.00000
     10       4.1554      0.00000

 k-point   350 :       0.2143    0.1333    0.1333
  band No.  band energies     occupation 
      1     -46.8472      2.00000
      2     -46.8321      2.00000
      3     -46.8046      2.00000
      4     -46.7928      2.00000
      5      -2.6210      2.00000
      6       0.4082      1.85254
      7       1.5465      0.00000
      8       1.8429      0.00000
      9       3.3384      0.00000
     10       4.2420      0.00000

 k-point   351 :       0.2143   -0.1333   -0.1333
  band No.  band energies     occupation 
      1     -46.8481      2.00000
      2     -46.8301      2.00000
      3     -46.8065      2.00000
      4     -46.7920      2.00000
      5      -2.6204      2.00000
      6       0.3946      1.98396
      7       1.5375      0.00000
      8       1.8461      0.00000
      9       3.4328      0.00000
     10       4.2530      0.00000

 k-point   352 :       0.2857    0.1333    0.1333
  band No.  band energies     occupation 
      1     -46.8457      2.00000
      2     -46.8334      2.00000
      3     -46.8050      2.00000
      4     -46.7927      2.00000
      5      -2.4328      2.00000
      6      -0.1550      2.00000
      7       1.7157      0.00000
      8       1.9635      0.00000
      9       3.3003      0.00000
     10       4.0866      0.00000

 k-point   353 :       0.2857   -0.1333   -0.1333
  band No.  band energies     occupation 
      1     -46.8469      2.00000
      2     -46.8311      2.00000
      3     -46.8068      2.00000
      4     -46.7920      2.00000
      5      -2.4318      2.00000
      6      -0.1646      2.00000
      7       1.7006      0.00000
      8       1.9746      0.00000
      9       3.3584      0.00000
     10       4.1158      0.00000

 k-point   354 :       0.3571    0.1333    0.1333
  band No.  band energies     occupation 
      1     -46.8442      2.00000
      2     -46.8346      2.00000
      3     -46.8054      2.00000
      4     -46.7926      2.00000
      5      -2.1903      2.00000
      6      -0.6692      2.00000
      7       1.9140      0.00000
      8       2.0988      0.00000
      9       3.2115      0.00000
     10       3.7840      0.00000

 k-point   355 :       0.3571   -0.1333   -0.1333
  band No.  band energies     occupation 
      1     -46.8455      2.00000
      2     -46.8325      2.00000
      3     -46.8068      2.00000
      4     -46.7920      2.00000
      5      -2.1888      2.00000
      6      -0.6758      2.00000
      7       1.8851      0.00000
      8       2.1298      0.00000
      9       3.2254      0.00000
     10       3.8246      0.00000

 k-point   356 :       0.4286    0.1333    0.1333
  band No.  band energies     occupation 
      1     -46.8432      2.00000
      2     -46.8353      2.00000
      3     -46.8059      2.00000
      4     -46.7924      2.00000
      5      -1.8936      2.00000
      6      -1.1303      2.00000
      7       2.1059      0.00000
      8       2.2098      0.00000
      9       3.1582      0.00000
     10       3.4535      0.00000

 k-point   357 :       0.4286   -0.1333   -0.1333
  band No.  band energies     occupation 
      1     -46.8441      2.00000
      2     -46.8339      2.00000
      3     -46.8066      2.00000
      4     -46.7921      2.00000
      5      -1.8915      2.00000
      6      -1.1348      2.00000
      7       2.0593      0.00000
      8       2.2674      0.00000
      9       3.1231      0.00000
     10       3.5056      0.00000

 k-point   358 :       0.5000    0.1333    0.1333
  band No.  band energies     occupation 
      1     -46.8432      2.00000
      2     -46.8350      2.00000
      3     -46.8063      2.00000
      4     -46.7922      2.00000
      5      -1.5637      2.00000
      6      -1.5160      2.00000
      7       2.1696      0.00000
      8       2.2844      0.00000
      9       3.1712      0.00000
     10       3.2767      0.00000

 k-point   359 :       0.0000    0.2000    0.1333
  band No.  band energies     occupation 
      1     -46.8484      2.00000
      2     -46.8308      2.00000
      3     -46.8043      2.00000
      4     -46.7933      2.00000
      5      -2.7333      2.00000
      6       0.7712      0.00000
      7       1.6251      0.00000
      8       2.3427      0.00000
      9       2.5465      0.00000
     10       4.0371      0.00000

 k-point   360 :       0.0000   -0.1333    0.2000
  band No.  band energies     occupation 
      1     -46.8485      2.00000
      2     -46.8299      2.00000
      3     -46.8060      2.00000
      4     -46.7924      2.00000
      5      -2.7334      2.00000
      6       0.7615      0.00000
      7       1.6349      0.00000
      8       2.3496      0.00000
      9       2.5413      0.00000
     10       4.0567      0.00000

 k-point   361 :       0.0714    0.2000    0.1333
  band No.  band energies     occupation 
      1     -46.8481      2.00000
      2     -46.8313      2.00000
      3     -46.8040      2.00000
      4     -46.7934      2.00000
      5      -2.7066      2.00000
      6       0.7885      0.00000
      7       1.6176      0.00000
      8       1.8698      0.00000
      9       2.9451      0.00000
     10       4.1126      0.00000

 k-point   362 :       0.0714   -0.1333    0.2000
  band No.  band energies     occupation 
      1     -46.8480      2.00000
      2     -46.8306      2.00000
      3     -46.8055      2.00000
      4     -46.7926      2.00000
      5      -2.7067      2.00000
      6       0.7822      0.00000
      7       1.6172      0.00000
      8       1.8841      0.00000
      9       2.9301      0.00000
     10       4.1243      0.00000

 k-point   363 :       0.0714   -0.2000   -0.1333
  band No.  band energies     occupation 
      1     -46.8484      2.00000
      2     -46.8306      2.00000
      3     -46.8047      2.00000
      4     -46.7931      2.00000
      5      -2.7064      2.00000
      6       0.7917      0.00000
      7       1.6018      0.00000
      8       1.8421      0.00000
      9       3.0397      0.00000
     10       4.0800      0.00000

 k-point   364 :       0.0714    0.1333   -0.2000
  band No.  band energies     occupation 
      1     -46.8485      2.00000
      2     -46.8295      2.00000
      3     -46.8066      2.00000
      4     -46.7922      2.00000
      5      -2.7065      2.00000
      6       0.7808      0.00000
      7       1.6051      0.00000
      8       1.8474      0.00000
      9       3.0536      0.00000
     10       4.1071      0.00000

 k-point   365 :       0.1429    0.2000    0.1333
  band No.  band energies     occupation 
      1     -46.8473      2.00000
      2     -46.8319      2.00000
      3     -46.8040      2.00000
      4     -46.7935      2.00000
      5      -2.6263      2.00000
      6       0.8054      0.00000
      7       1.2292      0.00000
      8       1.7462      0.00000
      9       3.2490      0.00000
     10       4.2585      0.00000

 k-point   366 :       0.1429   -0.1333    0.2000
  band No.  band energies     occupation 
      1     -46.8472      2.00000
      2     -46.8315      2.00000
      3     -46.8053      2.00000
      4     -46.7928      2.00000
      5      -2.6264      2.00000
      6       0.8094      0.00000
      7       1.2175      0.00000
      8       1.7556      0.00000
      9       3.2352      0.00000
     10       4.2571      0.00000

 k-point   367 :       0.1429   -0.2000   -0.1333
  band No.  band energies     occupation 
      1     -46.8479      2.00000
      2     -46.8307      2.00000
      3     -46.8052      2.00000
      4     -46.7929      2.00000
      5      -2.6259      2.00000
      6       0.8116      0.00000
      7       1.1998      0.00000
      8       1.7384      0.00000
      9       3.3604      0.00000
     10       4.2258      0.00000

 k-point   368 :       0.1429    0.1333   -0.2000
  band No.  band energies     occupation 
      1     -46.8481      2.00000
      2     -46.8294      2.00000
      3     -46.8073      2.00000
      4     -46.7920      2.00000
      5      -2.6259      2.00000
      6       0.8073      0.00000
      7       1.1796      0.00000
      8       1.7641      0.00000
      9       3.3745      0.00000
     10       4.2640      0.00000

 k-point   369 :       0.2143    0.2000    0.1333
  band No.  band energies     occupation 
      1     -46.8462      2.00000
      2     -46.8328      2.00000
      3     -46.8041      2.00000
      4     -46.7936      2.00000
      5      -2.4923      2.00000
      6       0.4782      0.00046
      7       1.0879      0.00000
      8       1.8315      0.00000
      9       3.3149      0.00000
     10       4.2439      0.00000

 k-point   370 :       0.2143   -0.1333    0.2000
  band No.  band energies     occupation 
      1     -46.8460      2.00000
      2     -46.8325      2.00000
      3     -46.8054      2.00000
      4     -46.7929      2.00000
      5      -2.4924      2.00000
      6       0.4873      0.00003
      7       1.0731      0.00000
      8       1.8330      0.00000
      9       3.3029      0.00000
     10       4.2525      0.00000

 k-point   371 :       0.2143   -0.2000   -0.1333
  band No.  band energies     occupation 
      1     -46.8471      2.00000
      2     -46.8312      2.00000
      3     -46.8057      2.00000
      4     -46.7929      2.00000
      5      -2.4916      2.00000
      6       0.4701      0.00341
      7       1.0828      0.00000
      8       1.8182      0.00000
      9       3.4047      0.00000
     10       4.2462      0.00000

 k-point   372 :       0.2143    0.1333   -0.2000
  band No.  band energies     occupation 
      1     -46.8474      2.00000
      2     -46.8297      2.00000
      3     -46.8078      2.00000
      4     -46.7919      2.00000
      5      -2.4915      2.00000
      6       0.4727      0.00184
      7       1.0532      0.00000
      8       1.8500      0.00000
      9       3.4099      0.00000
     10       4.2833      0.00000

 k-point   373 :       0.2857    0.2000    0.1333
  band No.  band energies     occupation 
      1     -46.8449      2.00000
      2     -46.8339      2.00000
      3     -46.8045      2.00000
      4     -46.7935      2.00000
      5      -2.3045      2.00000
      6      -0.0505      2.00000
      7       1.2305      0.00000
      8       1.9452      0.00000
      9       3.2272      0.00000
     10       3.9995      0.00000

 k-point   374 :       0.2857   -0.1333    0.2000
  band No.  band energies     occupation 
      1     -46.8447      2.00000
      2     -46.8335      2.00000
      3     -46.8057      2.00000
      4     -46.7929      2.00000
      5      -2.3046      2.00000
      6      -0.0456      2.00000
      7       1.2221      0.00000
      8       1.9358      0.00000
      9       3.2192      0.00000
     10       4.0343      0.00000

 k-point   375 :       0.2857   -0.2000   -0.1333
  band No.  band energies     occupation 
      1     -46.8460      2.00000
      2     -46.8320      2.00000
      3     -46.8060      2.00000
      4     -46.7928      2.00000
      5      -2.3035      2.00000
      6      -0.0586      2.00000
      7       1.2323      0.00000
      8       1.9270      0.00000
      9       3.2838      0.00000
     10       4.0291      0.00000

 k-point   376 :       0.2857    0.1333   -0.2000
  band No.  band energies     occupation 
      1     -46.8464      2.00000
      2     -46.8304      2.00000
      3     -46.8081      2.00000
      4     -46.7920      2.00000
      5      -2.3032      2.00000
      6      -0.0580      2.00000
      7       1.2008      0.00000
      8       1.9662      0.00000
      9       3.2734      0.00000
     10       4.0685      0.00000

 k-point   377 :       0.3571    0.2000    0.1333
  band No.  band energies     occupation 
      1     -46.8435      2.00000
      2     -46.8349      2.00000
      3     -46.8049      2.00000
      4     -46.7934      2.00000
      5      -2.0628      2.00000
      6      -0.5536      2.00000
      7       1.4335      0.00000
      8       2.0476      0.00000
      9       3.0841      0.00000
     10       3.6745      0.00000

 k-point   378 :       0.3571   -0.1333    0.2000
  band No.  band energies     occupation 
      1     -46.8434      2.00000
      2     -46.8343      2.00000
      3     -46.8062      2.00000
      4     -46.7928      2.00000
      5      -2.0629      2.00000
      6      -0.5505      2.00000
      7       1.4317      0.00000
      8       2.0190      0.00000
      9       3.0919      0.00000
     10       3.7170      0.00000

 k-point   379 :       0.3571   -0.2000   -0.1333
  band No.  band energies     occupation 
      1     -46.8447      2.00000
      2     -46.8331      2.00000
      3     -46.8061      2.00000
      4     -46.7929      2.00000
      5      -2.0613      2.00000
      6      -0.5596      2.00000
      7       1.4383      0.00000
      8       2.0273      0.00000
      9       3.1085      0.00000
     10       3.7146      0.00000

 k-point   380 :       0.3571    0.1333   -0.2000
  band No.  band energies     occupation 
      1     -46.8451      2.00000
      2     -46.8315      2.00000
      3     -46.8081      2.00000
      4     -46.7921      2.00000
      5      -2.0608      2.00000
      6      -0.5594      2.00000
      7       1.4024      0.00000
      8       2.0713      0.00000
      9       3.0861      0.00000
     10       3.7597      0.00000

 k-point   381 :       0.4286    0.2000    0.1333
  band No.  band energies     occupation 
      1     -46.8426      2.00000
      2     -46.8355      2.00000
      3     -46.8054      2.00000
      4     -46.7933      2.00000
      5      -1.7674      2.00000
      6      -1.0091      2.00000
      7       1.6610      0.00000
      8       2.0600      0.00000
      9       3.0189      0.00000
     10       3.3667      0.00000

 k-point   382 :       0.4286   -0.1333    0.2000
  band No.  band energies     occupation 
      1     -46.8427      2.00000
      2     -46.8346      2.00000
      3     -46.8068      2.00000
      4     -46.7926      2.00000
      5      -1.7675      2.00000
      6      -1.0070      2.00000
      7       1.6707      0.00000
      8       2.0062      0.00000
      9       3.0525      0.00000
     10       3.3997      0.00000

 k-point   383 :       0.4286   -0.2000   -0.1333
  band No.  band energies     occupation 
      1     -46.8434      2.00000
      2     -46.8343      2.00000
      3     -46.8060      2.00000
      4     -46.7930      2.00000
      5      -1.7653      2.00000
      6      -1.0134      2.00000
      7       1.6679      0.00000
      8       2.0441      0.00000
      9       3.0151      0.00000
     10       3.4038      0.00000

 k-point   384 :       0.4286    0.1333   -0.2000
  band No.  band energies     occupation 
      1     -46.8439      2.00000
      2     -46.8328      2.00000
      3     -46.8078      2.00000
      4     -46.7922      2.00000
      5      -1.7644      2.00000
      6      -1.0133      2.00000
      7       1.6291      0.00000
      8       2.0752      0.00000
      9       3.0018      0.00000
     10       3.4512      0.00000

 k-point   385 :       0.5000    0.2000    0.1333
  band No.  band energies     occupation 
      1     -46.8425      2.00000
      2     -46.8353      2.00000
      3     -46.8058      2.00000
      4     -46.7932      2.00000
      5      -1.4412      2.00000
      6      -1.3898      2.00000
      7       1.8319      0.00000
      8       1.9688      0.00000
      9       3.0751      0.00000
     10       3.1884      0.00000

 k-point   386 :       0.5000   -0.1333    0.2000
  band No.  band energies     occupation 
      1     -46.8430      2.00000
      2     -46.8340      2.00000
      3     -46.8074      2.00000
      4     -46.7924      2.00000
      5      -1.4406      2.00000
      6      -1.3890      2.00000
      7       1.8346      0.00000
      8       1.9309      0.00000
      9       3.0992      0.00000
     10       3.2233      0.00000

 k-point   387 :       0.0000    0.2667    0.1333
  band No.  band energies     occupation 
      1     -46.8469      2.00000
      2     -46.8323      2.00000
      3     -46.8033      2.00000
      4     -46.7942      2.00000
      5      -2.5521      2.00000
      6       0.1858      2.00000
      7       1.7616      0.00000
      8       2.4318      0.00000
      9       2.6713      0.00000
     10       4.0127      0.00000

 k-point   388 :       0.0000   -0.1333    0.2667
  band No.  band energies     occupation 
      1     -46.8471      2.00000
      2     -46.8303      2.00000
      3     -46.8071      2.00000
      4     -46.7923      2.00000
      5      -2.5523      2.00000
      6       0.1780      2.00000
      7       1.7682      0.00000
      8       2.4412      0.00000
      9       2.6652      0.00000
     10       4.0322      0.00000

 k-point   389 :       0.0714    0.2667    0.1333
  band No.  band energies     occupation 
      1     -46.8466      2.00000
      2     -46.8327      2.00000
      3     -46.8031      2.00000
      4     -46.7944      2.00000
      5      -2.5254      2.00000
      6       0.2068      2.00000
      7       1.7575      0.00000
      8       2.0018      0.00000
      9       2.9871      0.00000
     10       4.0875      0.00000

 k-point   390 :       0.0714   -0.1333    0.2667
  band No.  band energies     occupation 
      1     -46.8466      2.00000
      2     -46.8311      2.00000
      3     -46.8066      2.00000
      4     -46.7925      2.00000
      5      -2.5257      2.00000
      6       0.2010      2.00000
      7       1.7586      0.00000
      8       2.0209      0.00000
      9       2.9562      0.00000
     10       4.0933      0.00000

 k-point   391 :       0.0714   -0.2667   -0.1333
  band No.  band energies     occupation 
      1     -46.8469      2.00000
      2     -46.8322      2.00000
      3     -46.8037      2.00000
      4     -46.7941      2.00000
      5      -2.5252      2.00000
      6       0.2086      2.00000
      7       1.7480      0.00000
      8       1.9674      0.00000
      9       3.0744      0.00000
     10       4.0613      0.00000

 k-point   392 :       0.0714    0.1333   -0.2667
  band No.  band energies     occupation 
      1     -46.8472      2.00000
      2     -46.8297      2.00000
      3     -46.8078      2.00000
      4     -46.7921      2.00000
      5      -2.5254      2.00000
      6       0.2001      2.00000
      7       1.7415      0.00000
      8       1.9754      0.00000
      9       3.1027      0.00000
     10       4.0946      0.00000

 k-point   393 :       0.1429    0.2667    0.1333
  band No.  band energies     occupation 
      1     -46.8459      2.00000
      2     -46.8332      2.00000
      3     -46.8032      2.00000
      4     -46.7945      2.00000
      5      -2.4454      2.00000
      6       0.2648      2.00000
      7       1.3550      0.00000
      8       1.8663      0.00000
      9       3.2038      0.00000
     10       4.1863      0.00000

 k-point   394 :       0.1429   -0.1333    0.2667
  band No.  band energies     occupation 
      1     -46.8458      2.00000
      2     -46.8319      2.00000
      3     -46.8064      2.00000
      4     -46.7928      2.00000
      5      -2.4456      2.00000
      6       0.2627      2.00000
      7       1.3587      0.00000
      8       1.8664      0.00000
      9       3.1746      0.00000
     10       4.1809      0.00000

 k-point   395 :       0.1429   -0.2667   -0.1333
  band No.  band energies     occupation 
      1     -46.8465      2.00000
      2     -46.8322      2.00000
      3     -46.8041      2.00000
      4     -46.7940      2.00000
      5      -2.4450      2.00000
      6       0.2685      2.00000
      7       1.3294      0.00000
      8       1.8541      0.00000
      9       3.2952      0.00000
     10       4.1623      0.00000

 k-point   396 :       0.1429    0.1333   -0.2667
  band No.  band energies     occupation 
      1     -46.8470      2.00000
      2     -46.8294      2.00000
      3     -46.8085      2.00000
      4     -46.7920      2.00000
      5      -2.4449      2.00000
      6       0.2616      2.00000
      7       1.3048      0.00000
      8       1.8860      0.00000
      9       3.3212      0.00000
     10       4.2102      0.00000

 k-point   397 :       0.2143    0.2667    0.1333
  band No.  band energies     occupation 
      1     -46.8449      2.00000
      2     -46.8338      2.00000
      3     -46.8034      2.00000
      4     -46.7946      2.00000
      5      -2.3119      2.00000
      6       0.3030      2.00000
      7       0.8617      0.00000
      8       1.9307      0.00000
      9       3.1904      0.00000
     10       4.1324      0.00000

 k-point   398 :       0.2143   -0.1333    0.2667
  band No.  band energies     occupation 
      1     -46.8447      2.00000
      2     -46.8327      2.00000
      3     -46.8064      2.00000
      4     -46.7929      2.00000
      5      -2.3120      2.00000
      6       0.3105      2.00000
      7       0.8546      0.00000
      8       1.9183      0.00000
      9       3.1691      0.00000
     10       4.1527      0.00000

 k-point   399 :       0.2143   -0.2667   -0.1333
  band No.  band energies     occupation 
      1     -46.8457      2.00000
      2     -46.8325      2.00000
      3     -46.8046      2.00000
      4     -46.7940      2.00000
      5      -2.3112      2.00000
      6       0.3074      2.00000
      7       0.8437      0.00000
      8       1.9133      0.00000
      9       3.2581      0.00000
     10       4.1357      0.00000

 k-point   400 :       0.2143    0.1333   -0.2667
  band No.  band energies     occupation 
      1     -46.8464      2.00000
      2     -46.8293      2.00000
      3     -46.8091      2.00000
      4     -46.7920      2.00000
      5      -2.3109      2.00000
      6       0.3118      2.00000
      7       0.8096      0.00000
      8       1.9513      0.00000
      9       3.2655      0.00000
     10       4.1831      0.00000

 k-point   401 :       0.2857    0.2667    0.1333
  band No.  band energies     occupation 
      1     -46.8437      2.00000
      2     -46.8346      2.00000
      3     -46.8038      2.00000
      4     -46.7946      2.00000
      5      -2.1249      2.00000
      6       0.0472      2.00000
      7       0.7439      0.00000
      8       1.9846      0.00000
      9       3.0420      0.00000
     10       3.9706      0.00000

 k-point   402 :       0.2857   -0.1333    0.2667
  band No.  band energies     occupation 
      1     -46.8436      2.00000
      2     -46.8334      2.00000
      3     -46.8068      2.00000
      4     -46.7930      2.00000
      5      -2.1250      2.00000
      6       0.0589      2.00000
      7       0.7326      0.00000
      8       1.9535      0.00000
      9       3.0425      0.00000
     10       4.0205      0.00000

 k-point   403 :       0.2857   -0.2667   -0.1333
  band No.  band energies     occupation 
      1     -46.8447      2.00000
      2     -46.8331      2.00000
      3     -46.8049      2.00000
      4     -46.7940      2.00000
      5      -2.1239      2.00000
      6       0.0434      2.00000
      7       0.7405      0.00000
      8       1.9625      0.00000
      9       3.0826      0.00000
     10       4.0029      0.00000

 k-point   404 :       0.2857    0.1333   -0.2667
  band No.  band energies     occupation 
      1     -46.8455      2.00000
      2     -46.8297      2.00000
      3     -46.8094      2.00000
      4     -46.7921      2.00000
      5      -2.1233      2.00000
      6       0.0516      2.00000
      7       0.7014      0.00000
      8       2.0070      0.00000
      9       3.0688      0.00000
     10       4.0598      0.00000

 k-point   405 :       0.3571    0.2667    0.1333
  band No.  band energies     occupation 
      1     -46.8426      2.00000
      2     -46.8353      2.00000
      3     -46.8042      2.00000
      4     -46.7946      2.00000
      5      -1.8847      2.00000
      6      -0.4047      2.00000
      7       0.9132      0.00000
      8       1.9393      0.00000
      9       2.9403      0.00000
     10       3.7388      0.00000

 k-point   406 :       0.3571   -0.1333    0.2667
  band No.  band energies     occupation 
      1     -46.8427      2.00000
      2     -46.8337      2.00000
      3     -46.8073      2.00000
      4     -46.7930      2.00000
      5      -1.8846      2.00000
      6      -0.3975      2.00000
      7       0.9085      0.00000
      8       1.8876      0.00000
      9       2.9694      0.00000
     10       3.7930      0.00000

 k-point   407 :       0.3571   -0.2667   -0.1333
  band No.  band energies     occupation 
      1     -46.8435      2.00000
      2     -46.8339      2.00000
      3     -46.8051      2.00000
      4     -46.7941      2.00000
      5      -1.8831      2.00000
      6      -0.4096      2.00000
      7       0.9158      0.00000
      8       1.9186      0.00000
      9       2.9581      0.00000
     10       3.7784      0.00000

 k-point   408 :       0.3571    0.1333   -0.2667
  band No.  band energies     occupation 
      1     -46.8446      2.00000
      2     -46.8305      2.00000
      3     -46.8095      2.00000
      4     -46.7922      2.00000
      5      -1.8821      2.00000
      6      -0.4064      2.00000
      7       0.8789      0.00000
      8       1.9578      0.00000
      9       2.9422      0.00000
     10       3.8373      0.00000

 k-point   409 :       0.4286    0.2667    0.1333
  band No.  band energies     occupation 
      1     -46.8417      2.00000
      2     -46.8358      2.00000
      3     -46.8046      2.00000
      4     -46.7945      2.00000
      5      -1.5917      2.00000
      6      -0.8443      2.00000
      7       1.1573      0.00000
      8       1.7426      0.00000
      9       3.0108      0.00000
     10       3.4720      0.00000

 k-point   410 :       0.4286   -0.1333    0.2667
  band No.  band energies     occupation 
      1     -46.8424      2.00000
      2     -46.8335      2.00000
      3     -46.8080      2.00000
      4     -46.7928      2.00000
      5      -1.5914      2.00000
      6      -0.8398      2.00000
      7       1.1606      0.00000
      8       1.6850      0.00000
      9       3.0526      0.00000
     10       3.5159      0.00000

 k-point   411 :       0.4286   -0.2667   -0.1333
  band No.  band energies     occupation 
      1     -46.8424      2.00000
      2     -46.8348      2.00000
      3     -46.8051      2.00000
      4     -46.7943      2.00000
      5      -1.5896      2.00000
      6      -0.8483      2.00000
      7       1.1630      0.00000
      8       1.7286      0.00000
      9       3.0081      0.00000
     10       3.5034      0.00000

 k-point   412 :       0.4286    0.1333   -0.2667
  band No.  band energies     occupation 
      1     -46.8435      2.00000
      2     -46.8315      2.00000
      3     -46.8092      2.00000
      4     -46.7924      2.00000
      5      -1.5878      2.00000
      6      -0.8468      2.00000
      7       1.1251      0.00000
      8       1.7474      0.00000
      9       3.0104      0.00000
     10       3.5586      0.00000

 k-point   413 :       0.5000    0.2667    0.1333
  band No.  band energies     occupation 
      1     -46.8417      2.00000
      2     -46.8356      2.00000
      3     -46.8049      2.00000
      4     -46.7944      2.00000
      5      -1.2715      2.00000
      6      -1.2155      2.00000
      7       1.3837      0.00000
      8       1.5175      0.00000
      9       3.1538      0.00000
     10       3.2791      0.00000

 k-point   414 :       0.5000   -0.1333    0.2667
  band No.  band energies     occupation 
      1     -46.8427      2.00000
      2     -46.8326      2.00000
      3     -46.8086      2.00000
      4     -46.7926      2.00000
      5      -1.2701      2.00000
      6      -1.2133      2.00000
      7       1.3798      0.00000
      8       1.4816      0.00000
      9       3.1777      0.00000
     10       3.3286      0.00000

 k-point   415 :       0.0000    0.3333    0.1333
  band No.  band energies     occupation 
      1     -46.8451      2.00000
      2     -46.8341      2.00000
      3     -46.8022      2.00000
      4     -46.7954      2.00000
      5      -2.3185      2.00000
      6      -0.3601      2.00000
      7       1.9364      0.00000
      8       2.5007      0.00000
      9       2.8354      0.00000
     10       3.9051      0.00000

 k-point   416 :       0.0000   -0.1333    0.3333
  band No.  band energies     occupation 
      1     -46.8456      2.00000
      2     -46.8309      2.00000
      3     -46.8081      2.00000
      4     -46.7922      2.00000
      5      -2.3190      2.00000
      6      -0.3657      2.00000
      7       1.9373      0.00000
      8       2.5095      0.00000
      9       2.8340      0.00000
     10       3.9216      0.00000

 k-point   417 :       0.0714    0.3333    0.1333
  band No.  band energies     occupation 
      1     -46.8448      2.00000
      2     -46.8344      2.00000
      3     -46.8021      2.00000
      4     -46.7955      2.00000
      5      -2.2920      2.00000
      6      -0.3369      2.00000
      7       1.9264      0.00000
      8       2.1635      0.00000
      9       3.0124      0.00000
     10       3.9552      0.00000

 k-point   418 :       0.0714   -0.1333    0.3333
  band No.  band energies     occupation 
      1     -46.8451      2.00000
      2     -46.8316      2.00000
      3     -46.8077      2.00000
      4     -46.7924      2.00000
      5      -2.2925      2.00000
      6      -0.3413      2.00000
      7       1.9298      0.00000
      8       2.1798      0.00000
      9       2.9766      0.00000
     10       3.9476      0.00000

 k-point   419 :       0.0714   -0.3333   -0.1333
  band No.  band energies     occupation 
      1     -46.8450      2.00000
      2     -46.8340      2.00000
      3     -46.8024      2.00000
      4     -46.7953      2.00000
      5      -2.2918      2.00000
      6      -0.3358      2.00000
      7       1.9220      0.00000
      8       2.1230      0.00000
      9       3.0892      0.00000
     10       3.9358      0.00000

 k-point   420 :       0.0714    0.1333   -0.3333
  band No.  band energies     occupation 
      1     -46.8458      2.00000
      2     -46.8303      2.00000
      3     -46.8087      2.00000
      4     -46.7921      2.00000
      5      -2.2922      2.00000
      6      -0.3420      2.00000
      7       1.8997      0.00000
      8       2.1410      0.00000
      9       3.1231      0.00000
     10       3.9783      0.00000

 k-point   421 :       0.1429    0.3333    0.1333
  band No.  band energies     occupation 
      1     -46.8442      2.00000
      2     -46.8346      2.00000
      3     -46.8022      2.00000
      4     -46.7957      2.00000
      5      -2.2124      2.00000
      6      -0.2685      2.00000
      7       1.5438      0.00000
      8       2.0145      0.00000
      9       3.1087      0.00000
     10       3.9624      0.00000

 k-point   422 :       0.1429   -0.1333    0.3333
  band No.  band energies     occupation 
      1     -46.8444      2.00000
      2     -46.8322      2.00000
      3     -46.8075      2.00000
      4     -46.7927      2.00000
      5      -2.2128      2.00000
      6      -0.2708      2.00000
      7       1.5608      0.00000
      8       1.9946      0.00000
      9       3.0812      0.00000
     10       3.9548      0.00000

 k-point   423 :       0.1429   -0.3333   -0.1333
  band No.  band energies     occupation 
      1     -46.8446      2.00000
      2     -46.8340      2.00000
      3     -46.8028      2.00000
      4     -46.7953      2.00000
      5      -2.2119      2.00000
      6      -0.2662      2.00000
      7       1.5217      0.00000
      8       1.9967      0.00000
      9       3.1800      0.00000
     10       3.9461      0.00000

 k-point   424 :       0.1429    0.1333   -0.3333
  band No.  band energies     occupation 
      1     -46.8456      2.00000
      2     -46.8297      2.00000
      3     -46.8094      2.00000
      4     -46.7920      2.00000
      5      -2.2120      2.00000
      6      -0.2717      2.00000
      7       1.4869      0.00000
      8       2.0386      0.00000
      9       3.2048      0.00000
     10       3.9875      0.00000

 k-point   425 :       0.2143    0.3333    0.1333
  band No.  band energies     occupation 
      1     -46.8434      2.00000
      2     -46.8350      2.00000
      3     -46.8024      2.00000
      4     -46.7958      2.00000
      5      -2.0797      2.00000
      6      -0.1665      2.00000
      7       1.0078      0.00000
      8       2.0133      0.00000
      9       3.0211      0.00000
     10       3.9353      0.00000

 k-point   426 :       0.2143   -0.1333    0.3333
  band No.  band energies     occupation 
      1     -46.8435      2.00000
      2     -46.8326      2.00000
      3     -46.8076      2.00000
      4     -46.7929      2.00000
      5      -2.0799      2.00000
      6      -0.1650      2.00000
      7       1.0149      0.00000
      8       1.9759      0.00000
      9       3.0171      0.00000
     10       3.9483      0.00000

 k-point   427 :       0.2143   -0.3333   -0.1333
  band No.  band energies     occupation 
      1     -46.8440      2.00000
      2     -46.8342      2.00000
      3     -46.8032      2.00000
      4     -46.7953      2.00000
      5      -2.0789      2.00000
      6      -0.1630      2.00000
      7       0.9908      0.00000
      8       1.9927      0.00000
      9       3.0698      0.00000
     10       3.9363      0.00000

 k-point   428 :       0.2143    0.1333   -0.3333
  band No.  band energies     occupation 
      1     -46.8452      2.00000
      2     -46.8293      2.00000
      3     -46.8101      2.00000
      4     -46.7921      2.00000
      5      -2.0787      2.00000
      6      -0.1646      2.00000
      7       0.9591      0.00000
      8       2.0394      0.00000
      9       3.0694      0.00000
     10       3.9742      0.00000

 k-point   429 :       0.2857    0.3333    0.1333
  band No.  band energies     occupation 
      1     -46.8424      2.00000
      2     -46.8355      2.00000
      3     -46.8028      2.00000
      4     -46.7959      2.00000
      5      -1.8942      2.00000
      6      -0.0917      2.00000
      7       0.5736      0.00000
      8       1.9114      0.00000
      9       2.9223      0.00000
     10       3.9383      0.00000

 k-point   430 :       0.2857   -0.1333    0.3333
  band No.  band energies     occupation 
      1     -46.8427      2.00000
      2     -46.8329      2.00000
      3     -46.8080      2.00000
      4     -46.7930      2.00000
      5      -1.8942      2.00000
      6      -0.0822      2.00000
      7       0.5698      0.00000
      8       1.8567      0.00000
      9       2.9471      0.00000
     10       3.9703      0.00000

 k-point   431 :       0.2857   -0.3333   -0.1333
  band No.  band energies     occupation 
      1     -46.8431      2.00000
      2     -46.8345      2.00000
      3     -46.8036      2.00000
      4     -46.7954      2.00000
      5      -1.8931      2.00000
      6      -0.0883      2.00000
      7       0.5622      0.00000
      8       1.8917      0.00000
      9       2.9493      0.00000
     10       3.9572      0.00000

 k-point   432 :       0.2857    0.1333   -0.3333
  band No.  band energies     occupation 
      1     -46.8446      2.00000
      2     -46.8293      2.00000
      3     -46.8105      2.00000
      4     -46.7922      2.00000
      5      -1.8923      2.00000
      6      -0.0766      2.00000
      7       0.5188      0.00000
      8       1.9365      0.00000
      9       2.9358      0.00000
     10       4.0122      0.00000

 k-point   433 :       0.3571    0.3333    0.1333
  band No.  band energies     occupation 
      1     -46.8415      2.00000
      2     -46.8360      2.00000
      3     -46.8032      2.00000
      4     -46.7960      2.00000
      5      -1.6565      2.00000
      6      -0.2727      2.00000
      7       0.4856      0.00006
      8       1.6565      0.00000
      9       2.9737      0.00000
     10       3.8600      0.00000

 k-point   434 :       0.3571   -0.1333    0.3333
  band No.  band energies     occupation 
      1     -46.8422      2.00000
      2     -46.8327      2.00000
      3     -46.8086      2.00000
      4     -46.7931      2.00000
      5      -1.6560      2.00000
      6      -0.2603      2.00000
      7       0.4785      0.00042
      8       1.6002      0.00000
      9       3.0099      0.00000
     10       3.9061      0.00000

 k-point   435 :       0.3571   -0.3333   -0.1333
  band No.  band energies     occupation 
      1     -46.8422      2.00000
      2     -46.8350      2.00000
      3     -46.8038      2.00000
      4     -46.7956      2.00000
      5      -1.6549      2.00000
      6      -0.2745      2.00000
      7       0.4837      0.00010
      8       1.6427      0.00000
      9       2.9820      0.00000
     10       3.8900      0.00000

 k-point   436 :       0.3571    0.1333   -0.3333
  band No.  band energies     occupation 
      1     -46.8439      2.00000
      2     -46.8296      2.00000
      3     -46.8107      2.00000
      4     -46.7924      2.00000
      5      -1.6534      2.00000
      6      -0.2606      2.00000
      7       0.4373      0.54179
      8       1.6714      0.00000
      9       2.9778      0.00000
     10       3.9579      0.00000

 k-point   437 :       0.4286    0.3333    0.1333
  band No.  band energies     occupation 
      1     -46.8408      2.00000
      2     -46.8363      2.00000
      3     -46.8036      2.00000
      4     -46.7960      2.00000
      5      -1.3681      2.00000
      6      -0.6484      2.00000
      7       0.6845      0.00000
      8       1.3273      0.00000
      9       3.1492      0.00000
     10       3.6534      0.00000

 k-point   438 :       0.4286   -0.1333    0.3333
  band No.  band energies     occupation 
      1     -46.8421      2.00000
      2     -46.8322      2.00000
      3     -46.8093      2.00000
      4     -46.7930      2.00000
      5      -1.3668      2.00000
      6      -0.6406      2.00000
      7       0.6845      0.00000
      8       1.2763      0.00000
      9       3.1859      0.00000
     10       3.6981      0.00000

 k-point   439 :       0.4286   -0.3333   -0.1333
  band No.  band energies     occupation 
      1     -46.8413      2.00000
      2     -46.8356      2.00000
      3     -46.8039      2.00000
      4     -46.7958      2.00000
      5      -1.3660      2.00000
      6      -0.6516      2.00000
      7       0.6874      0.00000
      8       1.3183      0.00000
      9       3.1437      0.00000
     10       3.6798      0.00000

 k-point   440 :       0.4286    0.1333   -0.3333
  band No.  band energies     occupation 
      1     -46.8431      2.00000
      2     -46.8303      2.00000
      3     -46.8105      2.00000
      4     -46.7927      2.00000
      5      -1.3632      2.00000
      6      -0.6454      2.00000
      7       0.6473      0.00000
      8       1.3311      0.00000
      9       3.1525      0.00000
     10       3.7405      0.00000

 k-point   441 :       0.5000    0.3333    0.1333
  band No.  band energies     occupation 
      1     -46.8408      2.00000
      2     -46.8361      2.00000
      3     -46.8038      2.00000
      4     -46.7959      2.00000
      5      -1.0586      2.00000
      6      -0.9978      2.00000
      7       0.9257      0.00000
      8       1.0450      0.00000
      9       3.3307      0.00000
     10       3.4612      0.00000

 k-point   442 :       0.5000   -0.1333    0.3333
  band No.  band energies     occupation 
      1     -46.8425      2.00000
      2     -46.8313      2.00000
      3     -46.8100      2.00000
      4     -46.7929      2.00000
      5      -1.0560      2.00000
      6      -0.9929      2.00000
      7       0.9146      0.00000
      8       1.0173      0.00000
      9       3.3464      0.00000
     10       3.5194      0.00000

 k-point   443 :       0.0000    0.4000    0.1333
  band No.  band energies     occupation 
      1     -46.8430      2.00000
      2     -46.8362      2.00000
      3     -46.8009      2.00000
      4     -46.7967      2.00000
      5      -2.0323      2.00000
      6      -0.8567      2.00000
      7       2.1266      0.00000
      8       2.5127      0.00000
      9       3.0387      0.00000
     10       3.7300      0.00000

 k-point   444 :       0.0000   -0.1333    0.4000
  band No.  band energies     occupation 
      1     -46.8442      2.00000
      2     -46.8316      2.00000
      3     -46.8088      2.00000
      4     -46.7922      2.00000
      5      -2.0333      2.00000
      6      -0.8606      2.00000
      7       2.1174      0.00000
      8       2.5255      0.00000
      9       3.0413      0.00000
     10       3.7472      0.00000

 k-point   445 :       0.0714    0.4000    0.1333
  band No.  band energies     occupation 
      1     -46.8428      2.00000
      2     -46.8363      2.00000
      3     -46.8008      2.00000
      4     -46.7968      2.00000
      5      -2.0061      2.00000
      6      -0.8322      2.00000
      7       2.1015      0.00000
      8       2.3088      0.00000
      9       3.0462      0.00000
     10       3.7147      0.00000

 k-point   446 :       0.0714   -0.1333    0.4000
  band No.  band energies     occupation 
      1     -46.8438      2.00000
      2     -46.8320      2.00000
      3     -46.8086      2.00000
      4     -46.7923      2.00000
      5      -2.0070      2.00000
      6      -0.8352      2.00000
      7       2.1032      0.00000
      8       2.3152      0.00000
      9       3.0271      0.00000
     10       3.7023      0.00000

 k-point   447 :       0.0714   -0.4000   -0.1333
  band No.  band energies     occupation 
      1     -46.8429      2.00000
      2     -46.8361      2.00000
      3     -46.8010      2.00000
      4     -46.7966      2.00000
      5      -2.0058      2.00000
      6      -0.8315      2.00000
      7       2.0992      0.00000
      8       2.2696      0.00000
      9       3.1059      0.00000
     10       3.7038      0.00000

 k-point   448 :       0.0714    0.1333   -0.4000
  band No.  band energies     occupation 
      1     -46.8444      2.00000
      2     -46.8310      2.00000
      3     -46.8093      2.00000
      4     -46.7921      2.00000
      5      -2.0066      2.00000
      6      -0.8357      2.00000
      7       2.0582      0.00000
      8       2.3073      0.00000
      9       3.1277      0.00000
     10       3.7481      0.00000

 k-point   449 :       0.1429    0.4000    0.1333
  band No.  band energies     occupation 
      1     -46.8423      2.00000
      2     -46.8364      2.00000
      3     -46.8010      2.00000
      4     -46.7970      2.00000
      5      -1.9271      2.00000
      6      -0.7589      2.00000
      7       1.7579      0.00000
      8       2.1329      0.00000
      9       3.0272      0.00000
     10       3.6390      0.00000

 k-point   450 :       0.1429   -0.1333    0.4000
  band No.  band energies     occupation 
      1     -46.8433      2.00000
      2     -46.8323      2.00000
      3     -46.8086      2.00000
      4     -46.7925      2.00000
      5      -1.9279      2.00000
      6      -0.7605      2.00000
      7       1.7894      0.00000
      8       2.0811      0.00000
      9       3.0238      0.00000
     10       3.6362      0.00000

 k-point   451 :       0.1429   -0.4000   -0.1333
  band No.  band energies     occupation 
      1     -46.8426      2.00000
      2     -46.8360      2.00000
      3     -46.8013      2.00000
      4     -46.7967      2.00000
      5      -1.9266      2.00000
      6      -0.7574      2.00000
      7       1.7391      0.00000
      8       2.1103      0.00000
      9       3.0805      0.00000
     10       3.6332      0.00000

 k-point   452 :       0.1429    0.1333   -0.4000
  band No.  band energies     occupation 
      1     -46.8443      2.00000
      2     -46.8303      2.00000
      3     -46.8099      2.00000
      4     -46.7921      2.00000
      5      -1.9271      2.00000
      6      -0.7613      2.00000
      7       1.6915      0.00000
      8       2.1695      0.00000
      9       3.0888      0.00000
     10       3.6607      0.00000

 k-point   453 :       0.2143    0.4000    0.1333
  band No.  band energies     occupation 
      1     -46.8417      2.00000
      2     -46.8365      2.00000
      3     -46.8013      2.00000
      4     -46.7972      2.00000
      5      -1.7958      2.00000
      6      -0.6407      2.00000
      7       1.2417      0.00000
      8       1.9756      0.00000
      9       2.9627      0.00000
     10       3.6535      0.00000

 k-point   454 :       0.2143   -0.1333    0.4000
  band No.  band energies     occupation 
      1     -46.8427      2.00000
      2     -46.8323      2.00000
      3     -46.8089      2.00000
      4     -46.7928      2.00000
      5      -1.7962      2.00000
      6      -0.6401      2.00000
      7       1.2586      0.00000
      8       1.9135      0.00000
      9       2.9851      0.00000
     10       3.6596      0.00000

 k-point   455 :       0.2143   -0.4000   -0.1333
  band No.  band energies     occupation 
      1     -46.8421      2.00000
      2     -46.8360      2.00000
      3     -46.8017      2.00000
      4     -46.7968      2.00000
      5      -1.7949      2.00000
      6      -0.6384      2.00000
      7       1.2263      0.00000
      8       1.9560      0.00000
      9       2.9957      0.00000
     10       3.6568      0.00000

 k-point   456 :       0.2143    0.1333   -0.4000
  band No.  band energies     occupation 
      1     -46.8441      2.00000
      2     -46.8298      2.00000
      3     -46.8106      2.00000
      4     -46.7922      2.00000
      5      -1.7949      2.00000
      6      -0.6406      2.00000
      7       1.1895      0.00000
      8       2.0101      0.00000
      9       2.9842      0.00000
     10       3.6830      0.00000

 k-point   457 :       0.2857    0.4000    0.1333
  band No.  band energies     occupation 
      1     -46.8410      2.00000
      2     -46.8367      2.00000
      3     -46.8016      2.00000
      4     -46.7974      2.00000
      5      -1.6129      2.00000
      6      -0.4908      2.00000
      7       0.7518      0.00000
      8       1.6694      0.00000
      9       3.0006      0.00000
     10       3.7617      0.00000

 k-point   458 :       0.2857   -0.1333    0.4000
  band No.  band energies     occupation 
      1     -46.8423      2.00000
      2     -46.8321      2.00000
      3     -46.8093      2.00000
      4     -46.7930      2.00000
      5      -1.6126      2.00000
      6      -0.4865      2.00000
      7       0.7588      0.00000
      8       1.6104      0.00000
      9       3.0324      0.00000
     10       3.7745      0.00000

 k-point   459 :       0.2857   -0.4000   -0.1333
  band No.  band energies     occupation 
      1     -46.8415      2.00000
      2     -46.8361      2.00000
      3     -46.8021      2.00000
      4     -46.7970      2.00000
      5      -1.6116      2.00000
      6      -0.4878      2.00000
      7       0.7405      0.00000
      8       1.6554      0.00000
      9       3.0160      0.00000
     10       3.7690      0.00000

 k-point   460 :       0.2857    0.1333   -0.4000
  band No.  band energies     occupation 
      1     -46.8437      2.00000
      2     -46.8294      2.00000
      3     -46.8112      2.00000
      4     -46.7924      2.00000
      5      -1.6108      2.00000
      6      -0.4849      2.00000
      7       0.7032      0.00000
      8       1.6935      0.00000
      9       3.0063      0.00000
     10       3.8071      0.00000

 k-point   461 :       0.3571    0.4000    0.1333
  band No.  band energies     occupation 
      1     -46.8403      2.00000
      2     -46.8369      2.00000
      3     -46.8020      2.00000
      4     -46.7975      2.00000
      5      -1.3798      2.00000
      6      -0.3689      2.00000
      7       0.3745      1.99987
      8       1.2883      0.00000
      9       3.1511      0.00000
     10       3.8709      0.00000

 k-point   462 :       0.3571   -0.1333    0.4000
  band No.  band energies     occupation 
      1     -46.8420      2.00000
      2     -46.8315      2.00000
      3     -46.8100      2.00000
      4     -46.7931      2.00000
      5      -1.3785      2.00000
      6      -0.3579      2.00000
      7       0.3721      1.99994
      8       1.2370      0.00000
      9       3.1829      0.00000
     10       3.8968      0.00000

 k-point   463 :       0.3571   -0.4000   -0.1333
  band No.  band energies     occupation 
      1     -46.8408      2.00000
      2     -46.8363      2.00000
      3     -46.8024      2.00000
      4     -46.7973      2.00000
      5      -1.3781      2.00000
      6      -0.3663      2.00000
      7       0.3674      1.99999
      8       1.2787      0.00000
      9       3.1542      0.00000
     10       3.8827      0.00000

 k-point   464 :       0.3571    0.1333   -0.4000
  band No.  band energies     occupation 
      1     -46.8432      2.00000
      2     -46.8292      2.00000
      3     -46.8115      2.00000
      4     -46.7927      2.00000
      5      -1.3761      2.00000
      6      -0.3493      2.00000
      7       0.3175      2.00000
      8       1.3009      0.00000
      9       3.1539      0.00000
     10       3.9452      0.00000

 k-point   465 :       0.4286    0.4000    0.1333
  band No.  band energies     occupation 
      1     -46.8398      2.00000
      2     -46.8370      2.00000
      3     -46.8023      2.00000
      4     -46.7976      2.00000
      5      -1.1007      2.00000
      6      -0.4754      2.00000
      7       0.3182      2.00000
      8       0.9076      0.00000
      9       3.3687      0.00000
     10       3.8341      0.00000

 k-point   466 :       0.4286   -0.1333    0.4000
  band No.  band energies     occupation 
      1     -46.8421      2.00000
      2     -46.8308      2.00000
      3     -46.8106      2.00000
      4     -46.7932      2.00000
      5      -1.0974      2.00000
      6      -0.4629      2.00000
      7       0.3143      2.00000
      8       0.8614      0.00000
      9       3.3986      0.00000
     10       3.8763      0.00000

 k-point   467 :       0.4286   -0.4000   -0.1333
  band No.  band energies     occupation 
      1     -46.8401      2.00000
      2     -46.8366      2.00000
      3     -46.8025      2.00000
      4     -46.7975      2.00000
      5      -1.0985      2.00000
      6      -0.4767      2.00000
      7       0.3180      2.00000
      8       0.9011      0.00000
      9       3.3629      0.00000
     10       3.8511      0.00000

 k-point   468 :       0.4286    0.1333   -0.4000
  band No.  band energies     occupation 
      1     -46.8427      2.00000
      2     -46.8295      2.00000
      3     -46.8115      2.00000
      4     -46.7929      2.00000
      5      -1.0948      2.00000
      6      -0.4577      2.00000
      7       0.2658      2.00000
      8       0.9116      0.00000
      9       3.3696      0.00000
     10       3.9276      0.00000

 k-point   469 :       0.5000    0.4000    0.1333
  band No.  band energies     occupation 
      1     -46.8398      2.00000
      2     -46.8369      2.00000
      3     -46.8025      2.00000
      4     -46.7976      2.00000
      5      -0.8134      2.00000
      6      -0.7515      2.00000
      7       0.5121      0.00000
      8       0.6096      0.00000
      9       3.5604      0.00000
     10       3.6855      0.00000

 k-point   470 :       0.5000   -0.1333    0.4000
  band No.  band energies     occupation 
      1     -46.8423      2.00000
      2     -46.8301      2.00000
      3     -46.8112      2.00000
      4     -46.7931      2.00000
      5      -0.8098      2.00000
      6      -0.7396      2.00000
      7       0.4895      0.00002
      8       0.5895      0.00000
      9       3.5628      0.00000
     10       3.7595      0.00000

 k-point   471 :       0.0000    0.4667    0.1333
  band No.  band energies     occupation 
      1     -46.8407      2.00000
      2     -46.8384      2.00000
      3     -46.7994      2.00000
      4     -46.7980      2.00000
      5      -1.6933      2.00000
      6      -1.3014      2.00000
      7       2.3070      0.00000
      8       2.4456      0.00000
      9       3.2703      0.00000
     10       3.5097      0.00000

 k-point   472 :       0.0000   -0.1333    0.4667
  band No.  band energies     occupation 
      1     -46.8433      2.00000
      2     -46.8320      2.00000
      3     -46.8092      2.00000
      4     -46.7921      2.00000
      5      -1.6950      2.00000
      6      -1.3038      2.00000
      7       2.2704      0.00000
      8       2.4833      0.00000
      9       3.2659      0.00000
     10       3.5378      0.00000

 k-point   473 :       0.0714    0.4667    0.1333
  band No.  band energies     occupation 
      1     -46.8406      2.00000
      2     -46.8384      2.00000
      3     -46.7995      2.00000
      4     -46.7981      2.00000
      5      -1.6674      2.00000
      6      -1.2761      2.00000
      7       2.2575      0.00000
      8       2.3479      0.00000
      9       3.1750      0.00000
     10       3.4244      0.00000

 k-point   474 :       0.0714   -0.1333    0.4667
  band No.  band energies     occupation 
      1     -46.8432      2.00000
      2     -46.8321      2.00000
      3     -46.8092      2.00000
      4     -46.7922      2.00000
      5      -1.6690      2.00000
      6      -1.2779      2.00000
      7       2.2239      0.00000
      8       2.3728      0.00000
      9       3.1796      0.00000
     10       3.4288      0.00000

 k-point   475 :       0.0714   -0.4667   -0.1333
  band No.  band energies     occupation 
      1     -46.8407      2.00000
      2     -46.8384      2.00000
      3     -46.7996      2.00000
      4     -46.7981      2.00000
      5      -1.6671      2.00000
      6      -1.2756      2.00000
      7       2.2503      0.00000
      8       2.3251      0.00000
      9       3.2052      0.00000
     10       3.4283      0.00000

 k-point   476 :       0.0714    0.1333   -0.4667
  band No.  band energies     occupation 
      1     -46.8434      2.00000
      2     -46.8317      2.00000
      3     -46.8094      2.00000
      4     -46.7921      2.00000
      5      -1.6686      2.00000
      6      -1.2783      2.00000
      7       2.1902      0.00000
      8       2.3910      0.00000
      9       3.2018      0.00000
     10       3.4581      0.00000

 k-point   477 :       0.1429    0.4667    0.1333
  band No.  band energies     occupation 
      1     -46.8403      2.00000
      2     -46.8383      2.00000
      3     -46.7997      2.00000
      4     -46.7983      2.00000
      5      -1.5896      2.00000
      6      -1.1999      2.00000
      7       1.9691      0.00000
      8       2.1222      0.00000
      9       3.0855      0.00000
     10       3.3174      0.00000

 k-point   478 :       0.1429   -0.1333    0.4667
  band No.  band energies     occupation 
      1     -46.8429      2.00000
      2     -46.8319      2.00000
      3     -46.8094      2.00000
      4     -46.7924      2.00000
      5      -1.5909      2.00000
      6      -1.2007      2.00000
      7       2.0094      0.00000
      8       2.0515      0.00000
      9       3.1037      0.00000
     10       3.3246      0.00000

 k-point   479 :       0.1429   -0.4667   -0.1333
  band No.  band energies     occupation 
      1     -46.8404      2.00000
      2     -46.8382      2.00000
      3     -46.7998      2.00000
      4     -46.7982      2.00000
      5      -1.5889      2.00000
      6      -1.1989      2.00000
      7       1.9517      0.00000
      8       2.1019      0.00000
      9       3.1163      0.00000
     10       3.3267      0.00000

 k-point   480 :       0.1429    0.1333   -0.4667
  band No.  band energies     occupation 
      1     -46.8433      2.00000
      2     -46.8312      2.00000
      3     -46.8099      2.00000
      4     -46.7922      2.00000
      5      -1.5901      2.00000
      6      -1.2015      2.00000
      7       1.8926      0.00000
      8       2.1733      0.00000
      9       3.1084      0.00000
     10       3.3417      0.00000

 k-point   481 :       0.2143    0.4667    0.1333
  band No.  band energies     occupation 
      1     -46.8400      2.00000
      2     -46.8382      2.00000
      3     -46.8000      2.00000
      4     -46.7986      2.00000
      5      -1.4606      2.00000
      6      -1.0747      2.00000
      7       1.5098      0.00000
      8       1.7775      0.00000
      9       3.0979      0.00000
     10       3.3530      0.00000

 k-point   482 :       0.2143   -0.1333    0.4667
  band No.  band energies     occupation 
      1     -46.8427      2.00000
      2     -46.8316      2.00000
      3     -46.8099      2.00000
      4     -46.7926      2.00000
      5      -1.4612      2.00000
      6      -1.0739      2.00000
      7       1.5350      0.00000
      8       1.7131      0.00000
      9       3.1253      0.00000
     10       3.3600      0.00000

 k-point   483 :       0.2143   -0.4667   -0.1333
  band No.  band energies     occupation 
      1     -46.8401      2.00000
      2     -46.8381      2.00000
      3     -46.8001      2.00000
      4     -46.7985      2.00000
      5      -1.4594      2.00000
      6      -1.0731      2.00000
      7       1.4952      0.00000
      8       1.7618      0.00000
      9       3.1167      0.00000
     10       3.3624      0.00000

 k-point   484 :       0.2143    0.1333   -0.4667
  band No.  band energies     occupation 
      1     -46.8432      2.00000
      2     -46.8306      2.00000
      3     -46.8105      2.00000
      4     -46.7925      2.00000
      5      -1.4600      2.00000
      6      -1.0749      2.00000
      7       1.4507      0.00000
      8       1.8117      0.00000
      9       3.1034      0.00000
     10       3.3838      0.00000

 k-point   485 :       0.2857    0.4667    0.1333
  band No.  band energies     occupation 
      1     -46.8395      2.00000
      2     -46.8380      2.00000
      3     -46.8003      2.00000
      4     -46.7988      2.00000
      5      -1.2820      2.00000
      6      -0.9046      2.00000
      7       1.0313      0.00000
      8       1.3503      0.00000
      9       3.2144      0.00000
     10       3.4885      0.00000

 k-point   486 :       0.2857   -0.1333    0.4667
  band No.  band energies     occupation 
      1     -46.8424      2.00000
      2     -46.8310      2.00000
      3     -46.8104      2.00000
      4     -46.7928      2.00000
      5      -1.2813      2.00000
      6      -0.9015      2.00000
      7       1.0447      0.00000
      8       1.2969      0.00000
      9       3.2399      0.00000
     10       3.4994      0.00000

 k-point   487 :       0.2857   -0.4667   -0.1333
  band No.  band energies     occupation 
      1     -46.8397      2.00000
      2     -46.8378      2.00000
      3     -46.8004      2.00000
      4     -46.7987      2.00000
      5      -1.2804      2.00000
      6      -0.9025      2.00000
      7       1.0205      0.00000
      8       1.3390      0.00000
      9       3.2232      0.00000
     10       3.4945      0.00000

 k-point   488 :       0.2857    0.1333   -0.4667
  band No.  band energies     occupation 
      1     -46.8429      2.00000
      2     -46.8300      2.00000
      3     -46.8111      2.00000
      4     -46.7927      2.00000
      5      -1.2799      2.00000
      6      -0.9020      2.00000
      7       0.9815      0.00000
      8       1.3703      0.00000
      9       3.2137      0.00000
     10       3.5258      0.00000

 k-point   489 :       0.3571    0.4667    0.1333
  band No.  band energies     occupation 
      1     -46.8391      2.00000
      2     -46.8379      2.00000
      3     -46.8006      2.00000
      4     -46.7991      2.00000
      5      -1.0582      2.00000
      6      -0.7032      2.00000
      7       0.5926      0.00000
      8       0.9191      0.00000
      9       3.4014      0.00000
     10       3.6731      0.00000

 k-point   490 :       0.3571   -0.1333    0.4667
  band No.  band energies     occupation 
      1     -46.8422      2.00000
      2     -46.8303      2.00000
      3     -46.8111      2.00000
      4     -46.7931      2.00000
      5      -1.0553      2.00000
      6      -0.6961      2.00000
      7       0.5969      0.00000
      8       0.8725      0.00000
      9       3.4233      0.00000
     10       3.6938      0.00000

 k-point   491 :       0.3571   -0.4667   -0.1333
  band No.  band energies     occupation 
      1     -46.8392      2.00000
      2     -46.8377      2.00000
      3     -46.8007      2.00000
      4     -46.7990      2.00000
      5      -1.0561      2.00000
      6      -0.7006      2.00000
      7       0.5850      0.00000
      8       0.9112      0.00000
      9       3.4029      0.00000
     10       3.6758      0.00000

 k-point   492 :       0.3571    0.1333   -0.4667
  band No.  band energies     occupation 
      1     -46.8426      2.00000
      2     -46.8295      2.00000
      3     -46.8116      2.00000
      4     -46.7929      2.00000
      5      -1.0541      2.00000
      6      -0.6941      2.00000
      7       0.5435      0.00000
      8       0.9295      0.00000
      9       3.3974      0.00000
     10       3.7247      0.00000

 k-point   493 :       0.4286    0.4667    0.1333
  band No.  band energies     occupation 
      1     -46.8388      2.00000
      2     -46.8378      2.00000
      3     -46.8008      2.00000
      4     -46.7993      2.00000
      5      -0.8019      2.00000
      6      -0.5264      2.00000
      7       0.2665      2.00000
      8       0.5315      0.00000
      9       3.6255      0.00000
     10       3.8411      0.00000

 k-point   494 :       0.4286   -0.1333    0.4667
  band No.  band energies     occupation 
      1     -46.8421      2.00000
      2     -46.8298      2.00000
      3     -46.8116      2.00000
      4     -46.7932      2.00000
      5      -0.7946      2.00000
      6      -0.5118      2.00000
      7       0.2609      2.00000
      8       0.4866      0.00004
      9       3.6397      0.00000
     10       3.8905      0.00000

 k-point   495 :       0.4286   -0.4667   -0.1333
  band No.  band energies     occupation 
      1     -46.8389      2.00000
      2     -46.8377      2.00000
      3     -46.8009      2.00000
      4     -46.7992      2.00000
      5      -0.7996      2.00000
      6      -0.5245      2.00000
      7       0.2624      2.00000
      8       0.5262      0.00000
      9       3.6215      0.00000
     10       3.8435      0.00000

 k-point   496 :       0.4286    0.1333   -0.4667
  band No.  band energies     occupation 
      1     -46.8424      2.00000
      2     -46.8293      2.00000
      3     -46.8119      2.00000
      4     -46.7931      2.00000
      5      -0.7955      2.00000
      6      -0.5022      2.00000
      7       0.2065      2.00000
      8       0.5353      0.00000
      9       3.6138      0.00000
     10       3.9318      0.00000

 k-point   497 :       0.5000    0.4667    0.1333
  band No.  band energies     occupation 
      1     -46.8387      2.00000
      2     -46.8377      2.00000
      3     -46.8010      2.00000
      4     -46.7993      2.00000
      5      -0.5811      2.00000
      6      -0.5436      2.00000
      7       0.2240      2.00000
      8       0.2735      2.00000
      9       3.7908      0.00000
     10       3.8615      0.00000

 k-point   498 :       0.5000   -0.1333    0.4667
  band No.  band energies     occupation 
      1     -46.8422      2.00000
      2     -46.8294      2.00000
      3     -46.8119      2.00000
      4     -46.7932      2.00000
      5      -0.5840      2.00000
      6      -0.5060      2.00000
      7       0.1693      2.00000
      8       0.2685      2.00000
      9       3.7611      0.00000
     10       3.9911      0.00000

 k-point   499 :       0.0000    0.2000    0.2000
  band No.  band energies     occupation 
      1     -46.8474      2.00000
      2     -46.8309      2.00000
      3     -46.8052      2.00000
      4     -46.7932      2.00000
      5      -2.6045      2.00000
      6       0.6984      0.00000
      7       1.1894      0.00000
      8       2.4069      0.00000
      9       2.6255      0.00000
     10       4.1173      0.00000

 k-point   500 :       0.0714    0.2000    0.2000
  band No.  band energies     occupation 
      1     -46.8470      2.00000
      2     -46.8315      2.00000
      3     -46.8049      2.00000
      4     -46.7934      2.00000
      5      -2.5778      2.00000
      6       0.7213      0.00000
      7       1.1965      0.00000
      8       1.9531      0.00000
      9       2.9696      0.00000
     10       4.1841      0.00000

 k-point   501 :       0.0714   -0.2000   -0.2000
  band No.  band energies     occupation 
      1     -46.8475      2.00000
      2     -46.8306      2.00000
      3     -46.8058      2.00000
      4     -46.7930      2.00000
      5      -2.5776      2.00000
      6       0.7239      0.00000
      7       1.1920      0.00000
      8       1.9012      0.00000
      9       3.0866      0.00000
     10       4.1679      0.00000

 k-point   502 :       0.1429    0.2000    0.2000
  band No.  band energies     occupation 
      1     -46.8462      2.00000
      2     -46.8322      2.00000
      3     -46.8047      2.00000
      4     -46.7936      2.00000
      5      -2.4976      2.00000
      6       0.7748      0.00000
      7       1.1339      0.00000
      8       1.4833      0.00000
      9       3.2493      0.00000
     10       4.2977      0.00000

 k-point   503 :       0.1429   -0.2000   -0.2000
  band No.  band energies     occupation 
      1     -46.8471      2.00000
      2     -46.8305      2.00000
      3     -46.8063      2.00000
      4     -46.7929      2.00000
      5      -2.4970      2.00000
      6       0.7835      0.00000
      7       1.1071      0.00000
      8       1.4634      0.00000
      9       3.3795      0.00000
     10       4.2967      0.00000

 k-point   504 :       0.2143    0.2000    0.2000
  band No.  band energies     occupation 
      1     -46.8451      2.00000
      2     -46.8331      2.00000
      3     -46.8048      2.00000
      4     -46.7937      2.00000
      5      -2.3638      2.00000
      6       0.5697      0.00000
      7       1.0083      0.00000
      8       1.4446      0.00000
      9       3.3110      0.00000
     10       4.2243      0.00000

 k-point   505 :       0.2143   -0.2000   -0.2000
  band No.  band energies     occupation 
      1     -46.8464      2.00000
      2     -46.8307      2.00000
      3     -46.8068      2.00000
      4     -46.7928      2.00000
      5      -2.3629      2.00000
      6       0.5630      0.00000
      7       0.9899      0.00000
      8       1.4419      0.00000
      9       3.4178      0.00000
     10       4.2468      0.00000

 k-point   506 :       0.2857    0.2000    0.2000
  band No.  band energies     occupation 
      1     -46.8439      2.00000
      2     -46.8339      2.00000
      3     -46.8052      2.00000
      4     -46.7938      2.00000
      5      -2.1764      2.00000
      6       0.0624      2.00000
      7       1.1607      0.00000
      8       1.5459      0.00000
      9       3.2142      0.00000
     10       3.8596      0.00000

 k-point   507 :       0.2857   -0.2000   -0.2000
  band No.  band energies     occupation 
      1     -46.8454      2.00000
      2     -46.8313      2.00000
      3     -46.8072      2.00000
      4     -46.7929      2.00000
      5      -2.1750      2.00000
      6       0.0519      2.00000
      7       1.1498      0.00000
      8       1.5468      0.00000
      9       3.2799      0.00000
     10       3.8881      0.00000

 k-point   508 :       0.3571    0.2000    0.2000
  band No.  band energies     occupation 
      1     -46.8428      2.00000
      2     -46.8346      2.00000
      3     -46.8057      2.00000
      4     -46.7937      2.00000
      5      -1.9355      2.00000
      6      -0.4336      2.00000
      7       1.3714      0.00000
      8       1.6719      0.00000
      9       3.0437      0.00000
     10       3.4301      0.00000

 k-point   509 :       0.3571   -0.2000   -0.2000
  band No.  band energies     occupation 
      1     -46.8443      2.00000
      2     -46.8322      2.00000
      3     -46.8073      2.00000
      4     -46.7930      2.00000
      5      -1.9334      2.00000
      6      -0.4418      2.00000
      7       1.3583      0.00000
      8       1.6800      0.00000
      9       3.0615      0.00000
     10       3.4689      0.00000

 k-point   510 :       0.4286    0.2000    0.2000
  band No.  band energies     occupation 
      1     -46.8421      2.00000
      2     -46.8348      2.00000
      3     -46.8062      2.00000
      4     -46.7936      2.00000
      5      -1.6412      2.00000
      6      -0.8853      2.00000
      7       1.5898      0.00000
      8       1.7718      0.00000
      9       2.8997      0.00000
     10       3.0673      0.00000

 k-point   511 :       0.4286   -0.2000   -0.2000
  band No.  band energies     occupation 
      1     -46.8432      2.00000
      2     -46.8332      2.00000
      3     -46.8071      2.00000
      4     -46.7932      2.00000
      5      -1.6383      2.00000
      6      -0.8913      2.00000
      7       1.5702      0.00000
      8       1.7925      0.00000
      9       2.8689      0.00000
     10       3.1212      0.00000

 k-point   512 :       0.5000    0.2000    0.2000
  band No.  band energies     occupation 
      1     -46.8423      2.00000
      2     -46.8342      2.00000
      3     -46.8067      2.00000
      4     -46.7934      2.00000
      5      -1.3178      2.00000
      6      -1.2626      2.00000
      7       1.7006      0.00000
      8       1.8066      0.00000
      9       2.8342      0.00000
     10       2.9271      0.00000

 k-point   513 :       0.0000    0.2667    0.2000
  band No.  band energies     occupation 
      1     -46.8460      2.00000
      2     -46.8324      2.00000
      3     -46.8042      2.00000
      4     -46.7943      2.00000
      5      -2.4236      2.00000
      6       0.2617      2.00000
      7       1.1997      0.00000
      8       2.4557      0.00000
      9       2.7468      0.00000
     10       3.9629      0.00000

 k-point   514 :       0.0000   -0.2000    0.2667
  band No.  band energies     occupation 
      1     -46.8461      2.00000
      2     -46.8313      2.00000
      3     -46.8063      2.00000
      4     -46.7932      2.00000
      5      -2.4238      2.00000
      6       0.2556      2.00000
      7       1.2066      0.00000
      8       2.4566      0.00000
      9       2.7455      0.00000
     10       3.9694      0.00000

 k-point   515 :       0.0714    0.2667    0.2000
  band No.  band energies     occupation 
      1     -46.8456      2.00000
      2     -46.8328      2.00000
      3     -46.8040      2.00000
      4     -46.7945      2.00000
      5      -2.3970      2.00000
      6       0.2840      2.00000
      7       1.2138      0.00000
      8       2.0653      0.00000
      9       2.9959      0.00000
     10       4.0296      0.00000

 k-point   516 :       0.0714   -0.2000    0.2667
  band No.  band energies     occupation 
      1     -46.8456      2.00000
      2     -46.8319      2.00000
      3     -46.8059      2.00000
      4     -46.7934      2.00000
      5      -2.3972      2.00000
      6       0.2798      2.00000
      7       1.2162      0.00000
      8       2.0765      0.00000
      9       2.9777      0.00000
     10       4.0252      0.00000

 k-point   517 :       0.0714   -0.2667   -0.2000
  band No.  band energies     occupation 
      1     -46.8460      2.00000
      2     -46.8321      2.00000
      3     -46.8046      2.00000
      4     -46.7941      2.00000
      5      -2.3968      2.00000
      6       0.2866      2.00000
      7       1.2087      0.00000
      8       2.0150      0.00000
      9       3.0961      0.00000
     10       4.0189      0.00000

 k-point   518 :       0.0714    0.2000   -0.2667
  band No.  band energies     occupation 
      1     -46.8462      2.00000
      2     -46.8307      2.00000
      3     -46.8068      2.00000
      4     -46.7930      2.00000
      5      -2.3969      2.00000
      6       0.2794      2.00000
      7       1.2181      0.00000
      8       2.0067      0.00000
      9       3.1112      0.00000
     10       4.0376      0.00000

 k-point   519 :       0.1429    0.2667    0.2000
  band No.  band energies     occupation 
      1     -46.8449      2.00000
      2     -46.8333      2.00000
      3     -46.8039      2.00000
      4     -46.7947      2.00000
      5      -2.3171      2.00000
      6       0.3476      2.00000
      7       1.2080      0.00000
      8       1.5568      0.00000
      9       3.2024      0.00000
     10       4.1131      0.00000

 k-point   520 :       0.1429   -0.2000    0.2667
  band No.  band energies     occupation 
      1     -46.8449      2.00000
      2     -46.8325      2.00000
      3     -46.8057      2.00000
      4     -46.7936      2.00000
      5      -2.3172      2.00000
      6       0.3466      2.00000
      7       1.2014      0.00000
      8       1.5681      0.00000
      9       3.1827      0.00000
     10       4.0984      0.00000

 k-point   521 :       0.1429   -0.2667   -0.2000
  band No.  band energies     occupation 
      1     -46.8457      2.00000
      2     -46.8320      2.00000
      3     -46.8051      2.00000
      4     -46.7940      2.00000
      5      -2.3165      2.00000
      6       0.3534      2.00000
      7       1.1913      0.00000
      8       1.5278      0.00000
      9       3.3038      0.00000
     10       4.1057      0.00000

 k-point   522 :       0.1429    0.2000   -0.2667
  band No.  band energies     occupation 
      1     -46.8460      2.00000
      2     -46.8304      2.00000
      3     -46.8075      2.00000
      4     -46.7929      2.00000
      5      -2.3165      2.00000
      6       0.3468      2.00000
      7       1.1925      0.00000
      8       1.5306      0.00000
      9       3.3189      0.00000
     10       4.1390      0.00000

 k-point   523 :       0.2143    0.2667    0.2000
  band No.  band energies     occupation 
      1     -46.8439      2.00000
      2     -46.8339      2.00000
      3     -46.8041      2.00000
      4     -46.7948      2.00000
      5      -2.1838      2.00000
      6       0.4043      1.91430
      7       0.9046      0.00000
      8       1.4451      0.00000
      9       3.2190      0.00000
     10       4.0421      0.00000

 k-point   524 :       0.2143   -0.2000    0.2667
  band No.  band energies     occupation 
      1     -46.8439      2.00000
      2     -46.8332      2.00000
      3     -46.8058      2.00000
      4     -46.7938      2.00000
      5      -2.1838      2.00000
      6       0.4111      1.78608
      7       0.8931      0.00000
      8       1.4482      0.00000
      9       3.1960      0.00000
     10       4.0457      0.00000

 k-point   525 :       0.2143   -0.2667   -0.2000
  band No.  band energies     occupation 
      1     -46.8450      2.00000
      2     -46.8321      2.00000
      3     -46.8056      2.00000
      4     -46.7940      2.00000
      5      -2.1828      2.00000
      6       0.4133      1.72228
      7       0.8769      0.00000
      8       1.4319      0.00000
      9       3.2974      0.00000
     10       4.0458      0.00000

 k-point   526 :       0.2143    0.2000   -0.2667
  band No.  band energies     occupation 
      1     -46.8454      2.00000
      2     -46.8304      2.00000
      3     -46.8080      2.00000
      4     -46.7929      2.00000
      5      -2.1827      2.00000
      6       0.4155      1.64725
      7       0.8532      0.00000
      8       1.4543      0.00000
      9       3.3064      0.00000
     10       4.0818      0.00000

 k-point   527 :       0.2857    0.2667    0.2000
  band No.  band energies     occupation 
      1     -46.8428      2.00000
      2     -46.8345      2.00000
      3     -46.8044      2.00000
      4     -46.7949      2.00000
      5      -1.9971      2.00000
      6       0.1671      2.00000
      7       0.7967      0.00000
      8       1.5335      0.00000
      9       3.0654      0.00000
     10       3.7587      0.00000

 k-point   528 :       0.2857   -0.2000    0.2667
  band No.  band energies     occupation 
      1     -46.8429      2.00000
      2     -46.8337      2.00000
      3     -46.8062      2.00000
      4     -46.7939      2.00000
      5      -1.9971      2.00000
      6       0.1751      2.00000
      7       0.7875      0.00000
      8       1.5260      0.00000
      9       3.0449      0.00000
     10       3.7960      0.00000

 k-point   529 :       0.2857   -0.2667   -0.2000
  band No.  band energies     occupation 
      1     -46.8441      2.00000
      2     -46.8324      2.00000
      3     -46.8060      2.00000
      4     -46.7941      2.00000
      5      -1.9957      2.00000
      6       0.1629      2.00000
      7       0.7898      0.00000
      8       1.5171      0.00000
      9       3.1088      0.00000
     10       3.7963      0.00000

 k-point   530 :       0.2857    0.2000   -0.2667
  band No.  band energies     occupation 
      1     -46.8446      2.00000
      2     -46.8306      2.00000
      3     -46.8084      2.00000
      4     -46.7930      2.00000
      5      -1.9954      2.00000
      6       0.1698      2.00000
      7       0.7582      0.00000
      8       1.5456      0.00000
      9       3.1047      0.00000
     10       3.8259      0.00000

 k-point   531 :       0.3571    0.2667    0.2000
  band No.  band energies     occupation 
      1     -46.8419      2.00000
      2     -46.8350      2.00000
      3     -46.8049      2.00000
      4     -46.7949      2.00000
      5      -1.7575      2.00000
      6      -0.2823      2.00000
      7       0.9691      0.00000
      8       1.6217      0.00000
      9       2.8491      0.00000
     10       3.3958      0.00000

 k-point   532 :       0.3571   -0.2000    0.2667
  band No.  band energies     occupation 
      1     -46.8420      2.00000
      2     -46.8340      2.00000
      3     -46.8067      2.00000
      4     -46.7939      2.00000
      5      -1.7574      2.00000
      6      -0.2781      2.00000
      7       0.9678      0.00000
      8       1.5996      0.00000
      9       2.8446      0.00000
     10       3.4327      0.00000

 k-point   533 :       0.3571   -0.2667   -0.2000
  band No.  band energies     occupation 
      1     -46.8432      2.00000
      2     -46.8331      2.00000
      3     -46.8061      2.00000
      4     -46.7943      2.00000
      5      -1.7554      2.00000
      6      -0.2890      2.00000
      7       0.9714      0.00000
      8       1.6024      0.00000
      9       2.8655      0.00000
     10       3.4380      0.00000

 k-point   534 :       0.3571    0.2000   -0.2667
  band No.  band energies     occupation 
      1     -46.8437      2.00000
      2     -46.8312      2.00000
      3     -46.8085      2.00000
      4     -46.7932      2.00000
      5      -1.7549      2.00000
      6      -0.2863      2.00000
      7       0.9406      0.00000
      8       1.6346      0.00000
      9       2.8517      0.00000
     10       3.4654      0.00000

 k-point   535 :       0.4286    0.2667    0.2000
  band No.  band energies     occupation 
      1     -46.8413      2.00000
      2     -46.8351      2.00000
      3     -46.8054      2.00000
      4     -46.7948      2.00000
      5      -1.4656      2.00000
      6      -0.7196      2.00000
      7       1.1990      0.00000
      8       1.6183      0.00000
      9       2.7349      0.00000
     10       3.0696      0.00000

 k-point   536 :       0.4286   -0.2000    0.2667
  band No.  band energies     occupation 
      1     -46.8417      2.00000
      2     -46.8338      2.00000
      3     -46.8073      2.00000
      4     -46.7938      2.00000
      5      -1.4652      2.00000
      6      -0.7171      2.00000
      7       1.2069      0.00000
      8       1.5787      0.00000
      9       2.7530      0.00000
     10       3.0931      0.00000

 k-point   537 :       0.4286   -0.2667   -0.2000
  band No.  band energies     occupation 
      1     -46.8422      2.00000
      2     -46.8339      2.00000
      3     -46.8061      2.00000
      4     -46.7945      2.00000
      5      -1.4626      2.00000
      6      -0.7251      2.00000
      7       1.2058      0.00000
      8       1.6011      0.00000
      9       2.7321      0.00000
     10       3.1027      0.00000

 k-point   538 :       0.4286    0.2000   -0.2667
  band No.  band energies     occupation 
      1     -46.8428      2.00000
      2     -46.8321      2.00000
      3     -46.8083      2.00000
      4     -46.7934      2.00000
      5      -1.4616      2.00000
      6      -0.7238      2.00000
      7       1.1738      0.00000
      8       1.6258      0.00000
      9       2.7239      0.00000
     10       3.1298      0.00000

 k-point   539 :       0.5000    0.2667    0.2000
  band No.  band energies     occupation 
      1     -46.8415      2.00000
      2     -46.8347      2.00000
      3     -46.8058      2.00000
      4     -46.7947      2.00000
      5      -1.1480      2.00000
      6      -1.0880      2.00000
      7       1.3847      0.00000
      8       1.5081      0.00000
      9       2.7738      0.00000
     10       2.8861      0.00000

 k-point   540 :       0.5000   -0.2000    0.2667
  band No.  band energies     occupation 
      1     -46.8420      2.00000
      2     -46.8330      2.00000
      3     -46.8079      2.00000
      4     -46.7936      2.00000
      5      -1.1471      2.00000
      6      -1.0866      2.00000
      7       1.3854      0.00000
      8       1.4823      0.00000
      9       2.7938      0.00000
     10       2.9015      0.00000

 k-point   541 :       0.0000    0.3333    0.2000
  band No.  band energies     occupation 
      1     -46.8442      2.00000
      2     -46.8341      2.00000
      3     -46.8030      2.00000
      4     -46.7955      2.00000
      5      -2.1908      2.00000
      6      -0.2553      2.00000
      7       1.3784      0.00000
      8       2.4443      0.00000
      9       2.9027      0.00000
     10       3.7577      0.00000

 k-point   542 :       0.0000   -0.2000    0.3333
  band No.  band energies     occupation 
      1     -46.8447      2.00000
      2     -46.8317      2.00000
      3     -46.8073      2.00000
      4     -46.7932      2.00000
      5      -2.1912      2.00000
      6      -0.2603      2.00000
      7       1.3842      0.00000
      8       2.4444      0.00000
      9       2.9023      0.00000
     10       3.7676      0.00000

 k-point   543 :       0.0714    0.3333    0.2000
  band No.  band energies     occupation 
      1     -46.8439      2.00000
      2     -46.8343      2.00000
      3     -46.8028      2.00000
      4     -46.7957      2.00000
      5      -2.1644      2.00000
      6      -0.2318      2.00000
      7       1.3930      0.00000
      8       2.1737      0.00000
      9       2.9888      0.00000
     10       3.8026      0.00000

 k-point   544 :       0.0714   -0.2000    0.3333
  band No.  band energies     occupation 
      1     -46.8443      2.00000
      2     -46.8322      2.00000
      3     -46.8069      2.00000
      4     -46.7934      2.00000
      5      -2.1648      2.00000
      6      -0.2353      2.00000
      7       1.3932      0.00000
      8       2.1924      0.00000
      9       2.9653      0.00000
     10       3.7811      0.00000

 k-point   545 :       0.0714   -0.3333   -0.2000
  band No.  band energies     occupation 
      1     -46.8442      2.00000
      2     -46.8338      2.00000
      3     -46.8033      2.00000
      4     -46.7954      2.00000
      5      -2.1641      2.00000
      6      -0.2301      2.00000
      7       1.3881      0.00000
      8       2.1287      0.00000
      9       3.0644      0.00000
     10       3.7957      0.00000

 k-point   546 :       0.0714    0.2000   -0.3333
  band No.  band energies     occupation 
      1     -46.8449      2.00000
      2     -46.8311      2.00000
      3     -46.8078      2.00000
      4     -46.7930      2.00000
      5      -2.1644      2.00000
      6      -0.2359      2.00000
      7       1.3975      0.00000
      8       2.1138      0.00000
      9       3.0821      0.00000
     10       3.8401      0.00000

 k-point   547 :       0.1429    0.3333    0.2000
  band No.  band energies     occupation 
      1     -46.8433      2.00000
      2     -46.8346      2.00000
      3     -46.8029      2.00000
      4     -46.7959      2.00000
      5      -2.0848      2.00000
      6      -0.1617      2.00000
      7       1.3986      0.00000
      8       1.7001      0.00000
      9       3.0807      0.00000
     10       3.7736      0.00000

 k-point   548 :       0.1429   -0.2000    0.3333
  band No.  band energies     occupation 
      1     -46.8436      2.00000
      2     -46.8327      2.00000
      3     -46.8068      2.00000
      4     -46.7936      2.00000
      5      -2.0851      2.00000
      6      -0.1632      2.00000
      7       1.3910      0.00000
      8       1.7147      0.00000
      9       3.0559      0.00000
     10       3.7471      0.00000

 k-point   549 :       0.1429   -0.3333   -0.2000
  band No.  band energies     occupation 
      1     -46.8439      2.00000
      2     -46.8337      2.00000
      3     -46.8037      2.00000
      4     -46.7954      2.00000
      5      -2.0841      2.00000
      6      -0.1583      2.00000
      7       1.3851      0.00000
      8       1.6693      0.00000
      9       3.1531      0.00000
     10       3.7606      0.00000

 k-point   550 :       0.1429    0.2000   -0.3333
  band No.  band energies     occupation 
      1     -46.8447      2.00000
      2     -46.8306      2.00000
      3     -46.8084      2.00000
      4     -46.7930      2.00000
      5      -2.0843      2.00000
      6      -0.1639      2.00000
      7       1.3852      0.00000
      8       1.6693      0.00000
      9       3.1701      0.00000
     10       3.8066      0.00000

 k-point   551 :       0.2143    0.3333    0.2000
  band No.  band energies     occupation 
      1     -46.8425      2.00000
      2     -46.8350      2.00000
      3     -46.8031      2.00000
      4     -46.7961      2.00000
      5      -1.9523      2.00000
      6      -0.0559      2.00000
      7       1.0703      0.00000
      8       1.5681      0.00000
      9       3.0223      0.00000
     10       3.6847      0.00000

 k-point   552 :       0.2143   -0.2000    0.3333
  band No.  band energies     occupation 
      1     -46.8428      2.00000
      2     -46.8331      2.00000
      3     -46.8070      2.00000
      4     -46.7939      2.00000
      5      -1.9524      2.00000
      6      -0.0537      2.00000
      7       1.0685      0.00000
      8       1.5612      0.00000
      9       2.9973      0.00000
     10       3.6821      0.00000

 k-point   553 :       0.2143   -0.3333   -0.2000
  band No.  band energies     occupation 
      1     -46.8434      2.00000
      2     -46.8337      2.00000
      3     -46.8041      2.00000
      4     -46.7955      2.00000
      5      -1.9511      2.00000
      6      -0.0504      2.00000
      7       1.0463      0.00000
      8       1.5518      0.00000
      9       3.0739      0.00000
     10       3.6765      0.00000

 k-point   554 :       0.2143    0.2000   -0.3333
  band No.  band energies     occupation 
      1     -46.8443      2.00000
      2     -46.8303      2.00000
      3     -46.8090      2.00000
      4     -46.7931      2.00000
      5      -1.9511      2.00000
      6      -0.0532      2.00000
      7       1.0223      0.00000
      8       1.5799      0.00000
      9       3.0837      0.00000
     10       3.7061      0.00000

 k-point   555 :       0.2857    0.3333    0.2000
  band No.  band energies     occupation 
      1     -46.8416      2.00000
      2     -46.8353      2.00000
      3     -46.8034      2.00000
      4     -46.7963      2.00000
      5      -1.7670      2.00000
      6       0.0293      2.00000
      7       0.6508      0.00000
      8       1.5987      0.00000
      9       2.8177      0.00000
     10       3.6757      0.00000

 k-point   556 :       0.2857   -0.2000    0.3333
  band No.  band energies     occupation 
      1     -46.8420      2.00000
      2     -46.8332      2.00000
      3     -46.8074      2.00000
      4     -46.7940      2.00000
      5      -1.7669      2.00000
      6       0.0386      2.00000
      7       0.6441      0.00000
      8       1.5745      0.00000
      9       2.8101      0.00000
     10       3.6957      0.00000

 k-point   557 :       0.2857   -0.3333   -0.2000
  band No.  band energies     occupation 
      1     -46.8426      2.00000
      2     -46.8339      2.00000
      3     -46.8045      2.00000
      4     -46.7956      2.00000
      5      -1.7654      2.00000
      6       0.0354      2.00000
      7       0.6332      0.00000
      8       1.5791      0.00000
      9       2.8455      0.00000
     10       3.6914      0.00000

 k-point   558 :       0.2857    0.2000   -0.3333
  band No.  band energies     occupation 
      1     -46.8437      2.00000
      2     -46.8302      2.00000
      3     -46.8094      2.00000
      4     -46.7933      2.00000
      5      -1.7650      2.00000
      6       0.0449      2.00000
      7       0.5962      0.00000
      8       1.6128      0.00000
      9       2.8405      0.00000
     10       3.7300      0.00000

 k-point   559 :       0.3571    0.3333    0.2000
  band No.  band energies     occupation 
      1     -46.8408      2.00000
      2     -46.8356      2.00000
      3     -46.8039      2.00000
      4     -46.7964      2.00000
      5      -1.5298      2.00000
      6      -0.1453      2.00000
      7       0.5628      0.00000
      8       1.5395      0.00000
      9       2.6813      0.00000
     10       3.5328      0.00000

 k-point   560 :       0.3571   -0.2000    0.3333
  band No.  band energies     occupation 
      1     -46.8416      2.00000
      2     -46.8331      2.00000
      3     -46.8079      2.00000
      4     -46.7941      2.00000
      5      -1.5292      2.00000
      6      -0.1350      2.00000
      7       0.5571      0.00000
      8       1.4992      0.00000
      9       2.6961      0.00000
     10       3.5685      0.00000

 k-point   561 :       0.3571   -0.3333   -0.2000
  band No.  band energies     occupation 
      1     -46.8418      2.00000
      2     -46.8343      2.00000
      3     -46.8047      2.00000
      4     -46.7959      2.00000
      5      -1.5275      2.00000
      6      -0.1475      2.00000
      7       0.5597      0.00000
      8       1.5202      0.00000
      9       2.6935      0.00000
     10       3.5670      0.00000

 k-point   562 :       0.3571    0.2000   -0.3333
  band No.  band energies     occupation 
      1     -46.8431      2.00000
      2     -46.8305      2.00000
      3     -46.8097      2.00000
      4     -46.7935      2.00000
      5      -1.5265      2.00000
      6      -0.1347      2.00000
      7       0.5178      0.00000
      8       1.5513      0.00000
      9       2.6852      0.00000
     10       3.6072      0.00000

 k-point   563 :       0.4286    0.3333    0.2000
  band No.  band energies     occupation 
      1     -46.8404      2.00000
      2     -46.8357      2.00000
      3     -46.8043      2.00000
      4     -46.7964      2.00000
      5      -1.2421      2.00000
      6      -0.5220      2.00000
      7       0.7588      0.00000
      8       1.3348      0.00000
      9       2.7412      0.00000
     10       3.2428      0.00000

 k-point   564 :       0.4286   -0.2000    0.3333
  band No.  band energies     occupation 
      1     -46.8415      2.00000
      2     -46.8326      2.00000
      3     -46.8086      2.00000
      4     -46.7941      2.00000
      5      -1.2409      2.00000
      6      -0.5162      2.00000
      7       0.7617      0.00000
      8       1.2893      0.00000
      9       2.7660      0.00000
     10       3.2712      0.00000

 k-point   565 :       0.4286   -0.3333   -0.2000
  band No.  band energies     occupation 
      1     -46.8410      2.00000
      2     -46.8348      2.00000
      3     -46.8048      2.00000
      4     -46.7961      2.00000
      5      -1.2391      2.00000
      6      -0.5264      2.00000
      7       0.7631      0.00000
      8       1.3208      0.00000
      9       2.7390      0.00000
     10       3.2694      0.00000

 k-point   566 :       0.4286    0.2000   -0.3333
  band No.  band energies     occupation 
      1     -46.8424      2.00000
      2     -46.8310      2.00000
      3     -46.8095      2.00000
      4     -46.7937      2.00000
      5      -1.2372      2.00000
      6      -0.5208      2.00000
      7       0.7265      0.00000
      8       1.3385      0.00000
      9       2.7416      0.00000
     10       3.3001      0.00000

 k-point   567 :       0.5000    0.3333    0.2000
  band No.  band energies     occupation 
      1     -46.8404      2.00000
      2     -46.8353      2.00000
      3     -46.8046      2.00000
      4     -46.7962      2.00000
      5      -0.9346      2.00000
      6      -0.8697      2.00000
      7       0.9825      0.00000
      8       1.1018      0.00000
      9       2.8928      0.00000
     10       3.0231      0.00000

 k-point   568 :       0.5000   -0.2000    0.3333
  band No.  band energies     occupation 
      1     -46.8418      2.00000
      2     -46.8318      2.00000
      3     -46.8091      2.00000
      4     -46.7939      2.00000
      5      -0.9326      2.00000
      6      -0.8658      2.00000
      7       0.9759      0.00000
      8       1.0766      0.00000
      9       2.9113      0.00000
     10       3.0482      0.00000

 k-point   569 :       0.0000    0.4000    0.2000
  band No.  band energies     occupation 
      1     -46.8423      2.00000
      2     -46.8360      2.00000
      3     -46.8016      2.00000
      4     -46.7969      2.00000
      5      -1.9059      2.00000
      6      -0.7410      2.00000
      7       1.6098      0.00000
      8       2.3302      0.00000
      9       3.0829      0.00000
     10       3.5835      0.00000

 k-point   570 :       0.0000   -0.2000    0.4000
  band No.  band energies     occupation 
      1     -46.8434      2.00000
      2     -46.8322      2.00000
      3     -46.8080      2.00000
      4     -46.7932      2.00000
      5      -1.9067      2.00000
      6      -0.7445      2.00000
      7       1.6126      0.00000
      8       2.3316      0.00000
      9       3.0801      0.00000
     10       3.6001      0.00000

 k-point   571 :       0.0714    0.4000    0.2000
  band No.  band energies     occupation 
      1     -46.8421      2.00000
      2     -46.8361      2.00000
      3     -46.8015      2.00000
      4     -46.7971      2.00000
      5      -1.8797      2.00000
      6      -0.7164      2.00000
      7       1.6204      0.00000
      8       2.2035      0.00000
      9       2.9958      0.00000
     10       3.5605      0.00000

 k-point   572 :       0.0714   -0.2000    0.4000
  band No.  band energies     occupation 
      1     -46.8431      2.00000
      2     -46.8325      2.00000
      3     -46.8078      2.00000
      4     -46.7933      2.00000
      5      -1.8805      2.00000
      6      -0.7189      2.00000
      7       1.6160      0.00000
      8       2.2200      0.00000
      9       2.9917      0.00000
     10       3.5252      0.00000

 k-point   573 :       0.0714   -0.4000   -0.2000
  band No.  band energies     occupation 
      1     -46.8423      2.00000
      2     -46.8358      2.00000
      3     -46.8017      2.00000
      4     -46.7969      2.00000
      5      -1.8793      2.00000
      6      -0.7153      2.00000
      7       1.6149      0.00000
      8       2.1718      0.00000
      9       3.0406      0.00000
     10       3.5572      0.00000

 k-point   574 :       0.0714    0.2000   -0.4000
  band No.  band energies     occupation 
      1     -46.8436      2.00000
      2     -46.8317      2.00000
      3     -46.8084      2.00000
      4     -46.7931      2.00000
      5      -1.8801      2.00000
      6      -0.7194      2.00000
      7       1.6227      0.00000
      8       2.1597      0.00000
      9       3.0398      0.00000
     10       3.6195      0.00000

 k-point   575 :       0.1429    0.4000    0.2000
  band No.  band energies     occupation 
      1     -46.8416      2.00000
      2     -46.8362      2.00000
      3     -46.8016      2.00000
      4     -46.7973      2.00000
      5      -1.8008      2.00000
      6      -0.6425      2.00000
      7       1.6173      0.00000
      8       1.8472      0.00000
      9       2.9376      0.00000
     10       3.3911      0.00000

 k-point   576 :       0.1429   -0.2000    0.4000
  band No.  band energies     occupation 
      1     -46.8426      2.00000
      2     -46.8327      2.00000
      3     -46.8078      2.00000
      4     -46.7936      2.00000
      5      -1.8014      2.00000
      6      -0.6435      2.00000
      7       1.6072      0.00000
      8       1.8592      0.00000
      9       2.9261      0.00000
     10       3.3666      0.00000

 k-point   577 :       0.1429   -0.4000   -0.2000
  band No.  band energies     occupation 
      1     -46.8420      2.00000
      2     -46.8357      2.00000
      3     -46.8021      2.00000
      4     -46.7970      2.00000
      5      -1.7999      2.00000
      6      -0.6402      2.00000
      7       1.6048      0.00000
      8       1.8162      0.00000
      9       2.9882      0.00000
     10       3.3830      0.00000

 k-point   578 :       0.1429    0.2000   -0.4000
  band No.  band energies     occupation 
      1     -46.8435      2.00000
      2     -46.8311      2.00000
      3     -46.8089      2.00000
      4     -46.7932      2.00000
      5      -1.8005      2.00000
      6      -0.6444      2.00000
      7       1.6006      0.00000
      8       1.8194      0.00000
      9       2.9947      0.00000
     10       3.4226      0.00000

 k-point   579 :       0.2143    0.4000    0.2000
  band No.  band energies     occupation 
      1     -46.8410      2.00000
      2     -46.8363      2.00000
      3     -46.8019      2.00000
      4     -46.7976      2.00000
      5      -1.6695      2.00000
      6      -0.5230      2.00000
      7       1.2977      0.00000
      8       1.6835      0.00000
      9       2.8262      0.00000
     10       3.2888      0.00000

 k-point   580 :       0.2143   -0.2000    0.4000
  band No.  band energies     occupation 
      1     -46.8421      2.00000
      2     -46.8327      2.00000
      3     -46.8081      2.00000
      4     -46.7938      2.00000
      5      -1.6697      2.00000
      6      -0.5218      2.00000
      7       1.3052      0.00000
      8       1.6566      0.00000
      9       2.8199      0.00000
     10       3.2871      0.00000

 k-point   581 :       0.2143   -0.4000   -0.2000
  band No.  band energies     occupation 
      1     -46.8415      2.00000
      2     -46.8356      2.00000
      3     -46.8024      2.00000
      4     -46.7971      2.00000
      5      -1.6681      2.00000
      6      -0.5196      2.00000
      7       1.2759      0.00000
      8       1.6640      0.00000
      9       2.8614      0.00000
     10       3.2871      0.00000

 k-point   582 :       0.2143    0.2000   -0.4000
  band No.  band energies     occupation 
      1     -46.8433      2.00000
      2     -46.8306      2.00000
      3     -46.8095      2.00000
      4     -46.7933      2.00000
      5      -1.6683      2.00000
      6      -0.5225      2.00000
      7       1.2471      0.00000
      8       1.6997      0.00000
      9       2.8626      0.00000
     10       3.3065      0.00000

 k-point   583 :       0.2857    0.4000    0.2000
  band No.  band energies     occupation 
      1     -46.8403      2.00000
      2     -46.8364      2.00000
      3     -46.8022      2.00000
      4     -46.7978      2.00000
      5      -1.4866      2.00000
      6      -0.3704      2.00000
      7       0.8338      0.00000
      8       1.5628      0.00000
      9       2.6953      0.00000
     10       3.3839      0.00000

 k-point   584 :       0.2857   -0.2000    0.4000
  band No.  band energies     occupation 
      1     -46.8416      2.00000
      2     -46.8325      2.00000
      3     -46.8086      2.00000
      4     -46.7940      2.00000
      5      -1.4862      2.00000
      6      -0.3657      2.00000
      7       0.8368      0.00000
      8       1.5198      0.00000
      9       2.7088      0.00000
     10       3.3887      0.00000

 k-point   585 :       0.2857   -0.4000   -0.2000
  band No.  band energies     occupation 
      1     -46.8410      2.00000
      2     -46.8356      2.00000
      3     -46.8028      2.00000
      4     -46.7974      2.00000
      5      -1.4847      2.00000
      6      -0.3657      2.00000
      7       0.8170      0.00000
      8       1.5435      0.00000
      9       2.7143      0.00000
     10       3.3883      0.00000

 k-point   586 :       0.2857    0.2000   -0.4000
  band No.  band energies     occupation 
      1     -46.8429      2.00000
      2     -46.8302      2.00000
      3     -46.8101      2.00000
      4     -46.7935      2.00000
      5      -1.4843      2.00000
      6      -0.3643      2.00000
      7       0.7858      0.00000
      8       1.5792      0.00000
      9       2.7064      0.00000
     10       3.4106      0.00000

 k-point   587 :       0.3571    0.4000    0.2000
  band No.  band energies     occupation 
      1     -46.8397      2.00000
      2     -46.8364      2.00000
      3     -46.8026      2.00000
      4     -46.7979      2.00000
      5      -1.2537      2.00000
      6      -0.2416      2.00000
      7       0.4600      0.02645
      8       1.3006      0.00000
      9       2.7340      0.00000
     10       3.5236      0.00000

 k-point   588 :       0.3571   -0.2000    0.4000
  band No.  band energies     occupation 
      1     -46.8414      2.00000
      2     -46.8320      2.00000
      3     -46.8091      2.00000
      4     -46.7942      2.00000
      5      -1.2523      2.00000
      6      -0.2308      2.00000
      7       0.4564      0.04937
      8       1.2546      0.00000
      9       2.7554      0.00000
     10       3.5381      0.00000

 k-point   589 :       0.3571   -0.4000   -0.2000
  band No.  band energies     occupation 
      1     -46.8403      2.00000
      2     -46.8357      2.00000
      3     -46.8031      2.00000
      4     -46.7976      2.00000
      5      -1.2512      2.00000
      6      -0.2372      2.00000
      7       0.4491      0.14900
      8       1.2858      0.00000
      9       2.7402      0.00000
     10       3.5327      0.00000

 k-point   590 :       0.3571    0.2000   -0.4000
  band No.  band energies     occupation 
      1     -46.8424      2.00000
      2     -46.8301      2.00000
      3     -46.8104      2.00000
      4     -46.7938      2.00000
      5      -1.2499      2.00000
      6      -0.2222      2.00000
      7       0.4045      1.91167
      8       1.3109      0.00000
      9       2.7372      0.00000
     10       3.5728      0.00000

 k-point   591 :       0.4286    0.4000    0.2000
  band No.  band energies     occupation 
      1     -46.8393      2.00000
      2     -46.8364      2.00000
      3     -46.8029      2.00000
      4     -46.7980      2.00000
      5      -0.9747      2.00000
      6      -0.3450      2.00000
      7       0.4021      1.93920
      8       0.9707      0.00000
      9       2.9141      0.00000
     10       3.4540      0.00000

 k-point   592 :       0.4286   -0.2000    0.4000
  band No.  band energies     occupation 
      1     -46.8413      2.00000
      2     -46.8313      2.00000
      3     -46.8097      2.00000
      4     -46.7942      2.00000
      5      -0.9715      2.00000
      6      -0.3339      2.00000
      7       0.3998      1.95850
      8       0.9270      0.00000
      9       2.9353      0.00000
     10       3.4817      0.00000

 k-point   593 :       0.4286   -0.4000   -0.2000
  band No.  band energies     occupation 
      1     -46.8397      2.00000
      2     -46.8359      2.00000
      3     -46.8032      2.00000
      4     -46.7978      2.00000
      5      -0.9716      2.00000
      6      -0.3466      2.00000
      7       0.4017      1.94288
      8       0.9607      0.00000
      9       2.9100      0.00000
     10       3.4726      0.00000

 k-point   594 :       0.4286    0.2000   -0.4000
  band No.  band energies     occupation 
      1     -46.8419      2.00000
      2     -46.8303      2.00000
      3     -46.8104      2.00000
      4     -46.7940      2.00000
      5      -0.9689      2.00000
      6      -0.3287      2.00000
      7       0.3534      2.00000
      8       0.9738      0.00000
      9       2.9155      0.00000
     10       3.5169      0.00000

 k-point   595 :       0.5000    0.4000    0.2000
  band No.  band energies     occupation 
      1     -46.8394      2.00000
      2     -46.8362      2.00000
      3     -46.8032      2.00000
      4     -46.7980      2.00000
      5      -0.6883      2.00000
      6      -0.6221      2.00000
      7       0.5913      0.00000
      8       0.6920      0.00000
      9       3.1123      0.00000
     10       3.2489      0.00000

 k-point   596 :       0.5000   -0.2000    0.4000
  band No.  band energies     occupation 
      1     -46.8416      2.00000
      2     -46.8307      2.00000
      3     -46.8102      2.00000
      4     -46.7942      2.00000
      5      -0.6854      2.00000
      6      -0.6113      2.00000
      7       0.5728      0.00000
      8       0.6730      0.00000
      9       3.1217      0.00000
     10       3.2847      0.00000

 k-point   597 :       0.0000    0.4667    0.2000
  band No.  band energies     occupation 
      1     -46.8402      2.00000
      2     -46.8380      2.00000
      3     -46.8000      2.00000
      4     -46.7985      2.00000
      5      -1.5688      2.00000
      6      -1.1801      2.00000
      7       1.8668      0.00000
      8       2.1214      0.00000
      9       3.2668      0.00000
     10       3.4328      0.00000

 k-point   598 :       0.0000   -0.2000    0.4667
  band No.  band energies     occupation 
      1     -46.8426      2.00000
      2     -46.8325      2.00000
      3     -46.8084      2.00000
      4     -46.7932      2.00000
      5      -1.5704      2.00000
      6      -1.1824      2.00000
      7       1.8615      0.00000
      8       2.1308      0.00000
      9       3.2436      0.00000
     10       3.4733      0.00000

 k-point   599 :       0.0714    0.4667    0.2000
  band No.  band energies     occupation 
      1     -46.8400      2.00000
      2     -46.8380      2.00000
      3     -46.8001      2.00000
      4     -46.7986      2.00000
      5      -1.5430      2.00000
      6      -1.1548      2.00000
      7       1.8646      0.00000
      8       2.0841      0.00000
      9       3.1108      0.00000
     10       3.3189      0.00000

 k-point   600 :       0.0714   -0.2000    0.4667
  band No.  band energies     occupation 
      1     -46.8425      2.00000
      2     -46.8326      2.00000
      3     -46.8084      2.00000
      4     -46.7933      2.00000
      5      -1.5444      2.00000
      6      -1.1563      2.00000
      7       1.8481      0.00000
      8       2.0994      0.00000
      9       3.1273      0.00000
     10       3.2980      0.00000

 k-point   601 :       0.0714   -0.4667   -0.2000
  band No.  band energies     occupation 
      1     -46.8401      2.00000
      2     -46.8380      2.00000
      3     -46.8001      2.00000
      4     -46.7985      2.00000
      5      -1.5424      2.00000
      6      -1.1540      2.00000
      7       1.8568      0.00000
      8       2.0686      0.00000
      9       3.1281      0.00000
     10       3.3220      0.00000

 k-point   602 :       0.0714    0.2000   -0.4667
  band No.  band energies     occupation 
      1     -46.8427      2.00000
      2     -46.8322      2.00000
      3     -46.8086      2.00000
      4     -46.7932      2.00000
      5      -1.5440      2.00000
      6      -1.1567      2.00000
      7       1.8588      0.00000
      8       2.0731      0.00000
      9       3.0966      0.00000
     10       3.3791      0.00000

 k-point   603 :       0.1429    0.4667    0.2000
  band No.  band energies     occupation 
      1     -46.8398      2.00000
      2     -46.8379      2.00000
      3     -46.8002      2.00000
      4     -46.7988      2.00000
      5      -1.4651      2.00000
      6      -1.0784      2.00000
      7       1.8156      0.00000
      8       1.9120      0.00000
      9       2.8979      0.00000
     10       3.0669      0.00000

 k-point   604 :       0.1429   -0.2000    0.4667
  band No.  band energies     occupation 
      1     -46.8422      2.00000
      2     -46.8324      2.00000
      3     -46.8086      2.00000
      4     -46.7935      2.00000
      5      -1.4661      2.00000
      6      -1.0788      2.00000
      7       1.7901      0.00000
      8       1.9242      0.00000
      9       2.9073      0.00000
     10       3.0580      0.00000

 k-point   605 :       0.1429   -0.4667   -0.2000
  band No.  band energies     occupation 
      1     -46.8399      2.00000
      2     -46.8378      2.00000
      3     -46.8004      2.00000
      4     -46.7986      2.00000
      5      -1.4640      2.00000
      6      -1.0769      2.00000
      7       1.7999      0.00000
      8       1.8868      0.00000
      9       2.9263      0.00000
     10       3.0725      0.00000

 k-point   606 :       0.1429    0.2000   -0.4667
  band No.  band energies     occupation 
      1     -46.8426      2.00000
      2     -46.8318      2.00000
      3     -46.8090      2.00000
      4     -46.7933      2.00000
      5      -1.4653      2.00000
      6      -1.0797      2.00000
      7       1.7849      0.00000
      8       1.9101      0.00000
      9       2.9150      0.00000
     10       3.0960      0.00000

 k-point   607 :       0.2143    0.4667    0.2000
  band No.  band energies     occupation 
      1     -46.8394      2.00000
      2     -46.8378      2.00000
      3     -46.8005      2.00000
      4     -46.7990      2.00000
      5      -1.3359      2.00000
      6      -0.9527      2.00000
      7       1.5273      0.00000
      8       1.6847      0.00000
      9       2.7819      0.00000
     10       2.9610      0.00000

 k-point   608 :       0.2143   -0.2000    0.4667
  band No.  band energies     occupation 
      1     -46.8419      2.00000
      2     -46.8321      2.00000
      3     -46.8090      2.00000
      4     -46.7937      2.00000
      5      -1.3363      2.00000
      6      -0.9515      2.00000
      7       1.5416      0.00000
      8       1.6390      0.00000
      9       2.7963      0.00000
     10       2.9641      0.00000

 k-point   609 :       0.2143   -0.4667   -0.2000
  band No.  band energies     occupation 
      1     -46.8396      2.00000
      2     -46.8376      2.00000
      3     -46.8007      2.00000
      4     -46.7989      2.00000
      5      -1.3342      2.00000
      6      -0.9504      2.00000
      7       1.5065      0.00000
      8       1.6637      0.00000
      9       2.8040      0.00000
     10       2.9699      0.00000

 k-point   610 :       0.2143    0.2000   -0.4667
  band No.  band energies     occupation 
      1     -46.8424      2.00000
      2     -46.8313      2.00000
      3     -46.8095      2.00000
      4     -46.7935      2.00000
      5      -1.3350      2.00000
      6      -0.9526      2.00000
      7       1.4727      0.00000
      8       1.7068      0.00000
      9       2.7945      0.00000
     10       2.9824      0.00000

 k-point   611 :       0.2857    0.4667    0.2000
  band No.  band energies     occupation 
      1     -46.8389      2.00000
      2     -46.8376      2.00000
      3     -46.8008      2.00000
      4     -46.7993      2.00000
      5      -1.1571      2.00000
      6      -0.7818      2.00000
      7       1.0974      0.00000
      8       1.3676      0.00000
      9       2.7987      0.00000
     10       3.0563      0.00000

 k-point   612 :       0.2857   -0.2000    0.4667
  band No.  band energies     occupation 
      1     -46.8417      2.00000
      2     -46.8315      2.00000
      3     -46.8095      2.00000
      4     -46.7939      2.00000
      5      -1.1564      2.00000
      6      -0.7783      2.00000
      7       1.1068      0.00000
      8       1.3191      0.00000
      9       2.8177      0.00000
     10       3.0615      0.00000

 k-point   613 :       0.2857   -0.4667   -0.2000
  band No.  band energies     occupation 
      1     -46.8392      2.00000
      2     -46.8373      2.00000
      3     -46.8010      2.00000
      4     -46.7992      2.00000
      5      -1.1547      2.00000
      6      -0.7786      2.00000
      7       1.0814      0.00000
      8       1.3508      0.00000
      9       2.8100      0.00000
     10       3.0626      0.00000

 k-point   614 :       0.2857    0.2000   -0.4667
  band No.  band energies     occupation 
      1     -46.8421      2.00000
      2     -46.8307      2.00000
      3     -46.8101      2.00000
      4     -46.7937      2.00000
      5      -1.1548      2.00000
      6      -0.7790      2.00000
      7       1.0494      0.00000
      8       1.3829      0.00000
      9       2.8011      0.00000
     10       3.0804      0.00000

 k-point   615 :       0.3571    0.4667    0.2000
  band No.  band energies     occupation 
      1     -46.8385      2.00000
      2     -46.8374      2.00000
      3     -46.8012      2.00000
      4     -46.7996      2.00000
      5      -0.9329      2.00000
      6      -0.5784      2.00000
      7       0.6774      0.00000
      8       0.9845      0.00000
      9       2.9481      0.00000
     10       3.2425      0.00000

 k-point   616 :       0.3571   -0.2000    0.4667
  band No.  band energies     occupation 
      1     -46.8415      2.00000
      2     -46.8310      2.00000
      3     -46.8101      2.00000
      4     -46.7941      2.00000
      5      -0.9301      2.00000
      6      -0.5711      2.00000
      7       0.6799      0.00000
      8       0.9400      0.00000
      9       2.9649      0.00000
     10       3.2520      0.00000

 k-point   617 :       0.3571   -0.4667   -0.2000
  band No.  band energies     occupation 
      1     -46.8388      2.00000
      2     -46.8372      2.00000
      3     -46.8013      2.00000
      4     -46.7994      2.00000
      5      -0.9299      2.00000
      6      -0.5745      2.00000
      7       0.6659      0.00000
      8       0.9724      0.00000
      9       2.9508      0.00000
     10       3.2444      0.00000

 k-point   618 :       0.3571    0.2000   -0.4667
  band No.  band energies     occupation 
      1     -46.8419      2.00000
      2     -46.8302      2.00000
      3     -46.8106      2.00000
      4     -46.7940      2.00000
      5      -0.9287      2.00000
      6      -0.5695      2.00000
      7       0.6300      0.00000
      8       0.9926      0.00000
      9       2.9472      0.00000
     10       3.2717      0.00000

 k-point   619 :       0.4286    0.4667    0.2000
  band No.  band energies     occupation 
      1     -46.8383      2.00000
      2     -46.8373      2.00000
      3     -46.8014      2.00000
      4     -46.7997      2.00000
      5      -0.6754      2.00000
      6      -0.3965      2.00000
      7       0.3541      2.00000
      8       0.6158      0.00000
      9       3.1749      0.00000
     10       3.4486      0.00000

 k-point   620 :       0.4286   -0.2000    0.4667
  band No.  band energies     occupation 
      1     -46.8414      2.00000
      2     -46.8304      2.00000
      3     -46.8106      2.00000
      4     -46.7943      2.00000
      5      -0.6686      2.00000
      6      -0.3822      2.00000
      7       0.3485      2.00000
      8       0.5730      0.00000
      9       3.1876      0.00000
     10       3.4727      0.00000

 k-point   621 :       0.4286   -0.4667   -0.2000
  band No.  band energies     occupation 
      1     -46.8384      2.00000
      2     -46.8371      2.00000
      3     -46.8015      2.00000
      4     -46.7996      2.00000
      5      -0.6720      2.00000
      6      -0.3935      2.00000
      7       0.3478      2.00000
      8       0.6078      0.00000
      9       3.1710      0.00000
     10       3.4488      0.00000

 k-point   622 :       0.4286    0.2000   -0.4667
  band No.  band energies     occupation 
      1     -46.8416      2.00000
      2     -46.8300      2.00000
      3     -46.8108      2.00000
      4     -46.7942      2.00000
      5      -0.6692      2.00000
      6      -0.3728      2.00000
      7       0.2967      2.00000
      8       0.6189      0.00000
      9       3.1699      0.00000
     10       3.5018      0.00000

 k-point   623 :       0.5000    0.4667    0.2000
  band No.  band energies     occupation 
      1     -46.8382      2.00000
      2     -46.8372      2.00000
      3     -46.8015      2.00000
      4     -46.7997      2.00000
      5      -0.4520      2.00000
      6      -0.4110      2.00000
      7       0.3090      2.00000
      8       0.3618      2.00000
      9       3.3741      0.00000
     10       3.4723      0.00000

 k-point   624 :       0.5000   -0.2000    0.4667
  band No.  band energies     occupation 
      1     -46.8414      2.00000
      2     -46.8301      2.00000
      3     -46.8108      2.00000
      4     -46.7943      2.00000
      5      -0.4562      2.00000
      6      -0.3739      2.00000
      7       0.2580      2.00000
      8       0.3576      2.00000
      9       3.3580      0.00000
     10       3.5569      0.00000

 k-point   625 :       0.0000    0.2667    0.2667
  band No.  band energies     occupation 
      1     -46.8448      2.00000
      2     -46.8325      2.00000
      3     -46.8052      2.00000
      4     -46.7943      2.00000
      5      -2.2438      2.00000
      6       0.2183      2.00000
      7       0.8338      0.00000
      8       2.4179      0.00000
      9       2.8712      0.00000
     10       3.7743      0.00000

 k-point   626 :       0.0714    0.2667    0.2667
  band No.  band energies     occupation 
      1     -46.8444      2.00000
      2     -46.8329      2.00000
      3     -46.8049      2.00000
      4     -46.7945      2.00000
      5      -2.2172      2.00000
      6       0.2436      2.00000
      7       0.8478      0.00000
      8       2.1425      0.00000
      9       2.9728      0.00000
     10       3.8385      0.00000

 k-point   627 :       0.0714   -0.2667   -0.2667
  band No.  band energies     occupation 
      1     -46.8449      2.00000
      2     -46.8321      2.00000
      3     -46.8056      2.00000
      4     -46.7942      2.00000
      5      -2.2169      2.00000
      6       0.2453      2.00000
      7       0.8463      0.00000
      8       2.0808      0.00000
      9       3.0669      0.00000
     10       3.8660      0.00000

 k-point   628 :       0.1429    0.2667    0.2667
  band No.  band energies     occupation 
      1     -46.8437      2.00000
      2     -46.8334      2.00000
      3     -46.8048      2.00000
      4     -46.7948      2.00000
      5      -2.1375      2.00000
      6       0.3176      2.00000
      7       0.8778      0.00000
      8       1.6407      0.00000
      9       3.1115      0.00000
     10       3.9035      0.00000

 k-point   629 :       0.1429   -0.2667   -0.2667
  band No.  band energies     occupation 
      1     -46.8446      2.00000
      2     -46.8318      2.00000
      3     -46.8061      2.00000
      4     -46.7941      2.00000
      5      -2.1367      2.00000
      6       0.3221      2.00000
      7       0.8728      0.00000
      8       1.5934      0.00000
      9       3.2017      0.00000
     10       3.9518      0.00000

 k-point   630 :       0.2143    0.2667    0.2667
  band No.  band energies     occupation 
      1     -46.8428      2.00000
      2     -46.8339      2.00000
      3     -46.8050      2.00000
      4     -46.7950      2.00000
      5      -2.0045      2.00000
      6       0.4151      1.66099
      7       0.8356      0.00000
      8       1.2534      0.00000
      9       3.1600      0.00000
     10       3.8539      0.00000

 k-point   631 :       0.2143   -0.2667   -0.2667
  band No.  band energies     occupation 
      1     -46.8442      2.00000
      2     -46.8317      2.00000
      3     -46.8067      2.00000
      4     -46.7942      2.00000
      5      -2.0033      2.00000
      6       0.4269      1.10034
      7       0.8106      0.00000
      8       1.2316      0.00000
      9       3.2429      0.00000
     10       3.8903      0.00000

 k-point   632 :       0.2857    0.2667    0.2667
  band No.  band energies     occupation 
      1     -46.8419      2.00000
      2     -46.8343      2.00000
      3     -46.8054      2.00000
      4     -46.7951      2.00000
      5      -1.8185      2.00000
      6       0.2958      2.00000
      7       0.7506      0.00000
      8       1.2236      0.00000
      9       3.0620      0.00000
     10       3.5409      0.00000

 k-point   633 :       0.2857   -0.2667   -0.2667
  band No.  band energies     occupation 
      1     -46.8434      2.00000
      2     -46.8319      2.00000
      3     -46.8070      2.00000
      4     -46.7944      2.00000
      5      -1.8167      2.00000
      6       0.2983      2.00000
      7       0.7256      0.00000
      8       1.2202      0.00000
      9       3.1191      0.00000
     10       3.5676      0.00000

 k-point   634 :       0.3571    0.2667    0.2667
  band No.  band energies     occupation 
      1     -46.8412      2.00000
      2     -46.8344      2.00000
      3     -46.8059      2.00000
      4     -46.7952      2.00000
      5      -1.5799      2.00000
      6      -0.1228      2.00000
      7       0.9254      0.00000
      8       1.3163      0.00000
      9       2.8549      0.00000
     10       3.0845      0.00000

 k-point   635 :       0.3571   -0.2667   -0.2667
  band No.  band energies     occupation 
      1     -46.8426      2.00000
      2     -46.8323      2.00000
      3     -46.8072      2.00000
      4     -46.7946      2.00000
      5      -1.5773      2.00000
      6      -0.1292      2.00000
      7       0.9111      0.00000
      8       1.3192      0.00000
      9       2.8649      0.00000
     10       3.1223      0.00000

 k-point   636 :       0.4286    0.2667    0.2667
  band No.  band energies     occupation 
      1     -46.8409      2.00000
      2     -46.8342      2.00000
      3     -46.8064      2.00000
      4     -46.7951      2.00000
      5      -1.2898      2.00000
      6      -0.5503      2.00000
      7       1.1467      0.00000
      8       1.3872      0.00000
      9       2.6642      0.00000
     10       2.7358      0.00000

 k-point   637 :       0.4286   -0.2667   -0.2667
  band No.  band energies     occupation 
      1     -46.8418      2.00000
      2     -46.8329      2.00000
      3     -46.8072      2.00000
      4     -46.7948      2.00000
      5      -1.2862      2.00000
      6      -0.5564      2.00000
      7       1.1330      0.00000
      8       1.3973      0.00000
      9       2.6258      0.00000
     10       2.7947      0.00000

 k-point   638 :       0.5000    0.2667    0.2667
  band No.  band energies     occupation 
      1     -46.8412      2.00000
      2     -46.8336      2.00000
      3     -46.8069      2.00000
      4     -46.7950      2.00000
      5      -0.9771      2.00000
      6      -0.9117      2.00000
      7       1.2811      0.00000
      8       1.3837      0.00000
      9       2.5545      0.00000
     10       2.6346      0.00000

 k-point   639 :       0.0000    0.3333    0.2667
  band No.  band energies     occupation 
      1     -46.8432      2.00000
      2     -46.8340      2.00000
      3     -46.8038      2.00000
      4     -46.7957      2.00000
      5      -2.0123      2.00000
      6      -0.1401      2.00000
      7       0.8710      0.00000
      8       2.2622      0.00000
      9       3.0327      0.00000
     10       3.6368      0.00000

 k-point   640 :       0.0000   -0.2667    0.3333
  band No.  band energies     occupation 
      1     -46.8435      2.00000
      2     -46.8327      2.00000
      3     -46.8061      2.00000
      4     -46.7944      2.00000
      5      -2.0125      2.00000
      6      -0.1437      2.00000
      7       0.8753      0.00000
      8       2.2622      0.00000
      9       3.0314      0.00000
     10       3.6423      0.00000

 k-point   641 :       0.0714    0.3333    0.2667
  band No.  band energies     occupation 
      1     -46.8429      2.00000
      2     -46.8343      2.00000
      3     -46.8037      2.00000
      4     -46.7959      2.00000
      5      -1.9860      2.00000
      6      -0.1156      2.00000
      7       0.8882      0.00000
      8       2.1292      0.00000
      9       2.9530      0.00000
     10       3.6980      0.00000

 k-point   642 :       0.0714   -0.2667    0.3333
  band No.  band energies     occupation 
      1     -46.8431      2.00000
      2     -46.8331      2.00000
      3     -46.8059      2.00000
      4     -46.7946      2.00000
      5      -1.9862      2.00000
      6      -0.1179      2.00000
      7       0.8894      0.00000
      8       2.1354      0.00000
      9       2.9523      0.00000
     10       3.6734      0.00000

 k-point   643 :       0.0714   -0.3333   -0.2667
  band No.  band energies     occupation 
      1     -46.8433      2.00000
      2     -46.8337      2.00000
      3     -46.8042      2.00000
      4     -46.7956      2.00000
      5      -1.9855      2.00000
      6      -0.1135      2.00000
      7       0.8850      0.00000
      8       2.0878      0.00000
      9       2.9967      0.00000
     10       3.7297      0.00000

 k-point   644 :       0.0714    0.2667   -0.3333
  band No.  band energies     occupation 
      1     -46.8437      2.00000
      2     -46.8323      2.00000
      3     -46.8065      2.00000
      4     -46.7943      2.00000
      5      -1.9858      2.00000
      6      -0.1181      2.00000
      7       0.8918      0.00000
      8       2.0818      0.00000
      9       2.9952      0.00000
     10       3.7657      0.00000

 k-point   645 :       0.1429    0.3333    0.2667
  band No.  band energies     occupation 
      1     -46.8423      2.00000
      2     -46.8346      2.00000
      3     -46.8037      2.00000
      4     -46.7962      2.00000
      5      -1.9065      2.00000
      6      -0.0421      2.00000
      7       0.9302      0.00000
      8       1.7444      0.00000
      9       2.9403      0.00000
     10       3.6704      0.00000

 k-point   646 :       0.1429   -0.2667    0.3333
  band No.  band energies     occupation 
      1     -46.8425      2.00000
      2     -46.8335      2.00000
      3     -46.8059      2.00000
      4     -46.7949      2.00000
      5      -1.9067      2.00000
      6      -0.0426      2.00000
      7       0.9272      0.00000
      8       1.7515      0.00000
      9       2.9373      0.00000
     10       3.6334      0.00000

 k-point   647 :       0.1429   -0.3333   -0.2667
  band No.  band energies     occupation 
      1     -46.8430      2.00000
      2     -46.8335      2.00000
      3     -46.8046      2.00000
      4     -46.7957      2.00000
      5      -1.9056      2.00000
      6      -0.0377      2.00000
      7       0.9232      0.00000
      8       1.7020      0.00000
      9       2.9896      0.00000
     10       3.6960      0.00000

 k-point   648 :       0.1429    0.2667   -0.3333
  band No.  band energies     occupation 
      1     -46.8435      2.00000
      2     -46.8319      2.00000
      3     -46.8070      2.00000
      4     -46.7943      2.00000
      5      -1.9058      2.00000
      6      -0.0426      2.00000
      7       0.9311      0.00000
      8       1.6954      0.00000
      9       2.9904      0.00000
     10       3.7401      0.00000

 k-point   649 :       0.2143    0.3333    0.2667
  band No.  band energies     occupation 
      1     -46.8416      2.00000
      2     -46.8348      2.00000
      3     -46.8039      2.00000
      4     -46.7964      2.00000
      5      -1.7742      2.00000
      6       0.0713      2.00000
      7       0.9427      0.00000
      8       1.3340      0.00000
      9       2.9778      0.00000
     10       3.4743      0.00000

 k-point   650 :       0.2143   -0.2667    0.3333
  band No.  band energies     occupation 
      1     -46.8418      2.00000
      2     -46.8337      2.00000
      3     -46.8061      2.00000
      4     -46.7951      2.00000
      5      -1.7743      2.00000
      6       0.0738      2.00000
      7       0.9336      0.00000
      8       1.3398      0.00000
      9       2.9699      0.00000
     10       3.4457      0.00000

 k-point   651 :       0.2143   -0.3333   -0.2667
  band No.  band energies     occupation 
      1     -46.8426      2.00000
      2     -46.8333      2.00000
      3     -46.8050      2.00000
      4     -46.7958      2.00000
      5      -1.7728      2.00000
      6       0.0789      2.00000
      7       0.9273      0.00000
      8       1.3051      0.00000
      9       3.0270      0.00000
     10       3.4684      0.00000

 k-point   652 :       0.2143    0.2667   -0.3333
  band No.  band energies     occupation 
      1     -46.8432      2.00000
      2     -46.8315      2.00000
      3     -46.8075      2.00000
      4     -46.7945      2.00000
      5      -1.7728      2.00000
      6       0.0755      2.00000
      7       0.9259      0.00000
      8       1.3087      0.00000
      9       3.0277      0.00000
     10       3.5016      0.00000

 k-point   653 :       0.2857    0.3333    0.2667
  band No.  band energies     occupation 
      1     -46.8408      2.00000
      2     -46.8350      2.00000
      3     -46.8043      2.00000
      4     -46.7966      2.00000
      5      -1.5895      2.00000
      6       0.1760      2.00000
      7       0.7152      0.00000
      8       1.2315      0.00000
      9       2.8702      0.00000
     10       3.3526      0.00000

 k-point   654 :       0.2857   -0.2667    0.3333
  band No.  band energies     occupation 
      1     -46.8411      2.00000
      2     -46.8338      2.00000
      3     -46.8065      2.00000
      4     -46.7953      2.00000
      5      -1.5893      2.00000
      6       0.1840      2.00000
      7       0.7060      0.00000
      8       1.2263      0.00000
      9       2.8535      0.00000
     10       3.3526      0.00000

 k-point   655 :       0.2857   -0.3333   -0.2667
  band No.  band energies     occupation 
      1     -46.8420      2.00000
      2     -46.8333      2.00000
      3     -46.8054      2.00000
      4     -46.7960      2.00000
      5      -1.5874      2.00000
      6       0.1872      2.00000
      7       0.6899      0.00000
      8       1.2156      0.00000
      9       2.9012      0.00000
     10       3.3509      0.00000

 k-point   656 :       0.2857    0.2667   -0.3333
  band No.  band energies     occupation 
      1     -46.8426      2.00000
      2     -46.8314      2.00000
      3     -46.8080      2.00000
      4     -46.7946      2.00000
      5      -1.5872      2.00000
      6       0.1931      2.00000
      7       0.6643      0.00000
      8       1.2365      0.00000
      9       2.8991      0.00000
     10       3.3815      0.00000

 k-point   657 :       0.3571    0.3333    0.2667
  band No.  band energies     occupation 
      1     -46.8402      2.00000
      2     -46.8351      2.00000
      3     -46.8047      2.00000
      4     -46.7967      2.00000
      5      -1.3530      2.00000
      6       0.0221      2.00000
      7       0.6424      0.00000
      8       1.2795      0.00000
      9       2.6244      0.00000
     10       3.1392      0.00000

 k-point   658 :       0.3571   -0.2667    0.3333
  band No.  band energies     occupation 
      1     -46.8407      2.00000
      2     -46.8336      2.00000
      3     -46.8070      2.00000
      4     -46.7954      2.00000
      5      -1.3526      2.00000
      6       0.0290      2.00000
      7       0.6391      0.00000
      8       1.2614      0.00000
      9       2.6185      0.00000
     10       3.1628      0.00000

 k-point   659 :       0.3571   -0.3333   -0.2667
  band No.  band energies     occupation 
      1     -46.8413      2.00000
      2     -46.8335      2.00000
      3     -46.8057      2.00000
      4     -46.7962      2.00000
      5      -1.3502      2.00000
      6       0.0215      2.00000
      7       0.6345      0.00000
      8       1.2634      0.00000
      9       2.6332      0.00000
     10       3.1721      0.00000

 k-point   660 :       0.3571    0.2667   -0.3333
  band No.  band energies     occupation 
      1     -46.8420      2.00000
      2     -46.8316      2.00000
      3     -46.8082      2.00000
      4     -46.7949      2.00000
      5      -1.3498      2.00000
      6       0.0313      2.00000
      7       0.6019      0.00000
      8       1.2879      0.00000
      9       2.6262      0.00000
     10       3.1917      0.00000

 k-point   661 :       0.4286    0.3333    0.2667
  band No.  band energies     occupation 
      1     -46.8399      2.00000
      2     -46.8349      2.00000
      3     -46.8052      2.00000
      4     -46.7967      2.00000
      5      -1.0668      2.00000
      6      -0.3505      2.00000
      7       0.8320      0.00000
      8       1.2519      0.00000
      9       2.4928      0.00000
     10       2.8202      0.00000

 k-point   662 :       0.4286   -0.2667    0.3333
  band No.  band energies     occupation 
      1     -46.8406      2.00000
      2     -46.8331      2.00000
      3     -46.8075      2.00000
      4     -46.7954      2.00000
      5      -1.0660      2.00000
      6      -0.3472      2.00000
      7       0.8381      0.00000
      8       1.2213      0.00000
      9       2.5031      0.00000
     10       2.8352      0.00000

 k-point   663 :       0.4286   -0.3333   -0.2667
  band No.  band energies     occupation 
      1     -46.8406      2.00000
      2     -46.8339      2.00000
      3     -46.8057      2.00000
      4     -46.7964      2.00000
      5      -1.0631      2.00000
      6      -0.3555      2.00000
      7       0.8346      0.00000
      8       1.2379      0.00000
      9       2.4893      0.00000
     10       2.8466      0.00000

 k-point   664 :       0.4286    0.2667   -0.3333
  band No.  band energies     occupation 
      1     -46.8414      2.00000
      2     -46.8319      2.00000
      3     -46.8082      2.00000
      4     -46.7951      2.00000
      5      -1.0622      2.00000
      6      -0.3515      2.00000
      7       0.8060      0.00000
      8       1.2577      0.00000
      9       2.4855      0.00000
     10       2.8607      0.00000

 k-point   665 :       0.5000    0.3333    0.2667
  band No.  band energies     occupation 
      1     -46.8401      2.00000
      2     -46.8344      2.00000
      3     -46.8055      2.00000
      4     -46.7966      2.00000
      5      -0.7636      2.00000
      6      -0.6931      2.00000
      7       1.0160      0.00000
      8       1.1289      0.00000
      9       2.5283      0.00000
     10       2.6328      0.00000

 k-point   666 :       0.5000   -0.2667    0.3333
  band No.  band energies     occupation 
      1     -46.8409      2.00000
      2     -46.8325      2.00000
      3     -46.8080      2.00000
      4     -46.7953      2.00000
      5      -0.7625      2.00000
      6      -0.6906      2.00000
      7       1.0140      0.00000
      8       1.1116      0.00000
      9       2.5440      0.00000
     10       2.6376      0.00000

 k-point   667 :       0.0000    0.4000    0.2667
  band No.  band energies     occupation 
      1     -46.8414      2.00000
      2     -46.8357      2.00000
      3     -46.8023      2.00000
      4     -46.7973      2.00000
      5      -1.7296      2.00000
      6      -0.5889      2.00000
      7       1.0894      0.00000
      8       1.9968      0.00000
      9       3.2131      0.00000
     10       3.5749      0.00000

 k-point   668 :       0.0000   -0.2667    0.4000
  band No.  band energies     occupation 
      1     -46.8424      2.00000
      2     -46.8330      2.00000
      3     -46.8068      2.00000
      4     -46.7945      2.00000
      5      -1.7303      2.00000
      6      -0.5919      2.00000
      7       1.0930      0.00000
      8       1.9980      0.00000
      9       3.2058      0.00000
     10       3.5905      0.00000

 k-point   669 :       0.0714    0.4000    0.2667
  band No.  band energies     occupation 
      1     -46.8412      2.00000
      2     -46.8358      2.00000
      3     -46.8023      2.00000
      4     -46.7974      2.00000
      5      -1.7035      2.00000
      6      -0.5640      2.00000
      7       1.1059      0.00000
      8       1.9580      0.00000
      9       3.0248      0.00000
     10       3.5713      0.00000

 k-point   670 :       0.0714   -0.2667    0.4000
  band No.  band energies     occupation 
      1     -46.8421      2.00000
      2     -46.8333      2.00000
      3     -46.8067      2.00000
      4     -46.7947      2.00000
      5      -1.7040      2.00000
      6      -0.5659      2.00000
      7       1.1050      0.00000
      8       1.9636      0.00000
      9       3.0426      0.00000
     10       3.5218      0.00000

 k-point   671 :       0.0714   -0.4000   -0.2667
  band No.  band energies     occupation 
      1     -46.8414      2.00000
      2     -46.8355      2.00000
      3     -46.8025      2.00000
      4     -46.7973      2.00000
      5      -1.7029      2.00000
      6      -0.5626      2.00000
      7       1.1020      0.00000
      8       1.9389      0.00000
      9       3.0336      0.00000
     10       3.5894      0.00000

 k-point   672 :       0.0714    0.2667   -0.4000
  band No.  band energies     occupation 
      1     -46.8425      2.00000
      2     -46.8326      2.00000
      3     -46.8071      2.00000
      4     -46.7945      2.00000
      5      -1.7036      2.00000
      6      -0.5664      2.00000
      7       1.1097      0.00000
      8       1.9350      0.00000
      9       3.0137      0.00000
     10       3.6546      0.00000

 k-point   673 :       0.1429    0.4000    0.2667
  band No.  band energies     occupation 
      1     -46.8407      2.00000
      2     -46.8359      2.00000
      3     -46.8024      2.00000
      4     -46.7977      2.00000
      5      -1.6246      2.00000
      6      -0.4890      2.00000
      7       1.1451      0.00000
      8       1.7732      0.00000
      9       2.8077      0.00000
     10       3.3767      0.00000

 k-point   674 :       0.1429   -0.2667    0.4000
  band No.  band energies     occupation 
      1     -46.8416      2.00000
      2     -46.8334      2.00000
      3     -46.8068      2.00000
      4     -46.7949      2.00000
      5      -1.6250      2.00000
      6      -0.4894      2.00000
      7       1.1386      0.00000
      8       1.7820      0.00000
      9       2.8166      0.00000
     10       3.3280      0.00000

 k-point   675 :       0.1429   -0.4000   -0.2667
  band No.  band energies     occupation 
      1     -46.8412      2.00000
      2     -46.8353      2.00000
      3     -46.8028      2.00000
      4     -46.7973      2.00000
      5      -1.6235      2.00000
      6      -0.4861      2.00000
      7       1.1371      0.00000
      8       1.7415      0.00000
      9       2.8323      0.00000
     10       3.3848      0.00000

 k-point   676 :       0.1429    0.2667   -0.4000
  band No.  band energies     occupation 
      1     -46.8424      2.00000
      2     -46.8322      2.00000
      3     -46.8076      2.00000
      4     -46.7945      2.00000
      5      -1.6240      2.00000
      6      -0.4903      2.00000
      7       1.1475      0.00000
      8       1.7329      0.00000
      9       2.8231      0.00000
     10       3.4354      0.00000

 k-point   677 :       0.2143    0.4000    0.2667
  band No.  band energies     occupation 
      1     -46.8402      2.00000
      2     -46.8360      2.00000
      3     -46.8026      2.00000
      4     -46.7979      2.00000
      5      -1.4934      2.00000
      6      -0.3675      2.00000
      7       1.1609      0.00000
      8       1.4529      0.00000
      9       2.7514      0.00000
     10       3.0610      0.00000

 k-point   678 :       0.2143   -0.2667    0.4000
  band No.  band energies     occupation 
      1     -46.8412      2.00000
      2     -46.8333      2.00000
      3     -46.8071      2.00000
      4     -46.7952      2.00000
      5      -1.4935      2.00000
      6      -0.3657      2.00000
      7       1.1489      0.00000
      8       1.4583      0.00000
      9       2.7541      0.00000
     10       3.0315      0.00000

 k-point   679 :       0.2143   -0.4000   -0.2667
  band No.  band energies     occupation 
      1     -46.8408      2.00000
      2     -46.8351      2.00000
      3     -46.8032      2.00000
      4     -46.7975      2.00000
      5      -1.4917      2.00000
      6      -0.3628      2.00000
      7       1.1468      0.00000
      8       1.4252      0.00000
      9       2.7818      0.00000
     10       3.0555      0.00000

 k-point   680 :       0.2143    0.2667   -0.4000
  band No.  band energies     occupation 
      1     -46.8422      2.00000
      2     -46.8317      2.00000
      3     -46.8081      2.00000
      4     -46.7947      2.00000
      5      -1.4920      2.00000
      6      -0.3664      2.00000
      7       1.1482      0.00000
      8       1.4266      0.00000
      9       2.7762      0.00000
     10       3.0851      0.00000

 k-point   681 :       0.2857    0.4000    0.2667
  band No.  band energies     occupation 
      1     -46.8396      2.00000
      2     -46.8359      2.00000
      3     -46.8030      2.00000
      4     -46.7982      2.00000
      5      -1.3108      2.00000
      6      -0.2109      2.00000
      7       0.9092      0.00000
      8       1.3129      0.00000
      9       2.6195      0.00000
     10       2.9772      0.00000

 k-point   682 :       0.2857   -0.2667    0.4000
  band No.  band energies     occupation 
      1     -46.8407      2.00000
      2     -46.8331      2.00000
      3     -46.8075      2.00000
      4     -46.7954      2.00000
      5      -1.3104      2.00000
      6      -0.2058      2.00000
      7       0.9062      0.00000
      8       1.2945      0.00000
      9       2.6158      0.00000
     10       2.9729      0.00000

 k-point   683 :       0.2857   -0.4000   -0.2667
  band No.  band energies     occupation 
      1     -46.8403      2.00000
      2     -46.8350      2.00000
      3     -46.8036      2.00000
      4     -46.7978      2.00000
      5      -1.3083      2.00000
      6      -0.2043      2.00000
      7       0.8885      0.00000
      8       1.2942      0.00000
      9       2.6378      0.00000
     10       2.9750      0.00000

 k-point   684 :       0.2857    0.2667   -0.4000
  band No.  band energies     occupation 
      1     -46.8418      2.00000
      2     -46.8313      2.00000
      3     -46.8086      2.00000
      4     -46.7950      2.00000
      5      -1.3083      2.00000
      6      -0.2045      2.00000
      7       0.8654      0.00000
      8       1.3201      0.00000
      9       2.6330      0.00000
     10       2.9923      0.00000

 k-point   685 :       0.3571    0.4000    0.2667
  band No.  band energies     occupation 
      1     -46.8390      2.00000
      2     -46.8359      2.00000
      3     -46.8034      2.00000
      4     -46.7984      2.00000
      5      -1.0784      2.00000
      6      -0.0719      2.00000
      7       0.5646      0.00000
      8       1.2253      0.00000
      9       2.4732      0.00000
     10       3.1239      0.00000

 k-point   686 :       0.3571   -0.2667    0.4000
  band No.  band energies     occupation 
      1     -46.8404      2.00000
      2     -46.8326      2.00000
      3     -46.8080      2.00000
      4     -46.7956      2.00000
      5      -1.0772      2.00000
      6      -0.0617      2.00000
      7       0.5602      0.00000
      8       1.1923      0.00000
      9       2.4815      0.00000
     10       3.1271      0.00000

 k-point   687 :       0.3571   -0.4000   -0.2667
  band No.  band energies     occupation 
      1     -46.8398      2.00000
      2     -46.8350      2.00000
      3     -46.8039      2.00000
      4     -46.7980      2.00000
      5      -1.0752      2.00000
      6      -0.0647      2.00000
      7       0.5489      0.00000
      8       1.2079      0.00000
      9       2.4801      0.00000
     10       3.1265      0.00000

 k-point   688 :       0.3571    0.2667   -0.4000
  band No.  band energies     occupation 
      1     -46.8413      2.00000
      2     -46.8312      2.00000
      3     -46.8089      2.00000
      4     -46.7952      2.00000
      5      -1.0745      2.00000
      6      -0.0525      2.00000
      7       0.5112      0.00000
      8       1.2335      0.00000
      9       2.4749      0.00000
     10       3.1512      0.00000

 k-point   689 :       0.4286    0.4000    0.2667
  band No.  band energies     occupation 
      1     -46.8388      2.00000
      2     -46.8357      2.00000
      3     -46.8037      2.00000
      4     -46.7985      2.00000
      5      -0.8003      2.00000
      6      -0.1684      2.00000
      7       0.5069      0.00000
      8       1.0151      0.00000
      9       2.5276      0.00000
     10       3.0346      0.00000

 k-point   690 :       0.4286   -0.2667    0.4000
  band No.  band energies     occupation 
      1     -46.8404      2.00000
      2     -46.8321      2.00000
      3     -46.8085      2.00000
      4     -46.7956      2.00000
      5      -0.7976      2.00000
      6      -0.1595      2.00000
      7       0.5072      0.00000
      8       0.9771      0.00000
      9       2.5418      0.00000
     10       3.0547      0.00000

 k-point   691 :       0.4286   -0.4000   -0.2667
  band No.  band energies     occupation 
      1     -46.8393      2.00000
      2     -46.8351      2.00000
      3     -46.8040      2.00000
      4     -46.7983      2.00000
      5      -0.7963      2.00000
      6      -0.1697      2.00000
      7       0.5055      0.00000
      8       1.0024      0.00000
      9       2.5251      0.00000
     10       3.0525      0.00000

 k-point   692 :       0.4286    0.2667   -0.4000
  band No.  band energies     occupation 
      1     -46.8409      2.00000
      2     -46.8313      2.00000
      3     -46.8090      2.00000
      4     -46.7954      2.00000
      5      -0.7947      2.00000
      6      -0.1537      2.00000
      7       0.4627      0.01602
      8       1.0188      0.00000
      9       2.5267      0.00000
     10       3.0737      0.00000

 k-point   693 :       0.5000    0.4000    0.2667
  band No.  band energies     occupation 
      1     -46.8389      2.00000
      2     -46.8354      2.00000
      3     -46.8039      2.00000
      4     -46.7984      2.00000
      5      -0.5166      2.00000
      6      -0.4445      2.00000
      7       0.6828      0.00000
      8       0.7859      0.00000
      9       2.6830      0.00000
     10       2.8089      0.00000

 k-point   694 :       0.5000   -0.2667    0.4000
  band No.  band energies     occupation 
      1     -46.8406      2.00000
      2     -46.8316      2.00000
      3     -46.8089      2.00000
      4     -46.7956      2.00000
      5      -0.5149      2.00000
      6      -0.4354      2.00000
      7       0.6697      0.00000
      8       0.7693      0.00000
      9       2.6954      0.00000
     10       2.8213      0.00000

 k-point   695 :       0.0000    0.4667    0.2667
  band No.  band energies     occupation 
      1     -46.8395      2.00000
      2     -46.8376      2.00000
      3     -46.8007      2.00000
      4     -46.7990      2.00000
      5      -1.3964      2.00000
      6      -1.0143      2.00000
      7       1.3706      0.00000
      8       1.6831      0.00000
      9       3.3837      0.00000
     10       3.5084      0.00000

 k-point   696 :       0.0000   -0.2667    0.4667
  band No.  band energies     occupation 
      1     -46.8417      2.00000
      2     -46.8333      2.00000
      3     -46.8072      2.00000
      4     -46.7946      2.00000
      5      -1.3977      2.00000
      6      -1.0163      2.00000
      7       1.3714      0.00000
      8       1.6873      0.00000
      9       3.3510      0.00000
     10       3.5528      0.00000

 k-point   697 :       0.0714    0.4667    0.2667
  band No.  band energies     occupation 
      1     -46.8394      2.00000
      2     -46.8375      2.00000
      3     -46.8007      2.00000
      4     -46.7991      2.00000
      5      -1.3705      2.00000
      6      -0.9889      2.00000
      7       1.3823      0.00000
      8       1.6813      0.00000
      9       3.1944      0.00000
     10       3.3961      0.00000

 k-point   698 :       0.0714   -0.2667    0.4667
  band No.  band energies     occupation 
      1     -46.8415      2.00000
      2     -46.8333      2.00000
      3     -46.8072      2.00000
      4     -46.7947      2.00000
      5      -1.3716      2.00000
      6      -0.9900      2.00000
      7       1.3765      0.00000
      8       1.6876      0.00000
      9       3.2288      0.00000
     10       3.3497      0.00000

 k-point   699 :       0.0714   -0.4667   -0.2667
  band No.  band energies     occupation 
      1     -46.8395      2.00000
      2     -46.8375      2.00000
      3     -46.8008      2.00000
      4     -46.7990      2.00000
      5      -1.3698      2.00000
      6      -0.9879      2.00000
      7       1.3771      0.00000
      8       1.6724      0.00000
      9       3.1935      0.00000
     10       3.4003      0.00000

 k-point   700 :       0.0714    0.2667   -0.4667
  band No.  band energies     occupation 
      1     -46.8417      2.00000
      2     -46.8330      2.00000
      3     -46.8074      2.00000
      4     -46.7946      2.00000
      5      -1.3711      2.00000
      6      -0.9905      2.00000
      7       1.3840      0.00000
      8       1.6740      0.00000
      9       3.1495      0.00000
     10       3.4676      0.00000

 k-point   701 :       0.1429    0.4667    0.2667
  band No.  band energies     occupation 
      1     -46.8391      2.00000
      2     -46.8375      2.00000
      3     -46.8009      2.00000
      4     -46.7993      2.00000
      5      -1.2925      2.00000
      6      -0.9122      2.00000
      7       1.4014      0.00000
      8       1.6412      0.00000
      9       2.8637      0.00000
     10       3.0831      0.00000

 k-point   702 :       0.1429   -0.2667    0.4667
  band No.  band energies     occupation 
      1     -46.8413      2.00000
      2     -46.8331      2.00000
      3     -46.8074      2.00000
      4     -46.7948      2.00000
      5      -1.2933      2.00000
      6      -0.9121      2.00000
      7       1.3876      0.00000
      8       1.6491      0.00000
      9       2.8890      0.00000
     10       3.0441      0.00000

 k-point   703 :       0.1429   -0.4667   -0.2667
  band No.  band energies     occupation 
      1     -46.8393      2.00000
      2     -46.8373      2.00000
      3     -46.8010      2.00000
      4     -46.7992      2.00000
      5      -1.2910      2.00000
      6      -0.9102      2.00000
      7       1.3905      0.00000
      8       1.6230      0.00000
      9       2.8721      0.00000
     10       3.0866      0.00000

 k-point   704 :       0.1429    0.2667   -0.4667
  band No.  band energies     occupation 
      1     -46.8416      2.00000
      2     -46.8326      2.00000
      3     -46.8077      2.00000
      4     -46.7947      2.00000
      5      -1.2923      2.00000
      6      -0.9131      2.00000
      7       1.4026      0.00000
      8       1.6209      0.00000
      9       2.8451      0.00000
     10       3.1262      0.00000

 k-point   705 :       0.2143    0.4667    0.2667
  band No.  band energies     occupation 
      1     -46.8387      2.00000
      2     -46.8373      2.00000
      3     -46.8012      2.00000
      4     -46.7996      2.00000
      5      -1.1631      2.00000
      6      -0.7858      2.00000
      7       1.3768      0.00000
      8       1.4939      0.00000
      9       2.6388      0.00000
     10       2.7538      0.00000

 k-point   706 :       0.2143   -0.2667    0.4667
  band No.  band energies     occupation 
      1     -46.8410      2.00000
      2     -46.8328      2.00000
      3     -46.8078      2.00000
      4     -46.7951      2.00000
      5      -1.1634      2.00000
      6      -0.7841      2.00000
      7       1.3575      0.00000
      8       1.4962      0.00000
      9       2.6553      0.00000
     10       2.7336      0.00000

 k-point   707 :       0.2143   -0.4667   -0.2667
  band No.  band energies     occupation 
      1     -46.8390      2.00000
      2     -46.8370      2.00000
      3     -46.8013      2.00000
      4     -46.7994      2.00000
      5      -1.1609      2.00000
      6      -0.7827      2.00000
      7       1.3598      0.00000
      8       1.4709      0.00000
      9       2.6550      0.00000
     10       2.7569      0.00000

 k-point   708 :       0.2143    0.2667   -0.4667
  band No.  band energies     occupation 
      1     -46.8414      2.00000
      2     -46.8322      2.00000
      3     -46.8082      2.00000
      4     -46.7949      2.00000
      5      -1.1618      2.00000
      6      -0.7855      2.00000
      7       1.3634      0.00000
      8       1.4766      0.00000
      9       2.6389      0.00000
     10       2.7778      0.00000

 k-point   709 :       0.2857    0.4667    0.2667
  band No.  band energies     occupation 
      1     -46.8383      2.00000
      2     -46.8371      2.00000
      3     -46.8015      2.00000
      4     -46.7999      2.00000
      5      -0.9843      2.00000
      6      -0.6139      2.00000
      7       1.1385      0.00000
      8       1.3002      0.00000
      9       2.5265      0.00000
     10       2.6684      0.00000

 k-point   710 :       0.2857   -0.2667    0.4667
  band No.  band energies     occupation 
      1     -46.8407      2.00000
      2     -46.8323      2.00000
      3     -46.8083      2.00000
      4     -46.7953      2.00000
      5      -0.9835      2.00000
      6      -0.6100      2.00000
      7       1.1412      0.00000
      8       1.2667      0.00000
      9       2.5364      0.00000
     10       2.6676      0.00000

 k-point   711 :       0.2857   -0.4667   -0.2667
  band No.  band energies     occupation 
      1     -46.8386      2.00000
      2     -46.8368      2.00000
      3     -46.8017      2.00000
      4     -46.7997      2.00000
      5      -0.9812      2.00000
      6      -0.6096      2.00000
      7       1.1189      0.00000
      8       1.2806      0.00000
      9       2.5377      0.00000
     10       2.6729      0.00000

 k-point   712 :       0.2857    0.2667   -0.4667
  band No.  band energies     occupation 
      1     -46.8411      2.00000
      2     -46.8317      2.00000
      3     -46.8087      2.00000
      4     -46.7952      2.00000
      5      -0.9816      2.00000
      6      -0.6111      2.00000
      7       1.0968      0.00000
      8       1.3082      0.00000
      9       2.5268      0.00000
     10       2.6869      0.00000

 k-point   713 :       0.3571    0.4667    0.2667
  band No.  band energies     occupation 
      1     -46.8379      2.00000
      2     -46.8368      2.00000
      3     -46.8018      2.00000
      4     -46.8001      2.00000
      5      -0.7599      2.00000
      6      -0.4084      2.00000
      7       0.7752      0.00000
      8       1.0331      0.00000
      9       2.5566      0.00000
     10       2.8081      0.00000

 k-point   714 :       0.3571   -0.2667    0.4667
  band No.  band energies     occupation 
      1     -46.8405      2.00000
      2     -46.8318      2.00000
      3     -46.8088      2.00000
      4     -46.7955      2.00000
      5      -0.7573      2.00000
      6      -0.4010      2.00000
      7       0.7765      0.00000
      8       0.9935      0.00000
      9       2.5678      0.00000
     10       2.8112      0.00000

 k-point   715 :       0.3571   -0.4667   -0.2667
  band No.  band energies     occupation 
      1     -46.8382      2.00000
      2     -46.8366      2.00000
      3     -46.8019      2.00000
      4     -46.8000      2.00000
      5      -0.7560      2.00000
      6      -0.4030      2.00000
      7       0.7601      0.00000
      8       1.0175      0.00000
      9       2.5601      0.00000
     10       2.8090      0.00000

 k-point   716 :       0.3571    0.2667   -0.4667
  band No.  band energies     occupation 
      1     -46.8408      2.00000
      2     -46.8312      2.00000
      3     -46.8091      2.00000
      4     -46.7954      2.00000
      5      -0.7555      2.00000
      6      -0.3998      2.00000
      7       0.7310      0.00000
      8       1.0394      0.00000
      9       2.5547      0.00000
     10       2.8254      0.00000

 k-point   717 :       0.4286    0.4667    0.2667
  band No.  band energies     occupation 
      1     -46.8377      2.00000
      2     -46.8366      2.00000
      3     -46.8020      2.00000
      4     -46.8003      2.00000
      5      -0.5017      2.00000
      6      -0.2201      2.00000
      7       0.4665      0.00747
      8       0.7148      0.00000
      9       2.7359      0.00000
     10       3.0261      0.00000

 k-point   718 :       0.4286   -0.2667    0.4667
  band No.  band energies     occupation 
      1     -46.8404      2.00000
      2     -46.8313      2.00000
      3     -46.8092      2.00000
      4     -46.7957      2.00000
      5      -0.4957      2.00000
      6      -0.2065      2.00000
      7       0.4619      0.01861
      8       0.6752      0.00000
      9       2.7449      0.00000
     10       3.0348      0.00000

 k-point   719 :       0.4286   -0.4667   -0.2667
  band No.  band energies     occupation 
      1     -46.8379      2.00000
      2     -46.8365      2.00000
      3     -46.8021      2.00000
      4     -46.8002      2.00000
      5      -0.4972      2.00000
      6      -0.2156      2.00000
      7       0.4577      0.03999
      8       0.7043      0.00000
      9       2.7325      0.00000
     10       3.0234      0.00000

 k-point   720 :       0.4286    0.2667   -0.4667
  band No.  band energies     occupation 
      1     -46.8406      2.00000
      2     -46.8310      2.00000
      3     -46.8094      2.00000
      4     -46.7956      2.00000
      5      -0.4958      2.00000
      6      -0.1972      2.00000
      7       0.4124      1.74964
      8       0.7179      0.00000
      9       2.7324      0.00000
     10       3.0563      0.00000

 k-point   721 :       0.5000    0.4667    0.2667
  band No.  band energies     occupation 
      1     -46.8377      2.00000
      2     -46.8365      2.00000
      3     -46.8022      2.00000
      4     -46.8003      2.00000
      5      -0.2761      2.00000
      6      -0.2300      2.00000
      7       0.4184      1.53028
      8       0.4756      0.00091
      9       2.9389      0.00000
     10       3.0609      0.00000

 k-point   722 :       0.5000   -0.2667    0.4667
  band No.  band energies     occupation 
      1     -46.8405      2.00000
      2     -46.8311      2.00000
      3     -46.8094      2.00000
      4     -46.7957      2.00000
      5      -0.2821      2.00000
      6      -0.1940      2.00000
      7       0.3725      1.99993
      8       0.4726      0.00190
      9       2.9358      0.00000
     10       3.1010      0.00000

 k-point   723 :       0.0000    0.3333    0.3333
  band No.  band energies     occupation 
      1     -46.8421      2.00000
      2     -46.8340      2.00000
      3     -46.8047      2.00000
      4     -46.7960      2.00000
      5      -1.7834      2.00000
      6      -0.1431      2.00000
      7       0.5671      0.00000
      8       1.9540      0.00000
      9       3.2009      0.00000
     10       3.6338      0.00000

 k-point   724 :       0.0714    0.3333    0.3333
  band No.  band energies     occupation 
      1     -46.8418      2.00000
      2     -46.8343      2.00000
      3     -46.8046      2.00000
      4     -46.7961      2.00000
      5      -1.7571      2.00000
      6      -0.1166      2.00000
      7       0.5836      0.00000
      8       1.9162      0.00000
      9       3.0095      0.00000
     10       3.6803      0.00000

 k-point   725 :       0.0714   -0.3333   -0.3333
  band No.  band energies     occupation 
      1     -46.8422      2.00000
      2     -46.8337      2.00000
      3     -46.8050      2.00000
      4     -46.7959      2.00000
      5      -1.7566      2.00000
      6      -0.1154      2.00000
      7       0.5829      0.00000
      8       1.8926      0.00000
      9       2.9998      0.00000
     10       3.7661      0.00000

 k-point   726 :       0.1429    0.3333    0.3333
  band No.  band energies     occupation 
      1     -46.8413      2.00000
      2     -46.8345      2.00000
      3     -46.8046      2.00000
      4     -46.7964      2.00000
      5      -1.6779      2.00000
      6      -0.0375      2.00000
      7       0.6291      0.00000
      8       1.7297      0.00000
      9       2.7857      0.00000
     10       3.6344      0.00000

 k-point   727 :       0.1429   -0.3333   -0.3333
  band No.  band energies     occupation 
      1     -46.8421      2.00000
      2     -46.8334      2.00000
      3     -46.8054      2.00000
      4     -46.7959      2.00000
      5      -1.6769      2.00000
      6      -0.0347      2.00000
      7       0.6273      0.00000
      8       1.6894      0.00000
      9       2.7998      0.00000
     10       3.7231      0.00000

 k-point   728 :       0.2143    0.3333    0.3333
  band No.  band energies     occupation 
      1     -46.8407      2.00000
      2     -46.8345      2.00000
      3     -46.8049      2.00000
      4     -46.7966      2.00000
      5      -1.5460      2.00000
      6       0.0881      2.00000
      7       0.6878      0.00000
      8       1.3892      0.00000
      9       2.7518      0.00000
     10       3.4156      0.00000

 k-point   729 :       0.2143   -0.3333   -0.3333
  band No.  band energies     occupation 
      1     -46.8417      2.00000
      2     -46.8331      2.00000
      3     -46.8058      2.00000
      4     -46.7961      2.00000
      5      -1.5444      2.00000
      6       0.0939      2.00000
      7       0.6822      0.00000
      8       1.3518      0.00000
      9       2.7729      0.00000
     10       3.4749      0.00000

 k-point   730 :       0.2857    0.3333    0.3333
  band No.  band energies     occupation 
      1     -46.8401      2.00000
      2     -46.8345      2.00000
      3     -46.8053      2.00000
      4     -46.7968      2.00000
      5      -1.3622      2.00000
      6       0.2322      2.00000
      7       0.6819      0.00000
      8       1.0901      0.00000
      9       2.8136      0.00000
     10       3.1777      0.00000

 k-point   731 :       0.2857   -0.3333   -0.3333
  band No.  band energies     occupation 
      1     -46.8412      2.00000
      2     -46.8329      2.00000
      3     -46.8063      2.00000
      4     -46.7963      2.00000
      5      -1.3598      2.00000
      6       0.2463      2.00000
      7       0.6556      0.00000
      8       1.0738      0.00000
      9       2.8400      0.00000
     10       3.1847      0.00000

 k-point   732 :       0.3571    0.3333    0.3333
  band No.  band energies     occupation 
      1     -46.8396      2.00000
      2     -46.8343      2.00000
      3     -46.8057      2.00000
      4     -46.7970      2.00000
      5      -1.1274      2.00000
      6       0.1896      2.00000
      7       0.6362      0.00000
      8       1.0554      0.00000
      9       2.6922      0.00000
     10       2.8089      0.00000

 k-point   733 :       0.3571   -0.3333   -0.3333
  band No.  band energies     occupation 
      1     -46.8407      2.00000
      2     -46.8329      2.00000
      3     -46.8065      2.00000
      4     -46.7966      2.00000
      5      -1.1242      2.00000
      6       0.1992      2.00000
      7       0.6038      0.00000
      8       1.0584      0.00000
      9       2.6898      0.00000
     10       2.8422      0.00000

 k-point   734 :       0.4286    0.3333    0.3333
  band No.  band energies     occupation 
      1     -46.8395      2.00000
      2     -46.8339      2.00000
      3     -46.8062      2.00000
      4     -46.7971      2.00000
      5      -0.8443      2.00000
      6      -0.1450      2.00000
      7       0.8128      0.00000
      8       1.0826      0.00000
      9       2.4774      0.00000
     10       2.4832      0.00000

 k-point   735 :       0.4286   -0.3333   -0.3333
  band No.  band energies     occupation 
      1     -46.8402      2.00000
      2     -46.8331      2.00000
      3     -46.8066      2.00000
      4     -46.7968      2.00000
      5      -0.8404      2.00000
      6      -0.1480      2.00000
      7       0.7941      0.00000
      8       1.0932      0.00000
      9       2.4242      0.00000
     10       2.5498      0.00000

 k-point   736 :       0.5000    0.3333    0.3333
  band No.  band energies     occupation 
      1     -46.8397      2.00000
      2     -46.8335      2.00000
      3     -46.8065      2.00000
      4     -46.7970      2.00000
      5      -0.5496      2.00000
      6      -0.4722      2.00000
      7       0.9506      0.00000
      8       1.0509      0.00000
      9       2.3416      0.00000
     10       2.4106      0.00000

 k-point   737 :       0.0000    0.4000    0.3333
  band No.  band energies     occupation 
      1     -46.8405      2.00000
      2     -46.8355      2.00000
      3     -46.8031      2.00000
      4     -46.7976      2.00000
      5      -1.5047      2.00000
      6      -0.4295      2.00000
      7       0.6378      0.00000
      8       1.5897      0.00000
      9       3.3887      0.00000
     10       3.6727      0.00000

 k-point   738 :       0.0000   -0.3333    0.4000
  band No.  band energies     occupation 
      1     -46.8411      2.00000
      2     -46.8341      2.00000
      3     -46.8053      2.00000
      4     -46.7961      2.00000
      5      -1.5052      2.00000
      6      -0.4315      2.00000
      7       0.6402      0.00000
      8       1.5905      0.00000
      9       3.3823      0.00000
     10       3.6831      0.00000

 k-point   739 :       0.0714    0.4000    0.3333
  band No.  band energies     occupation 
      1     -46.8403      2.00000
      2     -46.8356      2.00000
      3     -46.8030      2.00000
      4     -46.7978      2.00000
      5      -1.4787      2.00000
      6      -0.4039      2.00000
      7       0.6560      0.00000
      8       1.5879      0.00000
      9       3.1640      0.00000
     10       3.6748      0.00000

 k-point   740 :       0.0714   -0.3333    0.4000
  band No.  band energies     occupation 
      1     -46.8409      2.00000
      2     -46.8343      2.00000
      3     -46.8053      2.00000
      4     -46.7963      2.00000
      5      -1.4790      2.00000
      6      -0.4048      2.00000
      7       0.6559      0.00000
      8       1.5895      0.00000
      9       3.1793      0.00000
     10       3.6386      0.00000

 k-point   741 :       0.0714   -0.4000   -0.3333
  band No.  band energies     occupation 
      1     -46.8406      2.00000
      2     -46.8353      2.00000
      3     -46.8033      2.00000
      4     -46.7976      2.00000
      5      -1.4780      2.00000
      6      -0.4023      2.00000
      7       0.6535      0.00000
      8       1.5779      0.00000
      9       3.1410      0.00000
     10       3.7203      0.00000

 k-point   742 :       0.0714    0.3333   -0.4000
  band No.  band energies     occupation 
      1     -46.8412      2.00000
      2     -46.8338      2.00000
      3     -46.8056      2.00000
      4     -46.7961      2.00000
      5      -1.4784      2.00000
      6      -0.4051      2.00000
      7       0.6581      0.00000
      8       1.5777      0.00000
      9       3.1253      0.00000
     10       3.7640      0.00000

 k-point   743 :       0.1429    0.4000    0.3333
  band No.  band energies     occupation 
      1     -46.8399      2.00000
      2     -46.8356      2.00000
      3     -46.8032      2.00000
      4     -46.7980      2.00000
      5      -1.3999      2.00000
      6      -0.3264      2.00000
      7       0.7056      0.00000
      8       1.5469      0.00000
      9       2.8035      0.00000
     10       3.5064      0.00000

 k-point   744 :       0.1429   -0.3333    0.4000
  band No.  band energies     occupation 
      1     -46.8405      2.00000
      2     -46.8343      2.00000
      3     -46.8054      2.00000
      4     -46.7965      2.00000
      5      -1.4001      2.00000
      6      -0.3261      2.00000
      7       0.7027      0.00000
      8       1.5493      0.00000
      9       2.8129      0.00000
     10       3.4658      0.00000

 k-point   745 :       0.1429   -0.4000   -0.3333
  band No.  band energies     occupation 
      1     -46.8404      2.00000
      2     -46.8350      2.00000
      3     -46.8036      2.00000
      4     -46.7977      2.00000
      5      -1.3985      2.00000
      6      -0.3231      2.00000
      7       0.7005      0.00000
      8       1.5258      0.00000
      9       2.7975      0.00000
     10       3.5350      0.00000

 k-point   746 :       0.1429    0.3333   -0.4000
  band No.  band energies     occupation 
      1     -46.8411      2.00000
      2     -46.8334      2.00000
      3     -46.8060      2.00000
      4     -46.7962      2.00000
      5      -1.3989      2.00000
      6      -0.3265      2.00000
      7       0.7070      0.00000
      8       1.5240      0.00000
      9       2.7877      0.00000
     10       3.5755      0.00000

 k-point   747 :       0.2143    0.4000    0.3333
  band No.  band energies     occupation 
      1     -46.8394      2.00000
      2     -46.8356      2.00000
      3     -46.8034      2.00000
      4     -46.7983      2.00000
      5      -1.2689      2.00000
      6      -0.2008      2.00000
      7       0.7745      0.00000
      8       1.3944      0.00000
      9       2.5789      0.00000
     10       3.1694      0.00000

 k-point   748 :       0.2143   -0.3333    0.4000
  band No.  band energies     occupation 
      1     -46.8401      2.00000
      2     -46.8342      2.00000
      3     -46.8057      2.00000
      4     -46.7968      2.00000
      5      -1.2690      2.00000
      6      -0.1987      2.00000
      7       0.7680      0.00000
      8       1.3970      0.00000
      9       2.5845      0.00000
     10       3.1346      0.00000

 k-point   749 :       0.2143   -0.4000   -0.3333
  band No.  band energies     occupation 
      1     -46.8401      2.00000
      2     -46.8347      2.00000
      3     -46.8040      2.00000
      4     -46.7979      2.00000
      5      -1.2669      2.00000
      6      -0.1952      2.00000
      7       0.7661      0.00000
      8       1.3661      0.00000
      9       2.5860      0.00000
     10       3.1779      0.00000

 k-point   750 :       0.2143    0.3333   -0.4000
  band No.  band energies     occupation 
      1     -46.8409      2.00000
      2     -46.8330      2.00000
      3     -46.8064      2.00000
      4     -46.7964      2.00000
      5      -1.2671      2.00000
      6      -0.1987      2.00000
      7       0.7729      0.00000
      8       1.3632      0.00000
      9       2.5808      0.00000
     10       3.2049      0.00000

 k-point   751 :       0.2857    0.4000    0.3333
  band No.  band energies     occupation 
      1     -46.8389      2.00000
      2     -46.8354      2.00000
      3     -46.8038      2.00000
      4     -46.7986      2.00000
      5      -1.0869      2.00000
      6      -0.0373      2.00000
      7       0.8094      0.00000
      8       1.1450      0.00000
      9       2.5600      0.00000
     10       2.8011      0.00000

 k-point   752 :       0.2857   -0.3333    0.4000
  band No.  band energies     occupation 
      1     -46.8397      2.00000
      2     -46.8339      2.00000
      3     -46.8061      2.00000
      4     -46.7970      2.00000
      5      -1.0866      2.00000
      6      -0.0326      2.00000
      7       0.7998      0.00000
      8       1.1442      0.00000
      9       2.5672      0.00000
     10       2.7733      0.00000

 k-point   753 :       0.2857   -0.4000   -0.3333
  band No.  band energies     occupation 
      1     -46.8397      2.00000
      2     -46.8345      2.00000
      3     -46.8043      2.00000
      4     -46.7982      2.00000
      5      -1.0841      2.00000
      6      -0.0286      2.00000
      7       0.7933      0.00000
      8       1.1224      0.00000
      9       2.5725      0.00000
     10       2.7947      0.00000

 k-point   754 :       0.2857    0.3333   -0.4000
  band No.  band energies     occupation 
      1     -46.8405      2.00000
      2     -46.8327      2.00000
      3     -46.8068      2.00000
      4     -46.7967      2.00000
      5      -1.0841      2.00000
      6      -0.0304      2.00000
      7       0.7907      0.00000
      8       1.1274      0.00000
      9       2.5650      0.00000
     10       2.8151      0.00000

 k-point   755 :       0.3571    0.4000    0.3333
  band No.  band energies     occupation 
      1     -46.8385      2.00000
      2     -46.8352      2.00000
      3     -46.8042      2.00000
      4     -46.7988      2.00000
      5      -0.8559      2.00000
      6       0.1183      2.00000
      7       0.6495      0.00000
      8       1.0415      0.00000
      9       2.4478      0.00000
     10       2.7519      0.00000

 k-point   756 :       0.3571   -0.3333    0.4000
  band No.  band energies     occupation 
      1     -46.8394      2.00000
      2     -46.8335      2.00000
      3     -46.8066      2.00000
      4     -46.7972      2.00000
      5      -0.8551      2.00000
      6       0.1265      2.00000
      7       0.6445      0.00000
      8       1.0264      0.00000
      9       2.4461      0.00000
     10       2.7308      0.00000

 k-point   757 :       0.3571   -0.4000   -0.3333
  band No.  band energies     occupation 
      1     -46.8392      2.00000
      2     -46.8344      2.00000
      3     -46.8046      2.00000
      4     -46.7985      2.00000
      5      -0.8522      2.00000
      6       0.1307      2.00000
      7       0.6248      0.00000
      8       1.0292      0.00000
      9       2.4514      0.00000
     10       2.7303      0.00000

 k-point   758 :       0.3571    0.3333   -0.4000
  band No.  band energies     occupation 
      1     -46.8401      2.00000
      2     -46.8325      2.00000
      3     -46.8072      2.00000
      4     -46.7969      2.00000
      5      -0.8520      2.00000
      6       0.1383      2.00000
      7       0.5990      0.00000
      8       1.0481      0.00000
      9       2.4449      0.00000
     10       2.7487      0.00000

 k-point   759 :       0.4286    0.4000    0.3333
  band No.  band energies     occupation 
      1     -46.8384      2.00000
      2     -46.8349      2.00000
      3     -46.8045      2.00000
      4     -46.7989      2.00000
      5      -0.5804      2.00000
      6       0.0427      2.00000
      7       0.6059      0.00000
      8       0.9791      0.00000
      9       2.3131      0.00000
     10       2.6386      0.00000

 k-point   760 :       0.4286   -0.3333    0.4000
  band No.  band energies     occupation 
      1     -46.8393      2.00000
      2     -46.8331      2.00000
      3     -46.8070      2.00000
      4     -46.7973      2.00000
      5      -0.5787      2.00000
      6       0.0484      2.00000
      7       0.6092      0.00000
      8       0.9536      0.00000
      9       2.3188      0.00000
     10       2.6459      0.00000

 k-point   761 :       0.4286   -0.4000   -0.3333
  band No.  band energies     occupation 
      1     -46.8388      2.00000
      2     -46.8344      2.00000
      3     -46.8048      2.00000
      4     -46.7987      2.00000
      5      -0.5760      2.00000
      6       0.0441      2.00000
      7       0.5973      0.00000
      8       0.9702      0.00000
      9       2.3087      0.00000
     10       2.6539      0.00000

 k-point   762 :       0.4286    0.3333   -0.4000
  band No.  band energies     occupation 
      1     -46.8397      2.00000
      2     -46.8325      2.00000
      3     -46.8073      2.00000
      4     -46.7971      2.00000
      5      -0.5754      2.00000
      6       0.0561      2.00000
      7       0.5648      0.00000
      8       0.9870      0.00000
      9       2.3076      0.00000
     10       2.6646      0.00000

 k-point   763 :       0.5000    0.4000    0.3333
  band No.  band energies     occupation 
      1     -46.8385      2.00000
      2     -46.8346      2.00000
      3     -46.8047      2.00000
      4     -46.7988      2.00000
      5      -0.3037      2.00000
      6      -0.2241      2.00000
      7       0.7497      0.00000
      8       0.8509      0.00000
      9       2.3503      0.00000
     10       2.4460      0.00000

 k-point   764 :       0.5000   -0.3333    0.4000
  band No.  band energies     occupation 
      1     -46.8394      2.00000
      2     -46.8327      2.00000
      3     -46.8072      2.00000
      4     -46.7973      2.00000
      5      -0.3031      2.00000
      6      -0.2179      2.00000
      7       0.7426      0.00000
      8       0.8403      0.00000
      9       2.3619      0.00000
     10       2.4453      0.00000

 k-point   765 :       0.0000    0.4667    0.3333
  band No.  band energies     occupation 
      1     -46.8388      2.00000
      2     -46.8371      2.00000
      3     -46.8013      2.00000
      4     -46.7995      2.00000
      5      -1.1789      2.00000
      6      -0.8126      2.00000
      7       0.8969      0.00000
      8       1.2262      0.00000
      9       3.5597      0.00000
     10       3.6637      0.00000

 k-point   766 :       0.0000   -0.3333    0.4667
  band No.  band energies     occupation 
      1     -46.8406      2.00000
      2     -46.8342      2.00000
      3     -46.8057      2.00000
      4     -46.7962      2.00000
      5      -1.1799      2.00000
      6      -0.8141      2.00000
      7       0.8985      0.00000
      8       1.2284      0.00000
      9       3.5303      0.00000
     10       3.7010      0.00000

 k-point   767 :       0.0714    0.4667    0.3333
  band No.  band energies     occupation 
      1     -46.8387      2.00000
      2     -46.8371      2.00000
      3     -46.8014      2.00000
      4     -46.7996      2.00000
      5      -1.1531      2.00000
      6      -0.7870      2.00000
      7       0.9138      0.00000
      8       1.2379      0.00000
      9       3.3666      0.00000
     10       3.5606      0.00000

 k-point   768 :       0.0714   -0.3333    0.4667
  band No.  band energies     occupation 
      1     -46.8404      2.00000
      2     -46.8342      2.00000
      3     -46.8058      2.00000
      4     -46.7964      2.00000
      5      -1.1539      2.00000
      6      -0.7875      2.00000
      7       0.9115      0.00000
      8       1.2407      0.00000
      9       3.4023      0.00000
     10       3.5089      0.00000

 k-point   769 :       0.0714   -0.4667   -0.3333
  band No.  band energies     occupation 
      1     -46.8388      2.00000
      2     -46.8370      2.00000
      3     -46.8014      2.00000
      4     -46.7995      2.00000
      5      -1.1522      2.00000
      6      -0.7858      2.00000
      7       0.9104      0.00000
      8       1.2326      0.00000
      9       3.3514      0.00000
     10       3.5674      0.00000

 k-point   770 :       0.0714    0.3333   -0.4667
  band No.  band energies     occupation 
      1     -46.8406      2.00000
      2     -46.8340      2.00000
      3     -46.8059      2.00000
      4     -46.7963      2.00000
      5      -1.1533      2.00000
      6      -0.7882      2.00000
      7       0.9156      0.00000
      8       1.2341      0.00000
      9       3.3133      0.00000
     10       3.6284      0.00000

 k-point   771 :       0.1429    0.4667    0.3333
  band No.  band energies     occupation 
      1     -46.8385      2.00000
      2     -46.8370      2.00000
      3     -46.8015      2.00000
      4     -46.7998      2.00000
      5      -1.0749      2.00000
      6      -0.7095      2.00000
      7       0.9570      0.00000
      8       1.2582      0.00000
      9       2.9848      0.00000
     10       3.2454      0.00000

 k-point   772 :       0.1429   -0.3333    0.4667
  band No.  band energies     occupation 
      1     -46.8402      2.00000
      2     -46.8341      2.00000
      3     -46.8060      2.00000
      4     -46.7965      2.00000
      5      -1.0755      2.00000
      6      -0.7089      2.00000
      7       0.9504      0.00000
      8       1.2613      0.00000
      9       3.0083      0.00000
     10       3.2013      0.00000

 k-point   773 :       0.1429   -0.4667   -0.3333
  band No.  band energies     occupation 
      1     -46.8386      2.00000
      2     -46.8368      2.00000
      3     -46.8017      2.00000
      4     -46.7997      2.00000
      5      -1.0732      2.00000
      6      -0.7071      2.00000
      7       0.9499      0.00000
      8       1.2470      0.00000
      9       2.9759      0.00000
     10       3.2460      0.00000

 k-point   774 :       0.1429    0.3333   -0.4667
  band No.  band energies     occupation 
      1     -46.8405      2.00000
      2     -46.8337      2.00000
      3     -46.8062      2.00000
      4     -46.7965      2.00000
      5      -1.0742      2.00000
      6      -0.7101      2.00000
      7       0.9587      0.00000
      8       1.2472      0.00000
      9       2.9502      0.00000
     10       3.2878      0.00000

 k-point   775 :       0.2143    0.4667    0.3333
  band No.  band energies     occupation 
      1     -46.8381      2.00000
      2     -46.8368      2.00000
      3     -46.8018      2.00000
      4     -46.8001      2.00000
      5      -0.9454      2.00000
      6      -0.5821      2.00000
      7       1.0091      0.00000
      8       1.2497      0.00000
      9       2.6231      0.00000
     10       2.8507      0.00000

 k-point   776 :       0.2143   -0.3333    0.4667
  band No.  band energies     occupation 
      1     -46.8399      2.00000
      2     -46.8337      2.00000
      3     -46.8063      2.00000
      4     -46.7968      2.00000
      5      -0.9455      2.00000
      6      -0.5799      2.00000
      7       0.9973      0.00000
      8       1.2521      0.00000
      9       2.6363      0.00000
     10       2.8218      0.00000

 k-point   777 :       0.2143   -0.4667   -0.3333
  band No.  band energies     occupation 
      1     -46.8383      2.00000
      2     -46.8365      2.00000
      3     -46.8020      2.00000
      4     -46.7999      2.00000
      5      -0.9427      2.00000
      6      -0.5783      2.00000
      7       0.9980      0.00000
      8       1.2324      0.00000
      9       2.6224      0.00000
     10       2.8497      0.00000

 k-point   778 :       0.2143    0.3333   -0.4667
  band No.  band energies     occupation 
      1     -46.8402      2.00000
      2     -46.8333      2.00000
      3     -46.8066      2.00000
      4     -46.7966      2.00000
      5      -0.9436      2.00000
      6      -0.5814      2.00000
      7       1.0093      0.00000
      8       1.2307      0.00000
      9       2.6060      0.00000
     10       2.8740      0.00000

 k-point   779 :       0.2857    0.4667    0.3333
  band No.  band energies     occupation 
      1     -46.8377      2.00000
      2     -46.8365      2.00000
      3     -46.8021      2.00000
      4     -46.8004      2.00000
      5      -0.7667      2.00000
      6      -0.4089      2.00000
      7       1.0163      0.00000
      8       1.1508      0.00000
      9       2.4202      0.00000
     10       2.5135      0.00000

 k-point   780 :       0.2857   -0.3333    0.4667
  band No.  band energies     occupation 
      1     -46.8396      2.00000
      2     -46.8333      2.00000
      3     -46.8068      2.00000
      4     -46.7970      2.00000
      5      -0.7659      2.00000
      6      -0.4047      2.00000
      7       1.0027      0.00000
      8       1.1459      0.00000
      9       2.4317      0.00000
     10       2.4954      0.00000

 k-point   781 :       0.2857   -0.4667   -0.3333
  band No.  band energies     occupation 
      1     -46.8380      2.00000
      2     -46.8362      2.00000
      3     -46.8023      2.00000
      4     -46.8002      2.00000
      5      -0.7630      2.00000
      6      -0.4036      2.00000
      7       1.0004      0.00000
      8       1.1311      0.00000
      9       2.4251      0.00000
     10       2.5124      0.00000

 k-point   782 :       0.2857    0.3333   -0.4667
  band No.  band energies     occupation 
      1     -46.8399      2.00000
      2     -46.8328      2.00000
      3     -46.8070      2.00000
      4     -46.7969      2.00000
      5      -0.7636      2.00000
      6      -0.4061      2.00000
      7       1.0030      0.00000
      8       1.1361      0.00000
      9       2.4093      0.00000
     10       2.5322      0.00000

 k-point   783 :       0.3571    0.4667    0.3333
  band No.  band energies     occupation 
      1     -46.8374      2.00000
      2     -46.8362      2.00000
      3     -46.8024      2.00000
      4     -46.8006      2.00000
      5      -0.5430      2.00000
      6      -0.2016      2.00000
      7       0.8420      0.00000
      8       1.0029      0.00000
      9       2.3315      0.00000
     10       2.4520      0.00000

 k-point   784 :       0.3571   -0.3333    0.4667
  band No.  band energies     occupation 
      1     -46.8394      2.00000
      2     -46.8328      2.00000
      3     -46.8072      2.00000
      4     -46.7973      2.00000
      5      -0.5408      2.00000
      6      -0.1943      2.00000
      7       0.8418      0.00000
      8       0.9740      0.00000
      9       2.3354      0.00000
     10       2.4507      0.00000

 k-point   785 :       0.3571   -0.4667   -0.3333
  band No.  band energies     occupation 
      1     -46.8376      2.00000
      2     -46.8360      2.00000
      3     -46.8026      2.00000
      4     -46.8005      2.00000
      5      -0.5383      2.00000
      6      -0.1946      2.00000
      7       0.8240      0.00000
      8       0.9869      0.00000
      9       2.3335      0.00000
     10       2.4508      0.00000

 k-point   786 :       0.3571    0.3333   -0.4667
  band No.  band energies     occupation 
      1     -46.8396      2.00000
      2     -46.8325      2.00000
      3     -46.8074      2.00000
      4     -46.7971      2.00000
      5      -0.5385      2.00000
      6      -0.1935      2.00000
      7       0.8035      0.00000
      8       1.0075      0.00000
      9       2.3229      0.00000
     10       2.4667      0.00000

 k-point   787 :       0.4286    0.4667    0.3333
  band No.  band energies     occupation 
      1     -46.8372      2.00000
      2     -46.8360      2.00000
      3     -46.8027      2.00000
      4     -46.8008      2.00000
      5      -0.2858      2.00000
      6      -0.0067      2.00000
      7       0.5850      0.00000
      8       0.7942      0.00000
      9       2.3826      0.00000
     10       2.6352      0.00000

 k-point   788 :       0.4286   -0.3333    0.4667
  band No.  band energies     occupation 
      1     -46.8393      2.00000
      2     -46.8324      2.00000
      3     -46.8075      2.00000
      4     -46.7974      2.00000
      5      -0.2810      2.00000
      6       0.0056      2.00000
      7       0.5833      0.00000
      8       0.7594      0.00000
      9       2.3876      0.00000
     10       2.6295      0.00000

 k-point   789 :       0.4286   -0.4667   -0.3333
  band No.  band energies     occupation 
      1     -46.8373      2.00000
      2     -46.8358      2.00000
      3     -46.8028      2.00000
      4     -46.8007      2.00000
      5      -0.2805      2.00000
      6       0.0000      2.00000
      7       0.5726      0.00000
      8       0.7827      0.00000
      9       2.3796      0.00000
     10       2.6218      0.00000

 k-point   790 :       0.4286    0.3333   -0.4667
  band No.  band energies     occupation 
      1     -46.8394      2.00000
      2     -46.8322      2.00000
      3     -46.8076      2.00000
      4     -46.7973      2.00000
      5      -0.2807      2.00000
      6       0.0156      2.00000
      7       0.5342      0.00000
      8       0.7993      0.00000
      9       2.3778      0.00000
     10       2.6372      0.00000

 k-point   791 :       0.5000    0.4667    0.3333
  band No.  band energies     occupation 
      1     -46.8371      2.00000
      2     -46.8358      2.00000
      3     -46.8028      2.00000
      4     -46.8008      2.00000
      5      -0.0614      2.00000
      6      -0.0085      2.00000
      7       0.5346      0.00000
      8       0.5963      0.00000
      9       2.5418      0.00000
     10       2.6574      0.00000

 k-point   792 :       0.5000   -0.3333    0.4667
  band No.  band energies     occupation 
      1     -46.8393      2.00000
      2     -46.8322      2.00000
      3     -46.8077      2.00000
      4     -46.7974      2.00000
      5      -0.0692      2.00000
      6       0.0256      2.00000
      7       0.4954      0.00000
      8       0.5954      0.00000
      9       2.5442      0.00000
     10       2.6654      0.00000

 k-point   793 :       0.0000    0.4000    0.4000
  band No.  band energies     occupation 
      1     -46.8397      2.00000
      2     -46.8354      2.00000
      3     -46.8037      2.00000
      4     -46.7980      2.00000
      5      -1.2342      2.00000
      6      -0.3845      2.00000
      7       0.3896      1.99424
      8       1.1784      0.00000
      9       3.5806      0.00000
     10       3.7967      0.00000

 k-point   794 :       0.0714    0.4000    0.4000
  band No.  band energies     occupation 
      1     -46.8396      2.00000
      2     -46.8355      2.00000
      3     -46.8037      2.00000
      4     -46.7981      2.00000
      5      -1.2081      2.00000
      6      -0.3574      2.00000
      7       0.4069      1.87557
      8       1.1902      0.00000
      9       3.3733      0.00000
     10       3.7572      0.00000

 k-point   795 :       0.0714   -0.4000   -0.4000
  band No.  band energies     occupation 
      1     -46.8398      2.00000
      2     -46.8352      2.00000
      3     -46.8039      2.00000
      4     -46.7980      2.00000
      5      -1.2074      2.00000
      6      -0.3567      2.00000
      7       0.4066      1.88104
      8       1.1845      0.00000
      9       3.3242      0.00000
     10       3.8367      0.00000

 k-point   796 :       0.1429    0.4000    0.4000
  band No.  band energies     occupation 
      1     -46.8393      2.00000
      2     -46.8354      2.00000
      3     -46.8038      2.00000
      4     -46.7983      2.00000
      5      -1.1294      2.00000
      6      -0.2761      2.00000
      7       0.4571      0.04413
      8       1.2107      0.00000
      9       2.9643      0.00000
     10       3.5868      0.00000

 k-point   797 :       0.1429   -0.4000   -0.4000
  band No.  band energies     occupation 
      1     -46.8397      2.00000
      2     -46.8349      2.00000
      3     -46.8041      2.00000
      4     -46.7981      2.00000
      5      -1.1279      2.00000
      6      -0.2746      2.00000
      7       0.4563      0.05061
      8       1.1984      0.00000
      9       2.9333      0.00000
     10       3.6539      0.00000

 k-point   798 :       0.2143    0.4000    0.4000
  band No.  band energies     occupation 
      1     -46.8388      2.00000
      2     -46.8352      2.00000
      3     -46.8041      2.00000
      4     -46.7985      2.00000
      5      -0.9989      2.00000
      6      -0.1439      2.00000
      7       0.5338      0.00000
      8       1.2027      0.00000
      9       2.5928      0.00000
     10       3.2848      0.00000

 k-point   799 :       0.2143   -0.4000   -0.4000
  band No.  band energies     occupation 
      1     -46.8394      2.00000
      2     -46.8345      2.00000
      3     -46.8045      2.00000
      4     -46.7983      2.00000
      5      -0.9966      2.00000
      6      -0.1410      2.00000
      7       0.5318      0.00000
      8       1.1833      0.00000
      9       2.5787      0.00000
     10       3.3295      0.00000

 k-point   800 :       0.2857    0.4000    0.4000
  band No.  band energies     occupation 
      1     -46.8384      2.00000
      2     -46.8349      2.00000
      3     -46.8045      2.00000
      4     -46.7988      2.00000
      5      -0.8180      2.00000
      6       0.0310      2.00000
      7       0.6186      0.00000
      8       1.1017      0.00000
      9       2.3897      0.00000
     10       2.9404      0.00000

 k-point   801 :       0.2857   -0.4000   -0.4000
  band No.  band energies     occupation 
      1     -46.8390      2.00000
      2     -46.8342      2.00000
      3     -46.8049      2.00000
      4     -46.7986      2.00000
      5      -0.8150      2.00000
      6       0.0370      2.00000
      7       0.6115      0.00000
      8       1.0803      0.00000
      9       2.3859      0.00000
     10       2.9565      0.00000

 k-point   802 :       0.3571    0.4000    0.4000
  band No.  band energies     occupation 
      1     -46.8382      2.00000
      2     -46.8345      2.00000
      3     -46.8049      2.00000
      4     -46.7991      2.00000
      5      -0.5899      2.00000
      6       0.2194      2.00000
      7       0.6467      0.00000
      8       0.9375      0.00000
      9       2.4283      0.00000
     10       2.6147      0.00000

 k-point   803 :       0.3571   -0.4000   -0.4000
  band No.  band energies     occupation 
      1     -46.8386      2.00000
      2     -46.8339      2.00000
      3     -46.8052      2.00000
      4     -46.7988      2.00000
      5      -0.5861      2.00000
      6       0.2346      2.00000
      7       0.6154      0.00000
      8       0.9349      0.00000
      9       2.4023      0.00000
     10       2.6697      0.00000

 k-point   804 :       0.4286    0.4000    0.4000
  band No.  band energies     occupation 
      1     -46.8381      2.00000
      2     -46.8342      2.00000
      3     -46.8052      2.00000
      4     -46.7992      2.00000
      5      -0.3209      2.00000
      6       0.2451      2.00000
      7       0.6296      0.00000
      8       0.8712      0.00000
      9       2.3480      0.00000
     10       2.3721      0.00000

 k-point   805 :       0.4286   -0.4000   -0.4000
  band No.  band energies     occupation 
      1     -46.8383      2.00000
      2     -46.8339      2.00000
      3     -46.8054      2.00000
      4     -46.7991      2.00000
      5      -0.3169      2.00000
      6       0.2595      2.00000
      7       0.5884      0.00000
      8       0.8873      0.00000
      9       2.2855      0.00000
     10       2.4000      0.00000

 k-point   806 :       0.5000    0.4000    0.4000
  band No.  band energies     occupation 
      1     -46.8381      2.00000
      2     -46.8339      2.00000
      3     -46.8053      2.00000
      4     -46.7992      2.00000
      5      -0.0616      2.00000
      6       0.0265      2.00000
      7       0.7242      0.00000
      8       0.8199      0.00000
      9       2.1990      0.00000
     10       2.2595      0.00000

 k-point   807 :       0.0000    0.4667    0.4000
  band No.  band energies     occupation 
      1     -46.8383      2.00000
      2     -46.8368      2.00000
      3     -46.8018      2.00000
      4     -46.7999      2.00000
      5      -0.9250      2.00000
      6      -0.6041      2.00000
      7       0.4986      0.00000
      8       0.8010      0.00000
      9       3.7562      0.00000
     10       3.8409      0.00000

 k-point   808 :       0.0000   -0.4000    0.4667
  band No.  band energies     occupation 
      1     -46.8393      2.00000
      2     -46.8354      2.00000
      3     -46.8040      2.00000
      4     -46.7982      2.00000
      5      -0.9255      2.00000
      6      -0.6050      2.00000
      7       0.4995      0.00000
      8       0.8020      0.00000
      9       3.7381      0.00000
     10       3.8628      0.00000

 k-point   809 :       0.0714    0.4667    0.4000
  band No.  band energies     occupation 
      1     -46.8382      2.00000
      2     -46.8368      2.00000
      3     -46.8019      2.00000
      4     -46.8000      2.00000
      5      -0.8990      2.00000
      6      -0.5779      2.00000
      7       0.5171      0.00000
      8       0.8181      0.00000
      9       3.5848      0.00000
     10       3.7461      0.00000

 k-point   810 :       0.0714   -0.4000    0.4667
  band No.  band energies     occupation 
      1     -46.8392      2.00000
      2     -46.8353      2.00000
      3     -46.8041      2.00000
      4     -46.7982      2.00000
      5      -0.8994      2.00000
      6      -0.5779      2.00000
      7       0.5160      0.00000
      8       0.8191      0.00000
      9       3.6083      0.00000
     10       3.7089      0.00000

 k-point   811 :       0.0714   -0.4667   -0.4000
  band No.  band energies     occupation 
      1     -46.8383      2.00000
      2     -46.8367      2.00000
      3     -46.8019      2.00000
      4     -46.8000      2.00000
      5      -0.8980      2.00000
      6      -0.5767      2.00000
      7       0.5151      0.00000
      8       0.8147      0.00000
      9       3.5572      0.00000
     10       3.7608      0.00000

 k-point   812 :       0.0714    0.4000   -0.4667
  band No.  band energies     occupation 
      1     -46.8393      2.00000
      2     -46.8352      2.00000
      3     -46.8041      2.00000
      4     -46.7982      2.00000
      5      -0.8986      2.00000
      6      -0.5784      2.00000
      7       0.5180      0.00000
      8       0.8155      0.00000
      9       3.5342      0.00000
     10       3.8018      0.00000

 k-point   813 :       0.1429    0.4667    0.4000
  band No.  band energies     occupation 
      1     -46.8379      2.00000
      2     -46.8366      2.00000
      3     -46.8021      2.00000
      4     -46.8002      2.00000
      5      -0.8204      2.00000
      6      -0.4986      2.00000
      7       0.5688      0.00000
      8       0.8620      0.00000
      9       3.2018      0.00000
     10       3.4610      0.00000

 k-point   814 :       0.1429   -0.4000    0.4667
  band No.  band energies     occupation 
      1     -46.8390      2.00000
      2     -46.8351      2.00000
      3     -46.8043      2.00000
      4     -46.7984      2.00000
      5      -0.8206      2.00000
      6      -0.4975      2.00000
      7       0.5653      0.00000
      8       0.8630      0.00000
      9       3.2158      0.00000
     10       3.4260      0.00000

 k-point   815 :       0.1429   -0.4667   -0.4000
  band No.  band energies     occupation 
      1     -46.8381      2.00000
      2     -46.8365      2.00000
      3     -46.8021      2.00000
      4     -46.8001      2.00000
      5      -0.8185      2.00000
      6      -0.4962      2.00000
      7       0.5645      0.00000
      8       0.8550      0.00000
      9       3.1797      0.00000
     10       3.4634      0.00000

 k-point   816 :       0.1429    0.4000   -0.4667
  band No.  band energies     occupation 
      1     -46.8391      2.00000
      2     -46.8350      2.00000
      3     -46.8044      2.00000
      4     -46.7983      2.00000
      5      -0.8191      2.00000
      6      -0.4985      2.00000
      7       0.5694      0.00000
      8       0.8555      0.00000
      9       3.1639      0.00000
     10       3.4983      0.00000

 k-point   817 :       0.2143    0.4667    0.4000
  band No.  band energies     occupation 
      1     -46.8376      2.00000
      2     -46.8363      2.00000
      3     -46.8023      2.00000
      4     -46.8004      2.00000
      5      -0.6906      2.00000
      6      -0.3685      2.00000
      7       0.6461      0.00000
      8       0.9177      0.00000
      9       2.7817      0.00000
     10       3.0667      0.00000

 k-point   818 :       0.2143   -0.4000    0.4667
  band No.  band energies     occupation 
      1     -46.8387      2.00000
      2     -46.8348      2.00000
      3     -46.8046      2.00000
      4     -46.7986      2.00000
      5      -0.6905      2.00000
      6      -0.3662      2.00000
      7       0.6401      0.00000
      8       0.9184      0.00000
      9       2.7887      0.00000
     10       3.0398      0.00000

 k-point   819 :       0.2143   -0.4667   -0.4000
  band No.  band energies     occupation 
      1     -46.8378      2.00000
      2     -46.8361      2.00000
      3     -46.8024      2.00000
      4     -46.8004      2.00000
      5      -0.6876      2.00000
      6      -0.3646      2.00000
      7       0.6392      0.00000
      8       0.9068      0.00000
      9       2.7677      0.00000
     10       3.0620      0.00000

 k-point   820 :       0.2143    0.4000   -0.4667
  band No.  band energies     occupation 
      1     -46.8389      2.00000
      2     -46.8346      2.00000
      3     -46.8047      2.00000
      4     -46.7986      2.00000
      5      -0.6882      2.00000
      6      -0.3675      2.00000
      7       0.6459      0.00000
      8       0.9068      0.00000
      9       2.7571      0.00000
     10       3.0867      0.00000

 k-point   821 :       0.2857    0.4667    0.4000
  band No.  band energies     occupation 
      1     -46.8372      2.00000
      2     -46.8360      2.00000
      3     -46.8027      2.00000
      4     -46.8007      2.00000
      5      -0.5122      2.00000
      6      -0.1926      2.00000
      7       0.7297      0.00000
      8       0.9480      0.00000
      9       2.4339      0.00000
     10       2.6659      0.00000

 k-point   822 :       0.2857   -0.4000    0.4667
  band No.  band energies     occupation 
      1     -46.8383      2.00000
      2     -46.8344      2.00000
      3     -46.8050      2.00000
      4     -46.7989      2.00000
      5      -0.5116      2.00000
      6      -0.1887      2.00000
      7       0.7210      0.00000
      8       0.9471      0.00000
      9       2.4367      0.00000
     10       2.6486      0.00000

 k-point   823 :       0.2857   -0.4667   -0.4000
  band No.  band energies     occupation 
      1     -46.8374      2.00000
      2     -46.8358      2.00000
      3     -46.8028      2.00000
      4     -46.8006      2.00000
      5      -0.5081      2.00000
      6      -0.1868      2.00000
      7       0.7193      0.00000
      8       0.9334      0.00000
      9       2.4270      0.00000
     10       2.6596      0.00000

 k-point   824 :       0.2857    0.4000   -0.4667
  band No.  band energies     occupation 
      1     -46.8385      2.00000
      2     -46.8342      2.00000
      3     -46.8051      2.00000
      4     -46.7988      2.00000
      5      -0.5087      2.00000
      6      -0.1898      2.00000
      7       0.7262      0.00000
      8       0.9335      0.00000
      9       2.4192      0.00000
     10       2.6764      0.00000

 k-point   825 :       0.3571    0.4667    0.4000
  band No.  band energies     occupation 
      1     -46.8369      2.00000
      2     -46.8357      2.00000
      3     -46.8030      2.00000
      4     -46.8010      2.00000
      5      -0.2906      2.00000
      6       0.0171      2.00000
      7       0.7667      0.00000
      8       0.8997      0.00000
      9       2.2612      0.00000
     10       2.3501      0.00000

 k-point   826 :       0.3571   -0.4000    0.4667
  band No.  band energies     occupation 
      1     -46.8381      2.00000
      2     -46.8340      2.00000
      3     -46.8053      2.00000
      4     -46.7992      2.00000
      5      -0.2891      2.00000
      6       0.0232      2.00000
      7       0.7593      0.00000
      8       0.8910      0.00000
      9       2.2607      0.00000
     10       2.3462      0.00000

 k-point   827 :       0.3571   -0.4667   -0.4000
  band No.  band energies     occupation 
      1     -46.8371      2.00000
      2     -46.8355      2.00000
      3     -46.8031      2.00000
      4     -46.8009      2.00000
      5      -0.2854      2.00000
      6       0.0254      2.00000
      7       0.7497      0.00000
      8       0.8871      0.00000
      9       2.2576      0.00000
     10       2.3457      0.00000

 k-point   828 :       0.3571    0.4000   -0.4667
  band No.  band energies     occupation 
      1     -46.8383      2.00000
      2     -46.8338      2.00000
      3     -46.8054      2.00000
      4     -46.7991      2.00000
      5      -0.2862      2.00000
      6       0.0245      2.00000
      7       0.7464      0.00000
      8       0.8943      0.00000
      9       2.2445      0.00000
     10       2.3635      0.00000

 k-point   829 :       0.4286    0.4667    0.4000
  band No.  band energies     occupation 
      1     -46.8367      2.00000
      2     -46.8354      2.00000
      3     -46.8032      2.00000
      4     -46.8012      2.00000
      5      -0.0387      2.00000
      6       0.2186      2.00000
      7       0.6649      0.00000
      8       0.7986      0.00000
      9       2.2096      0.00000
     10       2.3239      0.00000

 k-point   830 :       0.4286   -0.4000    0.4667
  band No.  band energies     occupation 
      1     -46.8379      2.00000
      2     -46.8337      2.00000
      3     -46.8056      2.00000
      4     -46.7993      2.00000
      5      -0.0356      2.00000
      6       0.2279      2.00000
      7       0.6671      0.00000
      8       0.7737      0.00000
      9       2.2076      0.00000
     10       2.3346      0.00000

 k-point   831 :       0.4286   -0.4667   -0.4000
  band No.  band energies     occupation 
      1     -46.8368      2.00000
      2     -46.8353      2.00000
      3     -46.8033      2.00000
      4     -46.8012      2.00000
      5      -0.0332      2.00000
      6       0.2295      2.00000
      7       0.6434      0.00000
      8       0.7932      0.00000
      9       2.2020      0.00000
     10       2.3075      0.00000

 k-point   832 :       0.4286    0.4000   -0.4667
  band No.  band energies     occupation 
      1     -46.8380      2.00000
      2     -46.8336      2.00000
      3     -46.8057      2.00000
      4     -46.7993      2.00000
      5      -0.0347      2.00000
      6       0.2407      2.00000
      7       0.6161      0.00000
      8       0.8096      0.00000
      9       2.1902      0.00000
     10       2.3329      0.00000

 k-point   833 :       0.5000    0.4667    0.4000
  band No.  band energies     occupation 
      1     -46.8367      2.00000
      2     -46.8353      2.00000
      3     -46.8033      2.00000
      4     -46.8013      2.00000
      5       0.1753      2.00000
      6       0.2368      2.00000
      7       0.6179      0.00000
      8       0.6831      0.00000
      9       2.2433      0.00000
     10       2.3288      0.00000

 k-point   834 :       0.5000   -0.4000    0.4667
  band No.  band energies     occupation 
      1     -46.8379      2.00000
      2     -46.8336      2.00000
      3     -46.8057      2.00000
      4     -46.7994      2.00000
      5       0.1665      2.00000
      6       0.2661      2.00000
      7       0.5877      0.00000
      8       0.6857      0.00000
      9       2.2502      0.00000
     10       2.3254      0.00000

 k-point   835 :       0.0000    0.4667    0.4667
  band No.  band energies     occupation 
      1     -46.8380      2.00000
      2     -46.8366      2.00000
      3     -46.8021      2.00000
      4     -46.8001      2.00000
      5      -0.6627      2.00000
      6      -0.5053      2.00000
      7       0.3009      2.00000
      8       0.4528      0.08785
      9       3.9134      0.00000
     10       3.9631      0.00000

 k-point   836 :       0.0714    0.4667    0.4667
  band No.  band energies     occupation 
      1     -46.8379      2.00000
      2     -46.8366      2.00000
      3     -46.8022      2.00000
      4     -46.8002      2.00000
      5      -0.6361      2.00000
      6      -0.4778      2.00000
      7       0.3186      2.00000
      8       0.4713      0.00254
      9       3.7966      0.00000
     10       3.8502      0.00000

 k-point   837 :       0.0714   -0.4667   -0.4667
  band No.  band energies     occupation 
      1     -46.8379      2.00000
      2     -46.8365      2.00000
      3     -46.8022      2.00000
      4     -46.8002      2.00000
      5      -0.6353      2.00000
      6      -0.4776      2.00000
      7       0.3185      2.00000
      8       0.4694      0.00397
      9       3.7595      0.00000
     10       3.8817      0.00000

 k-point   838 :       0.1429    0.4667    0.4667
  band No.  band energies     occupation 
      1     -46.8377      2.00000
      2     -46.8364      2.00000
      3     -46.8024      2.00000
      4     -46.8004      2.00000
      5      -0.5562      2.00000
      6      -0.3956      2.00000
      7       0.3702      1.99996
      8       0.5232      0.00000
      9       3.4597      0.00000
     10       3.5942      0.00000

 k-point   839 :       0.1429   -0.4667   -0.4667
  band No.  band energies     occupation 
      1     -46.8377      2.00000
      2     -46.8363      2.00000
      3     -46.8024      2.00000
      4     -46.8004      2.00000
      5      -0.5545      2.00000
      6      -0.3951      2.00000
      7       0.3699      1.99997
      8       0.5193      0.00000
      9       3.4276      0.00000
     10       3.6181      0.00000

 k-point   840 :       0.2143    0.4667    0.4667
  band No.  band energies     occupation 
      1     -46.8374      2.00000
      2     -46.8360      2.00000
      3     -46.8027      2.00000
      4     -46.8006      2.00000
      5      -0.4247      2.00000
      6      -0.2611      2.00000
      7       0.4510      0.11465
      8       0.6017      0.00000
      9       3.0408      0.00000
     10       3.2500      0.00000

 k-point   841 :       0.2143   -0.4667   -0.4667
  band No.  band energies     occupation 
      1     -46.8374      2.00000
      2     -46.8360      2.00000
      3     -46.8027      2.00000
      4     -46.8006      2.00000
      5      -0.4221      2.00000
      6      -0.2601      2.00000
      7       0.4503      0.12512
      8       0.5956      0.00000
      9       3.0170      0.00000
     10       3.2653      0.00000

 k-point   842 :       0.2857    0.4667    0.4667
  band No.  band energies     occupation 
      1     -46.8370      2.00000
      2     -46.8357      2.00000
      3     -46.8030      2.00000
      4     -46.8009      2.00000
      5      -0.2456      2.00000
      6      -0.0795      2.00000
      7       0.5496      0.00000
      8       0.6898      0.00000
      9       2.6305      0.00000
     10       2.8946      0.00000

 k-point   843 :       0.2857   -0.4667   -0.4667
  band No.  band energies     occupation 
      1     -46.8371      2.00000
      2     -46.8356      2.00000
      3     -46.8030      2.00000
      4     -46.8009      2.00000
      5      -0.2422      2.00000
      6      -0.0777      2.00000
      7       0.5478      0.00000
      8       0.6817      0.00000
      9       2.6140      0.00000
     10       2.8940      0.00000

 k-point   844 :       0.3571    0.4667    0.4667
  band No.  band energies     occupation 
      1     -46.8367      2.00000
      2     -46.8353      2.00000
      3     -46.8033      2.00000
      4     -46.8012      2.00000
      5      -0.0271      2.00000
      6       0.1372      2.00000
      7       0.6396      0.00000
      8       0.7494      0.00000
      9       2.3119      0.00000
     10       2.5248      0.00000

 k-point   845 :       0.3571   -0.4667   -0.4667
  band No.  band energies     occupation 
      1     -46.8368      2.00000
      2     -46.8353      2.00000
      3     -46.8033      2.00000
      4     -46.8012      2.00000
      5      -0.0231      2.00000
      6       0.1411      2.00000
      7       0.6328      0.00000
      8       0.7427      0.00000
      9       2.2998      0.00000
     10       2.5172      0.00000

 k-point   846 :       0.4286    0.4667    0.4667
  band No.  band energies     occupation 
      1     -46.8365      2.00000
      2     -46.8351      2.00000
      3     -46.8035      2.00000
      4     -46.8014      2.00000
      5       0.2125      2.00000
      6       0.3568      2.00000
      7       0.6645      0.00000
      8       0.7286      0.00000
      9       2.1722      0.00000
     10       2.2394      0.00000

 k-point   847 :       0.4286   -0.4667   -0.4667
  band No.  band energies     occupation 
      1     -46.8366      2.00000
      2     -46.8351      2.00000
      3     -46.8035      2.00000
      4     -46.8014      2.00000
      5       0.2150      2.00000
      6       0.3688      1.99998
      7       0.6364      0.00000
      8       0.7380      0.00000
      9       2.1497      0.00000
     10       2.2612      0.00000

 k-point   848 :       0.5000    0.4667    0.4667
  band No.  band energies     occupation 
      1     -46.8365      2.00000
      2     -46.8350      2.00000
      3     -46.8036      2.00000
      4     -46.8015      2.00000
      5       0.3873      1.99656
      6       0.4653      0.00956
      7       0.6036      0.00000
      8       0.6791      0.00000
      9       2.1231      0.00000
     10       2.2093      0.00000


--------------------------------------------------------------------------------------------------------


 soft charge-density along one line, spin component            1
         0         1         2         3         4         5         6         7         8         9
 total charge-density along one line
 
 pseudopotential strength for first ion, spin component:            1
-41.328   2.708   0.001   0.000   0.001
  2.708  -9.048   0.001   0.000   0.001
  0.001   0.001   0.133   0.000  -0.000
  0.000   0.000   0.000   0.133  -0.000
  0.001   0.001  -0.000  -0.000   0.133
 total augmentation occupancy for first ion, spin component:            1
  2.001   0.003  -0.001  -0.000  -0.001
  0.003   0.894  -0.004   0.000  -0.007
 -0.001  -0.004   0.018  -0.000   0.001
 -0.000   0.000  -0.000   0.018   0.001
 -0.001  -0.007   0.001   0.001   0.019


------------------------ aborting loop because EDIFF is reached ----------------------------------------


    CHARGE:  cpu time      0.8600: real time      0.8618
    FORLOC:  cpu time      0.0024: real time      0.0024
    FORNL :  cpu time      4.6138: real time      4.6249
    STRESS:  cpu time     13.9985: real time     14.0324
    FORHAR:  cpu time      0.0018: real time      0.0018
    MIXING:  cpu time      0.0051: real time      0.0051
    OFIELD:  cpu time      0.0000: real time      0.0000

  FORCE on cell =-STRESS in cart. coord.  units (eV):
  Direction    XX          YY          ZZ          XY          YZ          ZX
  --------------------------------------------------------------------------------------
  Alpha Z     3.99774     3.99774     3.99774
  Ewald     -85.23257   -85.89954   -82.82958    -0.00000     0.00000     2.64199
  Hartree    57.83420    57.97761    59.26839    -0.00000     0.00000     1.15662
  E(xc)     -52.81256   -52.81191   -52.81111     0.00000    -0.00000     0.00069
  Local     -85.85572   -85.63260   -89.63303     0.00000     0.00000    -3.51584
  n-local   -75.07309   -75.10834   -75.14251    -0.00793     0.01699    -0.03697
  augment    69.06374    69.07826    69.05920    -0.00000    -0.00000    -0.01481
  Kinetic   167.94123   167.93198   167.98983    -0.09858    -0.05305     0.05121
  Fock        0.00000     0.00000     0.00000     0.00000     0.00000     0.00000
  -------------------------------------------------------------------------------------
  Total      -0.13702    -0.46680    -0.10106     0.00000     0.00000     0.28289
  in kB      -2.38283    -8.11765    -1.75744     0.00000     0.00000     4.91950
  external pressure =       -4.09 kB  Pullay stress =        0.00 kB


 VOLUME and BASIS-vectors are now :
 -----------------------------------------------------------------------------
  energy-cutoff  :      600.00
  volume of cell :       92.13
      direct lattice vectors                 reciprocal lattice vectors
     4.665829396  0.000000000  0.000000000     0.214324167  0.000000000  0.000000000
     0.000000000  4.443647044  0.000000000     0.000000000  0.225040376  0.000000000
     0.000000000  0.000000000  4.443647044     0.000000000  0.000000000  0.225040376

  length of vectors
     4.665829396  4.443647044  4.443647044     0.214324167  0.225040376  0.225040376


 FORCES acting on ions
    electron-ion (+dipol)            ewald-force                    non-local-force                 convergence-correction
 -----------------------------------------------------------------------------------------------
   -.218E+01 -.770E+00 -.934E-01   0.219E+01 0.801E+00 0.111E+00   0.133E+00 0.654E-01 -.170E-01   0.821E-05 -.502E-05 -.287E-04
   0.190E+01 0.762E+00 -.788E+00   -.187E+01 -.801E+00 0.746E+00   -.134E+00 -.577E-01 0.126E+00   0.656E-05 0.530E-05 -.242E-04
   0.218E+01 -.770E+00 0.934E-01   -.219E+01 0.801E+00 -.111E+00   -.133E+00 0.654E-01 0.170E-01   -.821E-05 -.502E-05 0.287E-04
   -.190E+01 0.762E+00 0.788E+00   0.187E+01 -.801E+00 -.746E+00   0.134E+00 -.577E-01 -.126E+00   -.656E-05 0.529E-05 0.242E-04
 -----------------------------------------------------------------------------------------------
   0.245E-04 -.162E-01 0.486E-05   0.444E-15 0.222E-15 0.333E-15   -.278E-16 0.155E-01 0.000E+00   0.558E-09 0.556E-06 -.336E-09
 
 
 POSITION                                       TOTAL-FORCE (eV/Angst)
 -----------------------------------------------------------------------------------
      3.88583      0.55781      2.77964         0.139937      0.096801      0.000535
      1.66401      1.66401      1.66401        -0.107290     -0.096801      0.084627
      0.55781      2.77964      3.88583        -0.139937      0.096801     -0.000535
      2.77964      3.88583      0.55781         0.107290     -0.096801     -0.084627
 -----------------------------------------------------------------------------------
    total drift:                                0.000024     -0.000745      0.000005


--------------------------------------------------------------------------------------------------------



  FREE ENERGIE OF THE ION-ELECTRON SYSTEM (eV)
  ---------------------------------------------------
  free  energy   TOTEN  =        -6.56084333 eV

  energy  without entropy=       -6.56058627  energy(sigma->0) =       -6.56071480
 


--------------------------------------------------------------------------------------------------------


    POTLOK:  cpu time      0.0104: real time      0.0105


--------------------------------------------------------------------------------------------------------


     LOOP+:  cpu time    148.2221: real time    148.6709
    4ORBIT:  cpu time      0.0000: real time      0.0000

 total amount of memory used by VASP MPI-rank0   492040. kBytes
=======================================================================

   base                                    :      30000. kBytes
   nonlr-proj                              :        619. kBytes
   fftplans                                :      14504. kBytes
   grid                                    :      22371. kBytes
   one-center                              :          4. kBytes
   wavefun                                 :     424542. kBytes
 
  
  
 General timing and accounting informations for this job:
 ========================================================
  
                  Total CPU time used (sec):      152.044
                            User time (sec):      151.356
                          System time (sec):        0.688
                         Elapsed time (sec):      152.525
  
                   Maximum memory used (kb):     1860892.
                   Average memory used (kb):          N/A
  
                          Minor page faults:       342047
                          Major page faults:          523
                 Voluntary context switches:         4674
