Li                                      
    1.000000000000000     
     4.6658293963022190    0.0000000000000000    0.0000000000000000
     0.0000000000000000    4.4436470440973510    0.0000000000000000
     0.0000000000000000    0.0000000000000000    4.4436470440973510
   Li
     4
Direct
     0.8328281449531616    0.1255304477991785    0.6255304477991785
     0.3566376687626871    0.3744695522008215    0.3744695522008215
     0.1195528074277945    0.6255304477991785    0.8744695522008215
     0.5957432836182690    0.8744695522008215    0.1255304477991785
 
  0.00000000E+00  0.00000000E+00  0.00000000E+00
  0.00000000E+00  0.00000000E+00  0.00000000E+00
  0.00000000E+00  0.00000000E+00  0.00000000E+00
  0.00000000E+00  0.00000000E+00  0.00000000E+00
