       N       E                     dE             d eps       ncg     rms          rms(c)
DAV:   1     0.329018667027E+02    0.32902E+02   -0.66828E+03 16960   0.126E+03
DAV:   2     0.560390883135E+01   -0.27298E+02   -0.26816E+02 17698   0.194E+02
DAV:   3    -0.593914997156E+01   -0.11543E+02   -0.11426E+02 33282   0.667E+01
DAV:   4    -0.651138380456E+01   -0.57223E+00   -0.57143E+00 19586   0.267E+01
DAV:   5    -0.657400363841E+01   -0.62620E-01   -0.62604E-01 29116   0.587E+00    0.590E-01
DAV:   6    -0.656548583349E+01    0.85178E-02   -0.13357E-02 23478   0.123E+00    0.337E-01
DAV:   7    -0.656078093621E+01    0.47049E-02   -0.11666E-02 26556   0.803E-01    0.820E-02
DAV:   8    -0.656084926865E+01   -0.68332E-04   -0.13721E-03 21846   0.410E-01    0.226E-02
DAV:   9    -0.656085116726E+01   -0.18986E-05   -0.12909E-04 28696   0.914E-02    0.169E-02
DAV:  10    -0.656084408057E+01    0.70867E-05   -0.57864E-06 22176   0.229E-02    0.276E-03
DAV:  11    -0.656084302768E+01    0.10529E-05   -0.55824E-07 11340   0.991E-03    0.115E-03
DAV:  12    -0.656084332948E+01   -0.30180E-06   -0.17956E-07  9500   0.579E-03
   1 F= -.65608433E+01 E0= -.65607148E+01  d E =-.257064E-03
