slab_Cu-polydopamine
1.0
       12.7798995972         0.0000000000         0.0000000000
        0.0000000000        17.7082996368         0.0000000000
        0.0000000000         0.0000000000        36.1478004456
   Cu    O    N    C    H
  160    8    4   32   32
Cartesian
     0.000000000         0.000000000         0.000000000
     1.277989984         2.213537455         0.000000000
     0.000000000         0.000000000         6.260798931
     1.277989984         2.213537455         6.260798931
     0.000000000         1.475632548         4.173986435
     1.277989984         3.689170122         4.173986435
     0.000000000         2.951442242         2.086812496
     1.277989984         0.737904787         2.086812496
     2.555979967         0.000000000         0.000000000
     3.833970070         2.213537455         0.000000000
     2.555979967         0.000000000         6.260798931
     3.833970070         2.213537455         6.260798931
     2.555979967         1.475632548         4.173986435
     3.833970070         3.689170122         4.173986435
     2.555979967         2.951442242         2.086812496
     3.833970070         0.737904787         2.086812496
     5.111959934         0.000000000         0.000000000
     6.389949799         2.213537455         0.000000000
     5.111959934         0.000000000         6.260798931
     6.389949799         2.213537455         6.260798931
     5.111959934         1.475632548         4.173986435
     6.389949799         3.689170122         4.173986435
     5.111959934         2.951442242         2.086812496
     6.389949799         0.737904787         2.086812496
     7.667940140         0.000000000         0.000000000
     8.945929527         2.213537455         0.000000000
     7.667940140         0.000000000         6.260798931
     8.945929527         2.213537455         6.260798931
     7.667940140         1.475632548         4.173986435
     8.945929527         3.689170122         4.173986435
     7.667940140         2.951442242         2.086812496
     8.945929527         0.737904787         2.086812496
    10.223919868         0.000000000         0.000000000
    11.501909256         2.213537455         0.000000000
    10.223919868         0.000000000         6.260798931
    11.501909256         2.213537455         6.260798931
    10.223919868         1.475632548         4.173986435
    11.501909256         3.689170122         4.173986435
    10.223919868         2.951442242         2.086812496
    11.501909256         0.737904787         2.086812496
     0.000000000         4.427074909         0.000000000
     1.277989984         6.640612602         0.000000000
     0.000000000         4.427074909         6.260798931
     1.277989984         6.640612602         6.260798931
     0.000000000         5.902707577         4.173986435
     1.277989984         8.116245270         4.173986435
     0.000000000         7.378517151         2.086812496
     1.277989984         5.164979458         2.086812496
     2.555979967         4.427074909         0.000000000
     3.833970070         6.640612602         0.000000000
     2.555979967         4.427074909         6.260798931
     3.833970070         6.640612602         6.260798931
     2.555979967         5.902707577         4.173986435
     3.833970070         8.116245270         4.173986435
     2.555979967         7.378517151         2.086812496
     3.833970070         5.164979458         2.086812496
     5.111959934         4.427074909         0.000000000
     6.389949799         6.640612602         0.000000000
     5.111959934         4.427074909         6.260798931
     6.389949799         6.640612602         6.260798931
     5.111959934         5.902707577         4.173986435
     6.389949799         8.116245270         4.173986435
     5.111959934         7.378517151         2.086812496
     6.389949799         5.164979458         2.086812496
     7.667940140         4.427074909         0.000000000
     8.945929527         6.640612602         0.000000000
     7.667940140         4.427074909         6.260798931
     8.945929527         6.640612602         6.260798931
     7.667940140         5.902707577         4.173986435
     8.945929527         8.116245270         4.173986435
     7.667940140         7.378517151         2.086812496
     8.945929527         5.164979458         2.086812496
    10.223919868         4.427074909         0.000000000
    11.501909256         6.640612602         0.000000000
    10.223919868         4.427074909         6.260798931
    11.501909256         6.640612602         6.260798931
    10.223919868         5.902707577         4.173986435
    11.501909256         8.116245270         4.173986435
    10.223919868         7.378517151         2.086812496
    11.501909256         5.164979458         2.086812496
     0.000000000         8.854149818         0.000000000
     1.277989984        11.067687035         0.000000000
     0.000000000         8.854149818         6.260798931
     1.277989984        11.067687035         6.260798931
     0.000000000        10.329781532         4.173986435
     1.277989984        12.543319702         4.173986435
     0.000000000        11.805592537         2.086812496
     1.277989984         9.592055321         2.086812496
     2.555979967         8.854149818         0.000000000
     3.833970070        11.067687035         0.000000000
     2.555979967         8.854149818         6.260798931
     3.833970070        11.067687035         6.260798931
     2.555979967        10.329781532         4.173986435
     3.833970070        12.543319702         4.173986435
     2.555979967        11.805592537         2.086812496
     3.833970070         9.592055321         2.086812496
     5.111959934         8.854149818         0.000000000
     6.389949799        11.067687035         0.000000000
     5.111959934         8.854149818         6.260798931
     6.389949799        11.067687035         6.260798931
     5.111959934        10.329781532         4.173986435
     6.389949799        12.543319702         4.173986435
     5.111959934        11.805592537         2.086812496
     6.389949799         9.592055321         2.086812496
     7.667940140         8.854149818         0.000000000
     8.945929527        11.067687035         0.000000000
     7.667940140         8.854149818         6.260798931
     8.945929527        11.067687035         6.260798931
     7.667940140        10.329781532         4.173986435
     8.945929527        12.543319702         4.173986435
     7.667940140        11.805592537         2.086812496
     8.945929527         9.592055321         2.086812496
    10.223919868         8.854149818         0.000000000
    11.501909256        11.067687035         0.000000000
    10.223919868         8.854149818         6.260798931
    11.501909256        11.067687035         6.260798931
    10.223919868        10.329781532         4.173986435
    11.501909256        12.543319702         4.173986435
    10.223919868        11.805592537         2.086812496
    11.501909256         9.592055321         2.086812496
     0.000000000        13.281225204         0.000000000
     1.277989984        15.494762421         0.000000000
     0.000000000        13.281225204         6.260798931
     1.277989984        15.494762421         6.260798931
     0.000000000        14.756856918         4.173986435
     1.277989984        16.970394135         4.173986435
     0.000000000        16.232667923         2.086812496
     1.277989984        14.019129753         2.086812496
     2.555979967        13.281225204         0.000000000
     3.833970070        15.494762421         0.000000000
     2.555979967        13.281225204         6.260798931
     3.833970070        15.494762421         6.260798931
     2.555979967        14.756856918         4.173986435
     3.833970070        16.970394135         4.173986435
     2.555979967        16.232667923         2.086812496
     3.833970070        14.019129753         2.086812496
     5.111959934        13.281225204         0.000000000
     6.389949799        15.494762421         0.000000000
     5.111959934        13.281225204         6.260798931
     6.389949799        15.494762421         6.260798931
     5.111959934        14.756856918         4.173986435
     6.389949799        16.970394135         4.173986435
     5.111959934        16.232667923         2.086812496
     6.389949799        14.019129753         2.086812496
     7.667940140        13.281225204         0.000000000
     8.945929527        15.494762421         0.000000000
     7.667940140        13.281225204         6.260798931
     8.945929527        15.494762421         6.260798931
     7.667940140        14.756856918         4.173986435
     8.945929527        16.970394135         4.173986435
     7.667940140        16.232667923         2.086812496
     8.945929527        14.019129753         2.086812496
    10.223919868        13.281225204         0.000000000
    11.501909256        15.494762421         0.000000000
    10.223919868        13.281225204         6.260798931
    11.501909256        15.494762421         6.260798931
    10.223919868        14.756856918         4.173986435
    11.501909256        16.970394135         4.173986435
    10.223919868        16.232667923         2.086812496
    11.501909256        14.019129753         2.086812496
     7.355598450         2.670057774         8.354478836
    10.166409492         2.761078596         8.467260361
     9.777518272        15.454210281         8.665349960
     7.033417702        15.364960670         8.970438004
     6.080548763        15.772251129         8.283630371
     3.919978142        16.024770737         9.204315186
     1.607966781         2.485536814         9.368786812
     4.326507568         1.503080487         8.941881180
     7.566595078         7.438725471         8.230491638
     9.731510162        10.394062996         8.181330681
     6.427394867         8.224796295        10.162231445
     3.010816336         9.550794601         9.973899841
     8.054276466         6.154165268         8.249650955
     9.491631508         6.189581871         8.253266335
     7.367228985         4.973375797         8.245313644
    10.216251373         5.009677410         8.244229317
     9.902888298         7.565694332         8.257965088
     8.023859978         3.804273605         8.258688927
     9.522047043         3.841638327         8.254711151
     8.695187569         8.203193665         8.282184601
     9.241912842        11.691551208         8.327730179
     7.833950996        11.623373985         8.417016029
     9.913879395        12.975756645         8.424606323
     7.210035801        12.889694214         8.690653801
     7.488765717        10.242835045         8.235191345
     9.144402504        14.221535683         8.565582275
     7.765706539        14.221181870         8.664628029
     8.644196510         9.598252296         8.070357323
     5.502385616        10.309418678         8.789337158
     5.109531879        11.790362358         8.881153107
     6.019587994         9.695471764        10.277180672
     5.820349216        13.037912369         8.488588333
     3.719973087        12.161883354         9.234317780
     5.641558647        14.514607430         8.823317528
     3.321623564        13.603870392         9.323601723
     4.270530701        14.687263489         9.134188652
     3.186923265         7.372673512         8.640770912
     3.443416119         5.844624043         8.724271774
     3.337853909         8.083130836        10.077645302
     2.339871407         4.865532398         9.019961357
     4.807925701         5.323468685         8.497262955
     2.636237621         3.385826826         9.095509529
     5.081160069         3.833315611         8.580041885
     4.014166832         2.873525620         8.880431175
     6.314292908         4.910334110         8.240252495
    11.316984177         4.917772293         8.258688927
     6.572957993         7.750037670         8.211695671
    10.925280571         8.040453911         8.258326530
     6.921593666        16.316249847         8.695352554
     7.846219540         1.841309071         8.270255089
    11.161964417         2.639244795         8.246759415
    11.015762329        12.998600960         8.379420280
     6.287199497        16.684759140         8.695714951
    10.689619064        10.056897163         8.113373756
     6.595705986         9.645533562         8.236998558
     9.077562332        16.166084290         8.776324272
     4.675909996         9.681127548         8.384843826
     6.197356224        10.238230705         7.906247616
     5.225317478         9.804908752        11.051104546
     6.892072201        10.285158157        10.692518234
     2.982700348        16.140937805         9.399151802
     2.968643188        11.385196686         9.397706032
     2.302682400        13.894640923         9.547718048
     7.218981743         8.165651321         9.535429001
     5.685010910         7.670526981         9.740025520
     3.889689922         7.838224411         7.884919643
     2.153668404         7.534881592         8.239168167
     4.376221180         7.928536892        10.494791031
     2.667293072         7.615808487        10.840363503
     1.319780111         5.242364883         9.181903839
     5.577276230         6.093425751         8.274594307
     6.069813728         3.415930986         8.415929794
     2.062292099         9.723095894         9.627965927
     3.631919622        10.006959915         9.308420181
     1.945100546         1.565767884         9.387583733
     5.280526638         1.329185009         8.778855324
