 vasp.6.5.1 10Mar25 (build May 29 2025 22:39:37) complex                         
 executed on              LinuxNV date 2026.02.26  11:48:47
 running    1 mpi-ranks, with    1 threads/rank, on    1 nodes
 distrk:  each k-point on    1 cores,    1 groups
 distr:  one band on NCORE=   1 cores,    1 groups
 Offloading initialized ...    1 GPUs detected


--------------------------------------------------------------------------------------------------------


 INCAR:
   LCHARG = .FALSE.
   LWAVE = .FALSE.
   ISTART = 0
   ICHARG = 2
   KSPACING = 0.1
   KGAMMA = .TRUE.
   GGA = PE
   ENCUT = 600
   ALGO = Normal
   NELM = 120
   EDIFF = 1E-04
   SIGMA = 0.02
   ISMEAR = 0
   PREC = Accurate
   ISIF = 3
   EDIFFG = -1E-02
   NSW = 2000
   IBRION = 1

 POTCAR:    PAW_PBE Li_sv 10Sep2004               
 POTCAR:    PAW_PBE Li_sv 10Sep2004               
   VRHFIN =Li: 1s2s2p                                                                               
   LEXCH  = PE                                                                                      
   EATOM  =   202.7858 eV,   14.9043 Ry                                                             
                                                                                                    
   TITEL  = PAW_PBE Li_sv 10Sep2004                                                                 
   LULTRA =        F    use ultrasoft PP ?                                                          
   IUNSCR =        0    unscreen: 0-lin 1-nonlin 2-no                                               
   RPACOR =    0.000    partial core radius                                                         
   POMASS =    7.010; ZVAL   =    3.000    mass and valenz                                          
   RCORE  =    1.700    outmost cutoff radius                                                       
   RWIGS  =    2.050; RWIGS  =    1.085    wigner-seitz radius (au A)                               
   ENMAX  =  499.034; ENMIN  =  374.276 eV                                                          
   ICORE  =        2    local potential                                                             
   LCOR   =        T    correct aug charges                                                         
   LPAW   =        T    paw PP                                                                      
   EAUG   =  628.945                                                                                
   RMAX   =    1.732    core radius for proj-oper                                                   
   RAUG   =    1.300    factor for augmentation sphere                                              
   RDEP   =    1.728    radius for radial grids                                                     
   RDEPT  =    1.329    core radius for aug-charge                                                  
                                                                                                    
   Atomic configuration                                                                             
    4 entries                                                                                       
     n  l   j            E        occ.                                                              
     1  0  0.50       -51.8549   2.0000                                                             
     2  0  0.50        -2.8742   1.0000                                                             
     2  1  0.50        -1.3606   0.0000                                                             
     3  2  1.50        -1.3606   0.0000                                                             
   Description                                                                                      
     l       E           TYP  RCUT    TYP  RCUT                                                     
     0    -51.8548813     23  1.400                                                                 
     0     -2.8742052     23  1.700                                                                 
     1     -1.3605826     23  1.400                                                                 
     2     -1.3605826     23  1.400                                                                 
  local pseudopotential read in
  atomic valenz-charges read in
  non local Contribution for L=            0  read in
    real space projection operators read in
  non local Contribution for L=            0  read in
    real space projection operators read in
  non local Contribution for L=            1  read in
    real space projection operators read in
    PAW grid and wavefunctions read in
 
   number of l-projection  operators is LMAX  =            3
   number of lm-projection operators is LMMAX =            5
 
  PAW_PBE Li_sv 10Sep2004               :
 energy of atom  1       EATOM= -202.7858
 kinetic energy error for atom=    0.0100 (will be added to EATOM!!)
 
 
 POSCAR: Li
  positions in direct lattice
  No initial velocities read in


 exchange-correlation table for PE
   RHO(1)=    0.500       N(1)  =     2000
   RHO(2)=  100.500       N(2)  =     4000
 


--------------------------------------------------------------------------------------------------------


 ion  position               nearest neighbor table
   1  0.875  0.125  0.625-
   2  0.375  0.375  0.375-
   3  0.125  0.625  0.875-
   4  0.625  0.875  0.125-
 
  LATTYP: Found a simple cubic cell.
 ALAT       =     4.4544403333
  
  Lattice vectors:
  
 A1 = (   4.4544403333,   0.0000000000,   0.0000000000)
 A2 = (   0.0000000000,   4.4544403333,   0.0000000000)
 A3 = (   0.0000000000,   0.0000000000,   4.4544403333)


Analysis of symmetry for initial positions (statically):
=====================================================================
 Subroutine PRICEL returns:
 Original cell was already a primitive cell.
 

 Routine SETGRP: Setting up the symmetry group for a 
 simple cubic supercell.


 Subroutine GETGRP returns: Found 12 space group operations
 (whereof  3 operations were pure point group operations)
 out of a pool of 48 trial point group operations.


The static configuration has the point symmetry C_3 .
 The point group associated with its full space group is T   .


Analysis of symmetry for dynamics (positions and initial velocities):
=====================================================================
 Subroutine PRICEL returns:
 Original cell was already a primitive cell.
 

 Routine SETGRP: Setting up the symmetry group for a 
 simple cubic supercell.


 Subroutine GETGRP returns: Found 12 space group operations
 (whereof  3 operations were pure point group operations)
 out of a pool of 48 trial point group operations.


The dynamic configuration has the point symmetry C_3 .
 The point group associated with its full space group is T   .


 Subroutine INISYM returns: Found 12 space group operations
 (whereof  3 operations are pure point group operations),
 and found     1 'primitive' translations


----------------------------------------------------------------------------------------

                                     Primitive cell                                     

  volume of cell :      88.3852

  direct lattice vectors                    reciprocal lattice vectors
     4.454440333  0.000000000  0.000000000     0.224495094  0.000000000  0.000000000
     0.000000000  4.454440333  0.000000000     0.000000000  0.224495094  0.000000000
     0.000000000  0.000000000  4.454440333     0.000000000  0.000000000  0.224495094

  length of vectors
     4.454440333  4.454440333  4.454440333     0.224495094  0.224495094  0.224495094

  position of ions in fractional coordinates (direct lattice)
     0.874568000  0.125432000  0.625432000
     0.374568000  0.374568000  0.374568000
     0.125432000  0.625432000  0.874568000
     0.625432000  0.874568000  0.125432000

  ion indices of the primitive-cell ions
   primitive index   ion index
                 1           1
                 2           2
                 3           3
                 4           4

----------------------------------------------------------------------------------------

 
 -----------------------------------------------------------------------------
|                                                                             |
|           W    W    AA    RRRRR   N    N  II  N    N   GGGG   !!!           |
|           W    W   A  A   R    R  NN   N  II  NN   N  G    G  !!!           |
|           W    W  A    A  R    R  N N  N  II  N N  N  G       !!!           |
|           W WW W  AAAAAA  RRRRR   N  N N  II  N  N N  G  GGG   !            |
|           WW  WW  A    A  R   R   N   NN  II  N   NN  G    G                |
|           W    W  A    A  R    R  N    N  II  N    N   GGGG   !!!           |
|                                                                             |
|     The requested file  could not be found or opened for reading            |
|     k-point information. Automatic k-point generation is used as a          |
|     fallback, which may lead to unwanted results.                           |
|                                                                             |
 -----------------------------------------------------------------------------

 

Automatic generation of k-mesh.
 Grid dimensions derived from KSPACING:
 generate k-points for:   15   15   15

 Generating k-lattice:

  Cartesian coordinates                     Fractional coordinates (reciprocal lattice)
     0.014966340  0.000000000  0.000000000     0.066666667  0.000000000  0.000000000
     0.000000000  0.014966340  0.000000000     0.000000000  0.066666667  0.000000000
     0.000000000  0.000000000  0.014966340     0.000000000  0.000000000  0.066666667

  Length of vectors
     0.014966340  0.014966340  0.014966340

  Shift w.r.t. Gamma in fractional coordinates (k-lattice)
     0.000000000  0.000000000  0.000000000

 
 Subroutine IBZKPT returns following result:
 ===========================================
 
 Found    176 irreducible k-points:
 
 Following reciprocal coordinates:
            Coordinates               Weight
  0.000000  0.000000  0.000000      1.000000
  0.066667  0.000000  0.000000      6.000000
  0.133333  0.000000  0.000000      6.000000
  0.200000  0.000000  0.000000      6.000000
  0.266667  0.000000  0.000000      6.000000
  0.333333  0.000000  0.000000      6.000000
  0.400000  0.000000  0.000000      6.000000
  0.466667  0.000000  0.000000      6.000000
  0.066667  0.066667  0.000000     12.000000
  0.133333  0.066667  0.000000     12.000000
 -0.066667  0.133333  0.000000     12.000000
  0.200000  0.066667  0.000000     12.000000
 -0.066667  0.200000  0.000000     12.000000
  0.266667  0.066667  0.000000     12.000000
 -0.066667  0.266667  0.000000     12.000000
  0.333333  0.066667  0.000000     12.000000
 -0.066667  0.333333  0.000000     12.000000
  0.400000  0.066667  0.000000     12.000000
 -0.066667  0.400000  0.000000     12.000000
  0.466667  0.066667  0.000000     12.000000
 -0.066667  0.466667  0.000000     12.000000
  0.133333  0.133333  0.000000     12.000000
  0.200000  0.133333  0.000000     12.000000
 -0.133333  0.200000  0.000000     12.000000
  0.266667  0.133333  0.000000     12.000000
 -0.133333  0.266667  0.000000     12.000000
  0.333333  0.133333  0.000000     12.000000
 -0.133333  0.333333  0.000000     12.000000
  0.400000  0.133333  0.000000     12.000000
 -0.133333  0.400000  0.000000     12.000000
  0.466667  0.133333  0.000000     12.000000
 -0.133333  0.466667  0.000000     12.000000
  0.200000  0.200000  0.000000     12.000000
  0.266667  0.200000  0.000000     12.000000
 -0.200000  0.266667  0.000000     12.000000
  0.333333  0.200000  0.000000     12.000000
 -0.200000  0.333333  0.000000     12.000000
  0.400000  0.200000  0.000000     12.000000
 -0.200000  0.400000  0.000000     12.000000
  0.466667  0.200000  0.000000     12.000000
 -0.200000  0.466667  0.000000     12.000000
  0.266667  0.266667  0.000000     12.000000
  0.333333  0.266667  0.000000     12.000000
 -0.266667  0.333333  0.000000     12.000000
  0.400000  0.266667  0.000000     12.000000
 -0.266667  0.400000  0.000000     12.000000
  0.466667  0.266667  0.000000     12.000000
 -0.266667  0.466667  0.000000     12.000000
  0.333333  0.333333  0.000000     12.000000
  0.400000  0.333333  0.000000     12.000000
 -0.333333  0.400000  0.000000     12.000000
  0.466667  0.333333  0.000000     12.000000
 -0.333333  0.466667  0.000000     12.000000
  0.400000  0.400000  0.000000     12.000000
  0.466667  0.400000  0.000000     12.000000
 -0.400000  0.466667  0.000000     12.000000
  0.466667  0.466667  0.000000     12.000000
  0.066667  0.066667  0.066667      8.000000
  0.133333  0.066667  0.066667     24.000000
  0.200000  0.066667  0.066667     24.000000
  0.266667  0.066667  0.066667     24.000000
  0.333333  0.066667  0.066667     24.000000
  0.400000  0.066667  0.066667     24.000000
  0.466667  0.066667  0.066667     24.000000
  0.133333  0.133333  0.066667     24.000000
  0.200000  0.133333  0.066667     24.000000
 -0.133333  0.200000  0.066667     24.000000
  0.266667  0.133333  0.066667     24.000000
 -0.133333  0.266667  0.066667     24.000000
  0.333333  0.133333  0.066667     24.000000
 -0.133333  0.333333  0.066667     24.000000
  0.400000  0.133333  0.066667     24.000000
 -0.133333  0.400000  0.066667     24.000000
  0.466667  0.133333  0.066667     24.000000
 -0.133333  0.466667  0.066667     24.000000
  0.200000  0.200000  0.066667     24.000000
  0.266667  0.200000  0.066667     24.000000
 -0.200000  0.266667  0.066667     24.000000
  0.333333  0.200000  0.066667     24.000000
 -0.200000  0.333333  0.066667     24.000000
  0.400000  0.200000  0.066667     24.000000
 -0.200000  0.400000  0.066667     24.000000
  0.466667  0.200000  0.066667     24.000000
 -0.200000  0.466667  0.066667     24.000000
  0.266667  0.266667  0.066667     24.000000
  0.333333  0.266667  0.066667     24.000000
 -0.266667  0.333333  0.066667     24.000000
  0.400000  0.266667  0.066667     24.000000
 -0.266667  0.400000  0.066667     24.000000
  0.466667  0.266667  0.066667     24.000000
 -0.266667  0.466667  0.066667     24.000000
  0.333333  0.333333  0.066667     24.000000
  0.400000  0.333333  0.066667     24.000000
 -0.333333  0.400000  0.066667     24.000000
  0.466667  0.333333  0.066667     24.000000
 -0.333333  0.466667  0.066667     24.000000
  0.400000  0.400000  0.066667     24.000000
  0.466667  0.400000  0.066667     24.000000
 -0.400000  0.466667  0.066667     24.000000
  0.466667  0.466667  0.066667     24.000000
  0.133333  0.133333  0.133333      8.000000
  0.200000  0.133333  0.133333     24.000000
  0.266667  0.133333  0.133333     24.000000
  0.333333  0.133333  0.133333     24.000000
  0.400000  0.133333  0.133333     24.000000
  0.466667  0.133333  0.133333     24.000000
  0.200000  0.200000  0.133333     24.000000
  0.266667  0.200000  0.133333     24.000000
 -0.200000  0.266667  0.133333     24.000000
  0.333333  0.200000  0.133333     24.000000
 -0.200000  0.333333  0.133333     24.000000
  0.400000  0.200000  0.133333     24.000000
 -0.200000  0.400000  0.133333     24.000000
  0.466667  0.200000  0.133333     24.000000
 -0.200000  0.466667  0.133333     24.000000
  0.266667  0.266667  0.133333     24.000000
  0.333333  0.266667  0.133333     24.000000
 -0.266667  0.333333  0.133333     24.000000
  0.400000  0.266667  0.133333     24.000000
 -0.266667  0.400000  0.133333     24.000000
  0.466667  0.266667  0.133333     24.000000
 -0.266667  0.466667  0.133333     24.000000
  0.333333  0.333333  0.133333     24.000000
  0.400000  0.333333  0.133333     24.000000
 -0.333333  0.400000  0.133333     24.000000
  0.466667  0.333333  0.133333     24.000000
 -0.333333  0.466667  0.133333     24.000000
  0.400000  0.400000  0.133333     24.000000
  0.466667  0.400000  0.133333     24.000000
 -0.400000  0.466667  0.133333     24.000000
  0.466667  0.466667  0.133333     24.000000
  0.200000  0.200000  0.200000      8.000000
  0.266667  0.200000  0.200000     24.000000
  0.333333  0.200000  0.200000     24.000000
  0.400000  0.200000  0.200000     24.000000
  0.466667  0.200000  0.200000     24.000000
  0.266667  0.266667  0.200000     24.000000
  0.333333  0.266667  0.200000     24.000000
 -0.266667  0.333333  0.200000     24.000000
  0.400000  0.266667  0.200000     24.000000
 -0.266667  0.400000  0.200000     24.000000
  0.466667  0.266667  0.200000     24.000000
 -0.266667  0.466667  0.200000     24.000000
  0.333333  0.333333  0.200000     24.000000
  0.400000  0.333333  0.200000     24.000000
 -0.333333  0.400000  0.200000     24.000000
  0.466667  0.333333  0.200000     24.000000
 -0.333333  0.466667  0.200000     24.000000
  0.400000  0.400000  0.200000     24.000000
  0.466667  0.400000  0.200000     24.000000
 -0.400000  0.466667  0.200000     24.000000
  0.466667  0.466667  0.200000     24.000000
  0.266667  0.266667  0.266667      8.000000
  0.333333  0.266667  0.266667     24.000000
  0.400000  0.266667  0.266667     24.000000
  0.466667  0.266667  0.266667     24.000000
  0.333333  0.333333  0.266667     24.000000
  0.400000  0.333333  0.266667     24.000000
 -0.333333  0.400000  0.266667     24.000000
  0.466667  0.333333  0.266667     24.000000
 -0.333333  0.466667  0.266667     24.000000
  0.400000  0.400000  0.266667     24.000000
  0.466667  0.400000  0.266667     24.000000
 -0.400000  0.466667  0.266667     24.000000
  0.466667  0.466667  0.266667     24.000000
  0.333333  0.333333  0.333333      8.000000
  0.400000  0.333333  0.333333     24.000000
  0.466667  0.333333  0.333333     24.000000
  0.400000  0.400000  0.333333     24.000000
  0.466667  0.400000  0.333333     24.000000
 -0.400000  0.466667  0.333333     24.000000
  0.466667  0.466667  0.333333     24.000000
  0.400000  0.400000  0.400000      8.000000
  0.466667  0.400000  0.400000     24.000000
  0.466667  0.466667  0.400000     24.000000
  0.466667  0.466667  0.466667      8.000000
 
 Following cartesian coordinates:
            Coordinates               Weight
  0.000000  0.000000  0.000000      1.000000
  0.014966  0.000000  0.000000      6.000000
  0.029933  0.000000  0.000000      6.000000
  0.044899  0.000000  0.000000      6.000000
  0.059865  0.000000  0.000000      6.000000
  0.074832  0.000000  0.000000      6.000000
  0.089798  0.000000  0.000000      6.000000
  0.104764  0.000000  0.000000      6.000000
  0.014966  0.014966  0.000000     12.000000
  0.029933  0.014966  0.000000     12.000000
 -0.014966  0.029933  0.000000     12.000000
  0.044899  0.014966  0.000000     12.000000
 -0.014966  0.044899  0.000000     12.000000
  0.059865  0.014966  0.000000     12.000000
 -0.014966  0.059865  0.000000     12.000000
  0.074832  0.014966  0.000000     12.000000
 -0.014966  0.074832  0.000000     12.000000
  0.089798  0.014966  0.000000     12.000000
 -0.014966  0.089798  0.000000     12.000000
  0.104764  0.014966  0.000000     12.000000
 -0.014966  0.104764  0.000000     12.000000
  0.029933  0.029933  0.000000     12.000000
  0.044899  0.029933  0.000000     12.000000
 -0.029933  0.044899  0.000000     12.000000
  0.059865  0.029933  0.000000     12.000000
 -0.029933  0.059865  0.000000     12.000000
  0.074832  0.029933  0.000000     12.000000
 -0.029933  0.074832  0.000000     12.000000
  0.089798  0.029933  0.000000     12.000000
 -0.029933  0.089798  0.000000     12.000000
  0.104764  0.029933  0.000000     12.000000
 -0.029933  0.104764  0.000000     12.000000
  0.044899  0.044899  0.000000     12.000000
  0.059865  0.044899  0.000000     12.000000
 -0.044899  0.059865  0.000000     12.000000
  0.074832  0.044899  0.000000     12.000000
 -0.044899  0.074832  0.000000     12.000000
  0.089798  0.044899  0.000000     12.000000
 -0.044899  0.089798  0.000000     12.000000
  0.104764  0.044899  0.000000     12.000000
 -0.044899  0.104764  0.000000     12.000000
  0.059865  0.059865  0.000000     12.000000
  0.074832  0.059865  0.000000     12.000000
 -0.059865  0.074832  0.000000     12.000000
  0.089798  0.059865  0.000000     12.000000
 -0.059865  0.089798  0.000000     12.000000
  0.104764  0.059865  0.000000     12.000000
 -0.059865  0.104764  0.000000     12.000000
  0.074832  0.074832  0.000000     12.000000
  0.089798  0.074832  0.000000     12.000000
 -0.074832  0.089798  0.000000     12.000000
  0.104764  0.074832  0.000000     12.000000
 -0.074832  0.104764  0.000000     12.000000
  0.089798  0.089798  0.000000     12.000000
  0.104764  0.089798  0.000000     12.000000
 -0.089798  0.104764  0.000000     12.000000
  0.104764  0.104764  0.000000     12.000000
  0.014966  0.014966  0.014966      8.000000
  0.029933  0.014966  0.014966     24.000000
  0.044899  0.014966  0.014966     24.000000
  0.059865  0.014966  0.014966     24.000000
  0.074832  0.014966  0.014966     24.000000
  0.089798  0.014966  0.014966     24.000000
  0.104764  0.014966  0.014966     24.000000
  0.029933  0.029933  0.014966     24.000000
  0.044899  0.029933  0.014966     24.000000
 -0.029933  0.044899  0.014966     24.000000
  0.059865  0.029933  0.014966     24.000000
 -0.029933  0.059865  0.014966     24.000000
  0.074832  0.029933  0.014966     24.000000
 -0.029933  0.074832  0.014966     24.000000
  0.089798  0.029933  0.014966     24.000000
 -0.029933  0.089798  0.014966     24.000000
  0.104764  0.029933  0.014966     24.000000
 -0.029933  0.104764  0.014966     24.000000
  0.044899  0.044899  0.014966     24.000000
  0.059865  0.044899  0.014966     24.000000
 -0.044899  0.059865  0.014966     24.000000
  0.074832  0.044899  0.014966     24.000000
 -0.044899  0.074832  0.014966     24.000000
  0.089798  0.044899  0.014966     24.000000
 -0.044899  0.089798  0.014966     24.000000
  0.104764  0.044899  0.014966     24.000000
 -0.044899  0.104764  0.014966     24.000000
  0.059865  0.059865  0.014966     24.000000
  0.074832  0.059865  0.014966     24.000000
 -0.059865  0.074832  0.014966     24.000000
  0.089798  0.059865  0.014966     24.000000
 -0.059865  0.089798  0.014966     24.000000
  0.104764  0.059865  0.014966     24.000000
 -0.059865  0.104764  0.014966     24.000000
  0.074832  0.074832  0.014966     24.000000
  0.089798  0.074832  0.014966     24.000000
 -0.074832  0.089798  0.014966     24.000000
  0.104764  0.074832  0.014966     24.000000
 -0.074832  0.104764  0.014966     24.000000
  0.089798  0.089798  0.014966     24.000000
  0.104764  0.089798  0.014966     24.000000
 -0.089798  0.104764  0.014966     24.000000
  0.104764  0.104764  0.014966     24.000000
  0.029933  0.029933  0.029933      8.000000
  0.044899  0.029933  0.029933     24.000000
  0.059865  0.029933  0.029933     24.000000
  0.074832  0.029933  0.029933     24.000000
  0.089798  0.029933  0.029933     24.000000
  0.104764  0.029933  0.029933     24.000000
  0.044899  0.044899  0.029933     24.000000
  0.059865  0.044899  0.029933     24.000000
 -0.044899  0.059865  0.029933     24.000000
  0.074832  0.044899  0.029933     24.000000
 -0.044899  0.074832  0.029933     24.000000
  0.089798  0.044899  0.029933     24.000000
 -0.044899  0.089798  0.029933     24.000000
  0.104764  0.044899  0.029933     24.000000
 -0.044899  0.104764  0.029933     24.000000
  0.059865  0.059865  0.029933     24.000000
  0.074832  0.059865  0.029933     24.000000
 -0.059865  0.074832  0.029933     24.000000
  0.089798  0.059865  0.029933     24.000000
 -0.059865  0.089798  0.029933     24.000000
  0.104764  0.059865  0.029933     24.000000
 -0.059865  0.104764  0.029933     24.000000
  0.074832  0.074832  0.029933     24.000000
  0.089798  0.074832  0.029933     24.000000
 -0.074832  0.089798  0.029933     24.000000
  0.104764  0.074832  0.029933     24.000000
 -0.074832  0.104764  0.029933     24.000000
  0.089798  0.089798  0.029933     24.000000
  0.104764  0.089798  0.029933     24.000000
 -0.089798  0.104764  0.029933     24.000000
  0.104764  0.104764  0.029933     24.000000
  0.044899  0.044899  0.044899      8.000000
  0.059865  0.044899  0.044899     24.000000
  0.074832  0.044899  0.044899     24.000000
  0.089798  0.044899  0.044899     24.000000
  0.104764  0.044899  0.044899     24.000000
  0.059865  0.059865  0.044899     24.000000
  0.074832  0.059865  0.044899     24.000000
 -0.059865  0.074832  0.044899     24.000000
  0.089798  0.059865  0.044899     24.000000
 -0.059865  0.089798  0.044899     24.000000
  0.104764  0.059865  0.044899     24.000000
 -0.059865  0.104764  0.044899     24.000000
  0.074832  0.074832  0.044899     24.000000
  0.089798  0.074832  0.044899     24.000000
 -0.074832  0.089798  0.044899     24.000000
  0.104764  0.074832  0.044899     24.000000
 -0.074832  0.104764  0.044899     24.000000
  0.089798  0.089798  0.044899     24.000000
  0.104764  0.089798  0.044899     24.000000
 -0.089798  0.104764  0.044899     24.000000
  0.104764  0.104764  0.044899     24.000000
  0.059865  0.059865  0.059865      8.000000
  0.074832  0.059865  0.059865     24.000000
  0.089798  0.059865  0.059865     24.000000
  0.104764  0.059865  0.059865     24.000000
  0.074832  0.074832  0.059865     24.000000
  0.089798  0.074832  0.059865     24.000000
 -0.074832  0.089798  0.059865     24.000000
  0.104764  0.074832  0.059865     24.000000
 -0.074832  0.104764  0.059865     24.000000
  0.089798  0.089798  0.059865     24.000000
  0.104764  0.089798  0.059865     24.000000
 -0.089798  0.104764  0.059865     24.000000
  0.104764  0.104764  0.059865     24.000000
  0.074832  0.074832  0.074832      8.000000
  0.089798  0.074832  0.074832     24.000000
  0.104764  0.074832  0.074832     24.000000
  0.089798  0.089798  0.074832     24.000000
  0.104764  0.089798  0.074832     24.000000
 -0.089798  0.104764  0.074832     24.000000
  0.104764  0.104764  0.074832     24.000000
  0.089798  0.089798  0.089798      8.000000
  0.104764  0.089798  0.089798     24.000000
  0.104764  0.104764  0.089798     24.000000
  0.104764  0.104764  0.104764      8.000000
 


--------------------------------------------------------------------------------------------------------




 Dimension of arrays:
   k-points           NKPTS =    176   k-points in BZ     NKDIM =    176   number of bands    NBANDS=     10
   number of dos      NEDOS =    301   number of ions     NIONS =      4
   non local maximal  LDIM  =      3   non local SUM 2l+1 LMDIM =      5
   total plane-waves  NPLWV =  46656
   max r-space proj   IRMAX =      1   max aug-charges    IRDMAX=   6666
   dimension x,y,z NGX =    36 NGY =   36 NGZ =   36
   dimension x,y,z NGXF=    72 NGYF=   72 NGZF=   72
   support grid    NGXF=    72 NGYF=   72 NGZF=   72
   ions per type =               4
   NGX,Y,Z   is equivalent  to a cutoff of  13.44, 13.44, 13.44 a.u.
   NGXF,Y,Z  is equivalent  to a cutoff of  26.87, 26.87, 26.87 a.u.

 SYSTEM =  unknown system                          
 POSCAR =  Li                                      

 Startparameter for this run:
   NWRITE =      2    write-flag & timer
   PREC   = accura    normal or accurate (medium, high low for compatibility)
   ISTART =      0    job   : 0-new  1-cont  2-samecut
   ICHARG =      2    charge: 1-file 2-atom 10-const
   ISPIN  =      1    spin polarized calculation?
   LNONCOLLINEAR =      F non collinear calculations
   LSORBIT =      F    spin-orbit coupling
   INIWAV =      1    electr: 0-lowe 1-rand  2-diag
   LASPH  =      F    aspherical Exc in radial PAW
 Electronic Relaxation 1
   ENCUT  =  600.0 eV  44.10 Ry    6.64 a.u.   8.90  8.90  8.90*2*pi/ulx,y,z
   ENINI  =  600.0     initial cutoff
   ENAUG  =  628.9 eV  augmentation charge cutoff
   NELM   =    120;   NELMIN=  2; NELMDL= -5     # of ELM steps 
   EDIFF  = 0.1E-03   stopping-criterion for ELM
   LREAL  =      F    real-space projection
   NLSPLINE    = F    spline interpolate recip. space projectors
   LCOMPAT=      F    compatible to vasp.4.4
   GGA_COMPAT  = T    GGA compatible to vasp.4.4-vasp.4.6
   LMAXPAW     = -100 max onsite density
   LMAXMIX     =    2 max onsite mixed and CHGCAR
   VOSKOWN=      0    Vosko Wilk Nusair interpolation
   ROPT   =    0.00000
 Ionic relaxation
   EDIFFG = -.1E-01   stopping-criterion for IOM
   NSW    =   2000    number of steps for IOM
   NBLOCK =      1;   KBLOCK =   2000    inner block; outer block 
   IBRION =      1    ionic relax: 0-MD 1-quasi-New 2-CG
   NFREE  =      0    steps in history (QN), initial steepest desc. (CG)
   ISIF   =      3    stress and relaxation
   IWAVPR =     11    prediction:  0-non 1-charg 2-wave 3-comb
   ISYM   =      2    0-nonsym 1-usesym 2-fastsym
   LCORR  =      T    Harris-Foulkes like correction to forces

   POTIM  = 0.5000    time-step for ionic-motion
   TEIN   =    0.0    initial temperature
   TEBEG  =    0.0;   TEEND  =   0.0 temperature during run
   SMASS  =  -3.00    Nose mass-parameter (am)
   estimated Nose-frequenzy (Omega)   =  0.10E-29 period in steps = 0.13E+47 mass=  -0.453E-27a.u.
   SCALEE = 1.0000    scale energy and forces
   NPACO  =    256;   APACO  = 10.0  distance and # of slots for P.C.
   PSTRESS=    0.0 pullay stress

  Mass of Ions in am
   POMASS =   7.01
  Ionic Valenz
   ZVAL   =   3.00
  Atomic Wigner-Seitz radii
   RWIGS  =  -1.00
  virtual crystal weights 
   VCA    =   1.00
   NELECT =      12.0000    total number of electrons
   NUPDOWN=      -1.0000    fix difference up-down

 DOS related values:
   EMIN   =  10.00;   EMAX   =-10.00  energy-range for DOS
   EFERMI =   0.00;   METHOD = LEGACY      
   ISMEAR =     0;   SIGMA  =   0.02  broadening in eV -4-tet -1-fermi 0-gaus
   EFERMI_NEDOS =   21; number of points for ismear=-14 and -15

 Electronic relaxation 2 (details)
   IALGO  =     38    algorithm
   LDIAG  =      T    sub-space diagonalisation (order eigenvalues)
   LSUBROT=      F    optimize rotation matrix (better conditioning)
   LROBUST=      F    robust break criterion during scf (extrapolated energy error)
   ISEARCH=      0    line search for conjugate gradient (0, 1=use gradient)
   TURBO    =      0    0=normal 1=particle mesh
   IRESTART =      0    0=no restart 2=restart with 2 vectors
   NREBOOT  =      0    no. of reboots
   NMIN     =      0    reboot dimension
   EREF     =   0.00    reference energy to select bands
   IMIX   =      4    mixing-type and parameters
     AMIX     =   0.40;   BMIX     =  1.00
     AMIX_MAG =   1.60;   BMIX_MAG =  1.00
     AMIN     =   0.10
     WC   =   100.;   INIMIX=   1;  MIXPRE=   1;  MAXMIX= -45

 Intra band minimization:
   WEIMIN = 0.0010     energy-eigenvalue tresh-hold
   EBREAK =  0.25E-05  absolut break condition
   DEPER  =   0.30     relativ break condition  

   TIME   =   0.40     timestep for ELM

  volume/ion in A,a.u.               =      22.10       149.11
  Fermi-wavevector in a.u.,A,eV,Ry     =   0.841412  1.590038  9.632576  0.707974
  Thomas-Fermi vector in A             =   1.955952
 
 Write flags
   LWAVE        =      F    write WAVECAR
   LDOWNSAMPLE  =      F    k-point downsampling of WAVECAR
   LCHARG       =      F    write CHGCAR
   LVTOT        =      F    write LOCPOT, total local potential
   LVHAR        =      F    write LOCPOT, Hartree potential only
   WRT_POTENTIAL= false  ! write potential to hdf5 file
   LELF         =      F    write electronic localiz. function (ELF)
   LORBIT       =      0    0 simple, 1 ext, 2 COOP (PROOUT), +10 PAW based schemes


 Python interface
   PLUGINS active      =      F    recompile with -DPLUGINS to activate
 
 Dipole corrections
   LMONO      =      F    monopole corrections only (constant potential shift)
   LDIPOL     =      F    correct potential (dipole corrections)
   IDIPOL     =      0    1-x, 2-y, 3-z, 4-all directions 
   EPSILON    =  1.0000000 bulk dielectric constant
   LVACPOTAV  =      F  vacuum potentials using an averaging scheme for the charge density
   VACPOTFLAT =  0.1000000 required flatness to determine vacuum potential
 
Coulomb truncation method
  LTRUNCATE          =      F  Coulomb kernel truncation to be used

 
 Exchange correlation treatment:
   GGA     = PE    functional components
   XC_C    = 1    coefficients multiplying the functional components
   LIBXC   =     F    Libxc                    
   VOSKOWN =     0    Vosko Wilk Nusair interpolation
   LHFCALC =     F    Hartree Fock is set to
   LHFONE  =     F    Hartree Fock one center treatment
   AEXX    =    0.0000 exact exchange contribution

 Parameters of functionals:
   PE:
     No parameter
 
 Van der Waals corrections
   IVDW    =     0    specifies the selected vdW correction

 Linear response parameters
   LEPSILON=     F    determine dielectric tensor
   LRPA    =     F    only Hartree local field effects (RPA)
   LNABLA  =     F    use nabla operator in PAW spheres
   LVEL    =     F    velocity operator in full k-point grid
   CSHIFT  =0.1000    complex shift for real part using Kramers Kronig
   OMEGAMAX=  -1.0    maximum frequency
   DEG_THRESHOLD= 0.2000000E-02 threshold for treating states as degnerate
   RTIME   =   -0.100 relaxation time in fs
  (WPLASMAI=    0.000 imaginary part of plasma frequency in eV, 0.658/RTIME)
   DFIELD  = 0.0000000 0.0000000 0.0000000 field for delta impulse in time
 
  Optional k-point grid parameters
   LKPOINTS_OPT  =     F    use optional k-point grid
   KPOINTS_OPT_MODE=     1    mode for optional k-point grid
 
 Orbital magnetization related:
   ORBITALMAG=     F  switch on orbital magnetization
   LCHIMAG   =     F  perturbation theory with respect to B field
   DQ        =  0.001000  dq finite difference perturbation B field
   LLRAUG    =     F  two centre corrections for induced B field
   LBONE     =     F  B-component reconstruction in AE one-centre
   LVGVCALC  =     T  calculate vGv susceptibility
   LVGVAPPL  =     F  apply vGv susceptibility instead of pGv for G=0

 Random number generation:
   RANDOM_GENERATOR = DEFAULT
   PCG_SEED         = not used


--------------------------------------------------------------------------------------------------------


 quasi-Newton-method for relaxation of ions
 charge density and potential will be updated during run
 non-spin polarized calculation
 Variant of blocked Davidson
 Davidson routine will perform the subspace rotation
 perform sub-space diagonalisation
    after iterative eigenvector-optimisation
 modified Broyden-mixing scheme, WC =      100.0
 initial mixing is a Kerker type mixing with AMIX =  0.4000 and BMIX =      1.0000
 Hartree-type preconditioning will be used
 using additional bands             4
 reciprocal scheme for non local part
 calculate Harris-corrections to forces 
   (improved forces if not selfconsistent)
 use gradient corrections 
 use of overlap-Matrix (Vanderbilt PP)
 Gauss-broadening in eV      SIGMA  =   0.02


--------------------------------------------------------------------------------------------------------


  energy-cutoff  :      600.00
  volume of cell :       88.39
      direct lattice vectors                 reciprocal lattice vectors
     4.454440333  0.000000000  0.000000000     0.224495094  0.000000000  0.000000000
     0.000000000  4.454440333  0.000000000     0.000000000  0.224495094  0.000000000
     0.000000000  0.000000000  4.454440333     0.000000000  0.000000000  0.224495094

  length of vectors
     4.454440333  4.454440333  4.454440333     0.224495094  0.224495094  0.224495094


 
 k-points in units of 2pi/SCALE and weight: read from INCAR                         
   0.00000000  0.00000000  0.00000000       0.000
   0.01496634  0.00000000  0.00000000       0.002
   0.02993268  0.00000000  0.00000000       0.002
   0.04489902  0.00000000  0.00000000       0.002
   0.05986536  0.00000000  0.00000000       0.002
   0.07483170  0.00000000  0.00000000       0.002
   0.08979804  0.00000000  0.00000000       0.002
   0.10476438  0.00000000  0.00000000       0.002
   0.01496634  0.01496634  0.00000000       0.004
   0.02993268  0.01496634  0.00000000       0.004
  -0.01496634  0.02993268  0.00000000       0.004
   0.04489902  0.01496634  0.00000000       0.004
  -0.01496634  0.04489902  0.00000000       0.004
   0.05986536  0.01496634  0.00000000       0.004
  -0.01496634  0.05986536  0.00000000       0.004
   0.07483170  0.01496634  0.00000000       0.004
  -0.01496634  0.07483170  0.00000000       0.004
   0.08979804  0.01496634  0.00000000       0.004
  -0.01496634  0.08979804  0.00000000       0.004
   0.10476438  0.01496634  0.00000000       0.004
  -0.01496634  0.10476438  0.00000000       0.004
   0.02993268  0.02993268  0.00000000       0.004
   0.04489902  0.02993268  0.00000000       0.004
  -0.02993268  0.04489902  0.00000000       0.004
   0.05986536  0.02993268  0.00000000       0.004
  -0.02993268  0.05986536  0.00000000       0.004
   0.07483170  0.02993268  0.00000000       0.004
  -0.02993268  0.07483170  0.00000000       0.004
   0.08979804  0.02993268  0.00000000       0.004
  -0.02993268  0.08979804  0.00000000       0.004
   0.10476438  0.02993268  0.00000000       0.004
  -0.02993268  0.10476438  0.00000000       0.004
   0.04489902  0.04489902  0.00000000       0.004
   0.05986536  0.04489902  0.00000000       0.004
  -0.04489902  0.05986536  0.00000000       0.004
   0.07483170  0.04489902  0.00000000       0.004
  -0.04489902  0.07483170  0.00000000       0.004
   0.08979804  0.04489902  0.00000000       0.004
  -0.04489902  0.08979804  0.00000000       0.004
   0.10476438  0.04489902  0.00000000       0.004
  -0.04489902  0.10476438  0.00000000       0.004
   0.05986536  0.05986536  0.00000000       0.004
   0.07483170  0.05986536  0.00000000       0.004
  -0.05986536  0.07483170  0.00000000       0.004
   0.08979804  0.05986536  0.00000000       0.004
  -0.05986536  0.08979804  0.00000000       0.004
   0.10476438  0.05986536  0.00000000       0.004
  -0.05986536  0.10476438  0.00000000       0.004
   0.07483170  0.07483170  0.00000000       0.004
   0.08979804  0.07483170  0.00000000       0.004
  -0.07483170  0.08979804  0.00000000       0.004
   0.10476438  0.07483170  0.00000000       0.004
  -0.07483170  0.10476438  0.00000000       0.004
   0.08979804  0.08979804  0.00000000       0.004
   0.10476438  0.08979804  0.00000000       0.004
  -0.08979804  0.10476438  0.00000000       0.004
   0.10476438  0.10476438  0.00000000       0.004
   0.01496634  0.01496634  0.01496634       0.002
   0.02993268  0.01496634  0.01496634       0.007
   0.04489902  0.01496634  0.01496634       0.007
   0.05986536  0.01496634  0.01496634       0.007
   0.07483170  0.01496634  0.01496634       0.007
   0.08979804  0.01496634  0.01496634       0.007
   0.10476438  0.01496634  0.01496634       0.007
   0.02993268  0.02993268  0.01496634       0.007
   0.04489902  0.02993268  0.01496634       0.007
  -0.02993268  0.04489902  0.01496634       0.007
   0.05986536  0.02993268  0.01496634       0.007
  -0.02993268  0.05986536  0.01496634       0.007
   0.07483170  0.02993268  0.01496634       0.007
  -0.02993268  0.07483170  0.01496634       0.007
   0.08979804  0.02993268  0.01496634       0.007
  -0.02993268  0.08979804  0.01496634       0.007
   0.10476438  0.02993268  0.01496634       0.007
  -0.02993268  0.10476438  0.01496634       0.007
   0.04489902  0.04489902  0.01496634       0.007
   0.05986536  0.04489902  0.01496634       0.007
  -0.04489902  0.05986536  0.01496634       0.007
   0.07483170  0.04489902  0.01496634       0.007
  -0.04489902  0.07483170  0.01496634       0.007
   0.08979804  0.04489902  0.01496634       0.007
  -0.04489902  0.08979804  0.01496634       0.007
   0.10476438  0.04489902  0.01496634       0.007
  -0.04489902  0.10476438  0.01496634       0.007
   0.05986536  0.05986536  0.01496634       0.007
   0.07483170  0.05986536  0.01496634       0.007
  -0.05986536  0.07483170  0.01496634       0.007
   0.08979804  0.05986536  0.01496634       0.007
  -0.05986536  0.08979804  0.01496634       0.007
   0.10476438  0.05986536  0.01496634       0.007
  -0.05986536  0.10476438  0.01496634       0.007
   0.07483170  0.07483170  0.01496634       0.007
   0.08979804  0.07483170  0.01496634       0.007
  -0.07483170  0.08979804  0.01496634       0.007
   0.10476438  0.07483170  0.01496634       0.007
  -0.07483170  0.10476438  0.01496634       0.007
   0.08979804  0.08979804  0.01496634       0.007
   0.10476438  0.08979804  0.01496634       0.007
  -0.08979804  0.10476438  0.01496634       0.007
   0.10476438  0.10476438  0.01496634       0.007
   0.02993268  0.02993268  0.02993268       0.002
   0.04489902  0.02993268  0.02993268       0.007
   0.05986536  0.02993268  0.02993268       0.007
   0.07483170  0.02993268  0.02993268       0.007
   0.08979804  0.02993268  0.02993268       0.007
   0.10476438  0.02993268  0.02993268       0.007
   0.04489902  0.04489902  0.02993268       0.007
   0.05986536  0.04489902  0.02993268       0.007
  -0.04489902  0.05986536  0.02993268       0.007
   0.07483170  0.04489902  0.02993268       0.007
  -0.04489902  0.07483170  0.02993268       0.007
   0.08979804  0.04489902  0.02993268       0.007
  -0.04489902  0.08979804  0.02993268       0.007
   0.10476438  0.04489902  0.02993268       0.007
  -0.04489902  0.10476438  0.02993268       0.007
   0.05986536  0.05986536  0.02993268       0.007
   0.07483170  0.05986536  0.02993268       0.007
  -0.05986536  0.07483170  0.02993268       0.007
   0.08979804  0.05986536  0.02993268       0.007
  -0.05986536  0.08979804  0.02993268       0.007
   0.10476438  0.05986536  0.02993268       0.007
  -0.05986536  0.10476438  0.02993268       0.007
   0.07483170  0.07483170  0.02993268       0.007
   0.08979804  0.07483170  0.02993268       0.007
  -0.07483170  0.08979804  0.02993268       0.007
   0.10476438  0.07483170  0.02993268       0.007
  -0.07483170  0.10476438  0.02993268       0.007
   0.08979804  0.08979804  0.02993268       0.007
   0.10476438  0.08979804  0.02993268       0.007
  -0.08979804  0.10476438  0.02993268       0.007
   0.10476438  0.10476438  0.02993268       0.007
   0.04489902  0.04489902  0.04489902       0.002
   0.05986536  0.04489902  0.04489902       0.007
   0.07483170  0.04489902  0.04489902       0.007
   0.08979804  0.04489902  0.04489902       0.007
   0.10476438  0.04489902  0.04489902       0.007
   0.05986536  0.05986536  0.04489902       0.007
   0.07483170  0.05986536  0.04489902       0.007
  -0.05986536  0.07483170  0.04489902       0.007
   0.08979804  0.05986536  0.04489902       0.007
  -0.05986536  0.08979804  0.04489902       0.007
   0.10476438  0.05986536  0.04489902       0.007
  -0.05986536  0.10476438  0.04489902       0.007
   0.07483170  0.07483170  0.04489902       0.007
   0.08979804  0.07483170  0.04489902       0.007
  -0.07483170  0.08979804  0.04489902       0.007
   0.10476438  0.07483170  0.04489902       0.007
  -0.07483170  0.10476438  0.04489902       0.007
   0.08979804  0.08979804  0.04489902       0.007
   0.10476438  0.08979804  0.04489902       0.007
  -0.08979804  0.10476438  0.04489902       0.007
   0.10476438  0.10476438  0.04489902       0.007
   0.05986536  0.05986536  0.05986536       0.002
   0.07483170  0.05986536  0.05986536       0.007
   0.08979804  0.05986536  0.05986536       0.007
   0.10476438  0.05986536  0.05986536       0.007
   0.07483170  0.07483170  0.05986536       0.007
   0.08979804  0.07483170  0.05986536       0.007
  -0.07483170  0.08979804  0.05986536       0.007
   0.10476438  0.07483170  0.05986536       0.007
  -0.07483170  0.10476438  0.05986536       0.007
   0.08979804  0.08979804  0.05986536       0.007
   0.10476438  0.08979804  0.05986536       0.007
  -0.08979804  0.10476438  0.05986536       0.007
   0.10476438  0.10476438  0.05986536       0.007
   0.07483170  0.07483170  0.07483170       0.002
   0.08979804  0.07483170  0.07483170       0.007
   0.10476438  0.07483170  0.07483170       0.007
   0.08979804  0.08979804  0.07483170       0.007
   0.10476438  0.08979804  0.07483170       0.007
  -0.08979804  0.10476438  0.07483170       0.007
   0.10476438  0.10476438  0.07483170       0.007
   0.08979804  0.08979804  0.08979804       0.002
   0.10476438  0.08979804  0.08979804       0.007
   0.10476438  0.10476438  0.08979804       0.007
   0.10476438  0.10476438  0.10476438       0.002
 
 k-points in reciprocal lattice and weights: read from INCAR                         
   0.00000000  0.00000000  0.00000000       0.000
   0.06666667  0.00000000  0.00000000       0.002
   0.13333333  0.00000000  0.00000000       0.002
   0.20000000  0.00000000  0.00000000       0.002
   0.26666667  0.00000000  0.00000000       0.002
   0.33333333  0.00000000  0.00000000       0.002
   0.40000000  0.00000000  0.00000000       0.002
   0.46666667  0.00000000  0.00000000       0.002
   0.06666667  0.06666667  0.00000000       0.004
   0.13333333  0.06666667  0.00000000       0.004
  -0.06666667  0.13333333  0.00000000       0.004
   0.20000000  0.06666667  0.00000000       0.004
  -0.06666667  0.20000000  0.00000000       0.004
   0.26666667  0.06666667  0.00000000       0.004
  -0.06666667  0.26666667  0.00000000       0.004
   0.33333333  0.06666667  0.00000000       0.004
  -0.06666667  0.33333333  0.00000000       0.004
   0.40000000  0.06666667  0.00000000       0.004
  -0.06666667  0.40000000  0.00000000       0.004
   0.46666667  0.06666667  0.00000000       0.004
  -0.06666667  0.46666667  0.00000000       0.004
   0.13333333  0.13333333  0.00000000       0.004
   0.20000000  0.13333333  0.00000000       0.004
  -0.13333333  0.20000000  0.00000000       0.004
   0.26666667  0.13333333  0.00000000       0.004
  -0.13333333  0.26666667  0.00000000       0.004
   0.33333333  0.13333333  0.00000000       0.004
  -0.13333333  0.33333333  0.00000000       0.004
   0.40000000  0.13333333  0.00000000       0.004
  -0.13333333  0.40000000  0.00000000       0.004
   0.46666667  0.13333333  0.00000000       0.004
  -0.13333333  0.46666667  0.00000000       0.004
   0.20000000  0.20000000  0.00000000       0.004
   0.26666667  0.20000000  0.00000000       0.004
  -0.20000000  0.26666667  0.00000000       0.004
   0.33333333  0.20000000  0.00000000       0.004
  -0.20000000  0.33333333  0.00000000       0.004
   0.40000000  0.20000000  0.00000000       0.004
  -0.20000000  0.40000000  0.00000000       0.004
   0.46666667  0.20000000  0.00000000       0.004
  -0.20000000  0.46666667  0.00000000       0.004
   0.26666667  0.26666667  0.00000000       0.004
   0.33333333  0.26666667  0.00000000       0.004
  -0.26666667  0.33333333  0.00000000       0.004
   0.40000000  0.26666667  0.00000000       0.004
  -0.26666667  0.40000000  0.00000000       0.004
   0.46666667  0.26666667  0.00000000       0.004
  -0.26666667  0.46666667  0.00000000       0.004
   0.33333333  0.33333333  0.00000000       0.004
   0.40000000  0.33333333  0.00000000       0.004
  -0.33333333  0.40000000  0.00000000       0.004
   0.46666667  0.33333333  0.00000000       0.004
  -0.33333333  0.46666667  0.00000000       0.004
   0.40000000  0.40000000  0.00000000       0.004
   0.46666667  0.40000000  0.00000000       0.004
  -0.40000000  0.46666667  0.00000000       0.004
   0.46666667  0.46666667  0.00000000       0.004
   0.06666667  0.06666667  0.06666667       0.002
   0.13333333  0.06666667  0.06666667       0.007
   0.20000000  0.06666667  0.06666667       0.007
   0.26666667  0.06666667  0.06666667       0.007
   0.33333333  0.06666667  0.06666667       0.007
   0.40000000  0.06666667  0.06666667       0.007
   0.46666667  0.06666667  0.06666667       0.007
   0.13333333  0.13333333  0.06666667       0.007
   0.20000000  0.13333333  0.06666667       0.007
  -0.13333333  0.20000000  0.06666667       0.007
   0.26666667  0.13333333  0.06666667       0.007
  -0.13333333  0.26666667  0.06666667       0.007
   0.33333333  0.13333333  0.06666667       0.007
  -0.13333333  0.33333333  0.06666667       0.007
   0.40000000  0.13333333  0.06666667       0.007
  -0.13333333  0.40000000  0.06666667       0.007
   0.46666667  0.13333333  0.06666667       0.007
  -0.13333333  0.46666667  0.06666667       0.007
   0.20000000  0.20000000  0.06666667       0.007
   0.26666667  0.20000000  0.06666667       0.007
  -0.20000000  0.26666667  0.06666667       0.007
   0.33333333  0.20000000  0.06666667       0.007
  -0.20000000  0.33333333  0.06666667       0.007
   0.40000000  0.20000000  0.06666667       0.007
  -0.20000000  0.40000000  0.06666667       0.007
   0.46666667  0.20000000  0.06666667       0.007
  -0.20000000  0.46666667  0.06666667       0.007
   0.26666667  0.26666667  0.06666667       0.007
   0.33333333  0.26666667  0.06666667       0.007
  -0.26666667  0.33333333  0.06666667       0.007
   0.40000000  0.26666667  0.06666667       0.007
  -0.26666667  0.40000000  0.06666667       0.007
   0.46666667  0.26666667  0.06666667       0.007
  -0.26666667  0.46666667  0.06666667       0.007
   0.33333333  0.33333333  0.06666667       0.007
   0.40000000  0.33333333  0.06666667       0.007
  -0.33333333  0.40000000  0.06666667       0.007
   0.46666667  0.33333333  0.06666667       0.007
  -0.33333333  0.46666667  0.06666667       0.007
   0.40000000  0.40000000  0.06666667       0.007
   0.46666667  0.40000000  0.06666667       0.007
  -0.40000000  0.46666667  0.06666667       0.007
   0.46666667  0.46666667  0.06666667       0.007
   0.13333333  0.13333333  0.13333333       0.002
   0.20000000  0.13333333  0.13333333       0.007
   0.26666667  0.13333333  0.13333333       0.007
   0.33333333  0.13333333  0.13333333       0.007
   0.40000000  0.13333333  0.13333333       0.007
   0.46666667  0.13333333  0.13333333       0.007
   0.20000000  0.20000000  0.13333333       0.007
   0.26666667  0.20000000  0.13333333       0.007
  -0.20000000  0.26666667  0.13333333       0.007
   0.33333333  0.20000000  0.13333333       0.007
  -0.20000000  0.33333333  0.13333333       0.007
   0.40000000  0.20000000  0.13333333       0.007
  -0.20000000  0.40000000  0.13333333       0.007
   0.46666667  0.20000000  0.13333333       0.007
  -0.20000000  0.46666667  0.13333333       0.007
   0.26666667  0.26666667  0.13333333       0.007
   0.33333333  0.26666667  0.13333333       0.007
  -0.26666667  0.33333333  0.13333333       0.007
   0.40000000  0.26666667  0.13333333       0.007
  -0.26666667  0.40000000  0.13333333       0.007
   0.46666667  0.26666667  0.13333333       0.007
  -0.26666667  0.46666667  0.13333333       0.007
   0.33333333  0.33333333  0.13333333       0.007
   0.40000000  0.33333333  0.13333333       0.007
  -0.33333333  0.40000000  0.13333333       0.007
   0.46666667  0.33333333  0.13333333       0.007
  -0.33333333  0.46666667  0.13333333       0.007
   0.40000000  0.40000000  0.13333333       0.007
   0.46666667  0.40000000  0.13333333       0.007
  -0.40000000  0.46666667  0.13333333       0.007
   0.46666667  0.46666667  0.13333333       0.007
   0.20000000  0.20000000  0.20000000       0.002
   0.26666667  0.20000000  0.20000000       0.007
   0.33333333  0.20000000  0.20000000       0.007
   0.40000000  0.20000000  0.20000000       0.007
   0.46666667  0.20000000  0.20000000       0.007
   0.26666667  0.26666667  0.20000000       0.007
   0.33333333  0.26666667  0.20000000       0.007
  -0.26666667  0.33333333  0.20000000       0.007
   0.40000000  0.26666667  0.20000000       0.007
  -0.26666667  0.40000000  0.20000000       0.007
   0.46666667  0.26666667  0.20000000       0.007
  -0.26666667  0.46666667  0.20000000       0.007
   0.33333333  0.33333333  0.20000000       0.007
   0.40000000  0.33333333  0.20000000       0.007
  -0.33333333  0.40000000  0.20000000       0.007
   0.46666667  0.33333333  0.20000000       0.007
  -0.33333333  0.46666667  0.20000000       0.007
   0.40000000  0.40000000  0.20000000       0.007
   0.46666667  0.40000000  0.20000000       0.007
  -0.40000000  0.46666667  0.20000000       0.007
   0.46666667  0.46666667  0.20000000       0.007
   0.26666667  0.26666667  0.26666667       0.002
   0.33333333  0.26666667  0.26666667       0.007
   0.40000000  0.26666667  0.26666667       0.007
   0.46666667  0.26666667  0.26666667       0.007
   0.33333333  0.33333333  0.26666667       0.007
   0.40000000  0.33333333  0.26666667       0.007
  -0.33333333  0.40000000  0.26666667       0.007
   0.46666667  0.33333333  0.26666667       0.007
  -0.33333333  0.46666667  0.26666667       0.007
   0.40000000  0.40000000  0.26666667       0.007
   0.46666667  0.40000000  0.26666667       0.007
  -0.40000000  0.46666667  0.26666667       0.007
   0.46666667  0.46666667  0.26666667       0.007
   0.33333333  0.33333333  0.33333333       0.002
   0.40000000  0.33333333  0.33333333       0.007
   0.46666667  0.33333333  0.33333333       0.007
   0.40000000  0.40000000  0.33333333       0.007
   0.46666667  0.40000000  0.33333333       0.007
  -0.40000000  0.46666667  0.33333333       0.007
   0.46666667  0.46666667  0.33333333       0.007
   0.40000000  0.40000000  0.40000000       0.002
   0.46666667  0.40000000  0.40000000       0.007
   0.46666667  0.46666667  0.40000000       0.007
   0.46666667  0.46666667  0.46666667       0.002
 
 position of ions in fractional coordinates (direct lattice) 
   0.87456800  0.12543200  0.62543200
   0.37456800  0.37456800  0.37456800
   0.12543200  0.62543200  0.87456800
   0.62543200  0.87456800  0.12543200
 
 position of ions in cartesian coordinates  (Angst):
   3.89571097  0.55872936  2.78594953
   1.66849081  1.66849081  1.66849081
   0.55872936  2.78594953  3.89571097
   2.78594953  3.89571097  0.55872936
 


--------------------------------------------------------------------------------------------------------


 k-point     1 :   0.0000 0.0000 0.0000  plane waves:    2945
 k-point     2 :   0.0667 0.0000 0.0000  plane waves:    2949
 k-point     3 :   0.1333 0.0000 0.0000  plane waves:    2938
 k-point     4 :   0.2000 0.0000 0.0000  plane waves:    2950
 k-point     5 :   0.2667 0.0000 0.0000  plane waves:    2946
 k-point     6 :   0.3333 0.0000 0.0000  plane waves:    2946
 k-point     7 :   0.4000 0.0000 0.0000  plane waves:    2918
 k-point     8 :   0.4667 0.0000 0.0000  plane waves:    2926
 k-point     9 :   0.0667 0.0667 0.0000  plane waves:    2943
 k-point    10 :   0.1333 0.0667 0.0000  plane waves:    2945
 k-point    11 :  -0.0667 0.1333 0.0000  plane waves:    2945
 k-point    12 :   0.2000 0.0667 0.0000  plane waves:    2945
 k-point    13 :  -0.0667 0.2000 0.0000  plane waves:    2945
 k-point    14 :   0.2667 0.0667 0.0000  plane waves:    2948
 k-point    15 :  -0.0667 0.2667 0.0000  plane waves:    2948
 k-point    16 :   0.3333 0.0667 0.0000  plane waves:    2942
 k-point    17 :  -0.0667 0.3333 0.0000  plane waves:    2942
 k-point    18 :   0.4000 0.0667 0.0000  plane waves:    2932
 k-point    19 :  -0.0667 0.4000 0.0000  plane waves:    2932
 k-point    20 :   0.4667 0.0667 0.0000  plane waves:    2925
 k-point    21 :  -0.0667 0.4667 0.0000  plane waves:    2925
 k-point    22 :   0.1333 0.1333 0.0000  plane waves:    2945
 k-point    23 :   0.2000 0.1333 0.0000  plane waves:    2946
 k-point    24 :  -0.1333 0.2000 0.0000  plane waves:    2946
 k-point    25 :   0.2667 0.1333 0.0000  plane waves:    2953
 k-point    26 :  -0.1333 0.2667 0.0000  plane waves:    2953
 k-point    27 :   0.3333 0.1333 0.0000  plane waves:    2940
 k-point    28 :  -0.1333 0.3333 0.0000  plane waves:    2940
 k-point    29 :   0.4000 0.1333 0.0000  plane waves:    2945
 k-point    30 :  -0.1333 0.4000 0.0000  plane waves:    2945
 k-point    31 :   0.4667 0.1333 0.0000  plane waves:    2932
 k-point    32 :  -0.1333 0.4667 0.0000  plane waves:    2932
 k-point    33 :   0.2000 0.2000 0.0000  plane waves:    2957
 k-point    34 :   0.2667 0.2000 0.0000  plane waves:    2959
 k-point    35 :  -0.2000 0.2667 0.0000  plane waves:    2959
 k-point    36 :   0.3333 0.2000 0.0000  plane waves:    2949
 k-point    37 :  -0.2000 0.3333 0.0000  plane waves:    2949
 k-point    38 :   0.4000 0.2000 0.0000  plane waves:    2947
 k-point    39 :  -0.2000 0.4000 0.0000  plane waves:    2947
 k-point    40 :   0.4667 0.2000 0.0000  plane waves:    2941
 k-point    41 :  -0.2000 0.4667 0.0000  plane waves:    2941
 k-point    42 :   0.2667 0.2667 0.0000  plane waves:    2947
 k-point    43 :   0.3333 0.2667 0.0000  plane waves:    2956
 k-point    44 :  -0.2667 0.3333 0.0000  plane waves:    2956
 k-point    45 :   0.4000 0.2667 0.0000  plane waves:    2948
 k-point    46 :  -0.2667 0.4000 0.0000  plane waves:    2948
 k-point    47 :   0.4667 0.2667 0.0000  plane waves:    2945
 k-point    48 :  -0.2667 0.4667 0.0000  plane waves:    2945
 k-point    49 :   0.3333 0.3333 0.0000  plane waves:    2950
 k-point    50 :   0.4000 0.3333 0.0000  plane waves:    2946
 k-point    51 :  -0.3333 0.4000 0.0000  plane waves:    2946
 k-point    52 :   0.4667 0.3333 0.0000  plane waves:    2950
 k-point    53 :  -0.3333 0.4667 0.0000  plane waves:    2950
 k-point    54 :   0.4000 0.4000 0.0000  plane waves:    2956
 k-point    55 :   0.4667 0.4000 0.0000  plane waves:    2955
 k-point    56 :  -0.4000 0.4667 0.0000  plane waves:    2955
 k-point    57 :   0.4667 0.4667 0.0000  plane waves:    2970
 k-point    58 :   0.0667 0.0667 0.0667  plane waves:    2945
 k-point    59 :   0.1333 0.0667 0.0667  plane waves:    2947
 k-point    60 :   0.2000 0.0667 0.0667  plane waves:    2947
 k-point    61 :   0.2667 0.0667 0.0667  plane waves:    2951
 k-point    62 :   0.3333 0.0667 0.0667  plane waves:    2938
 k-point    63 :   0.4000 0.0667 0.0667  plane waves:    2937
 k-point    64 :   0.4667 0.0667 0.0667  plane waves:    2933
 k-point    65 :   0.1333 0.1333 0.0667  plane waves:    2945
 k-point    66 :   0.2000 0.1333 0.0667  plane waves:    2948
 k-point    67 :  -0.1333 0.2000 0.0667  plane waves:    2948
 k-point    68 :   0.2667 0.1333 0.0667  plane waves:    2948
 k-point    69 :  -0.1333 0.2667 0.0667  plane waves:    2948
 k-point    70 :   0.3333 0.1333 0.0667  plane waves:    2945
 k-point    71 :  -0.1333 0.3333 0.0667  plane waves:    2945
 k-point    72 :   0.4000 0.1333 0.0667  plane waves:    2944
 k-point    73 :  -0.1333 0.4000 0.0667  plane waves:    2944
 k-point    74 :   0.4667 0.1333 0.0667  plane waves:    2935
 k-point    75 :  -0.1333 0.4667 0.0667  plane waves:    2935
 k-point    76 :   0.2000 0.2000 0.0667  plane waves:    2957
 k-point    77 :   0.2667 0.2000 0.0667  plane waves:    2958
 k-point    78 :  -0.2000 0.2667 0.0667  plane waves:    2958
 k-point    79 :   0.3333 0.2000 0.0667  plane waves:    2944
 k-point    80 :  -0.2000 0.3333 0.0667  plane waves:    2944
 k-point    81 :   0.4000 0.2000 0.0667  plane waves:    2946
 k-point    82 :  -0.2000 0.4000 0.0667  plane waves:    2946
 k-point    83 :   0.4667 0.2000 0.0667  plane waves:    2940
 k-point    84 :  -0.2000 0.4667 0.0667  plane waves:    2940
 k-point    85 :   0.2667 0.2667 0.0667  plane waves:    2956
 k-point    86 :   0.3333 0.2667 0.0667  plane waves:    2944
 k-point    87 :  -0.2667 0.3333 0.0667  plane waves:    2944
 k-point    88 :   0.4000 0.2667 0.0667  plane waves:    2942
 k-point    89 :  -0.2667 0.4000 0.0667  plane waves:    2942
 k-point    90 :   0.4667 0.2667 0.0667  plane waves:    2947
 k-point    91 :  -0.2667 0.4667 0.0667  plane waves:    2947
 k-point    92 :   0.3333 0.3333 0.0667  plane waves:    2946
 k-point    93 :   0.4000 0.3333 0.0667  plane waves:    2949
 k-point    94 :  -0.3333 0.4000 0.0667  plane waves:    2949
 k-point    95 :   0.4667 0.3333 0.0667  plane waves:    2955
 k-point    96 :  -0.3333 0.4667 0.0667  plane waves:    2955
 k-point    97 :   0.4000 0.4000 0.0667  plane waves:    2947
 k-point    98 :   0.4667 0.4000 0.0667  plane waves:    2959
 k-point    99 :  -0.4000 0.4667 0.0667  plane waves:    2959
 k-point   100 :   0.4667 0.4667 0.0667  plane waves:    2956
 k-point   101 :   0.1333 0.1333 0.1333  plane waves:    2957
 k-point   102 :   0.2000 0.1333 0.1333  plane waves:    2947
 k-point   103 :   0.2667 0.1333 0.1333  plane waves:    2939
 k-point   104 :   0.3333 0.1333 0.1333  plane waves:    2949
 k-point   105 :   0.4000 0.1333 0.1333  plane waves:    2937
 k-point   106 :   0.4667 0.1333 0.1333  plane waves:    2939
 k-point   107 :   0.2000 0.2000 0.1333  plane waves:    2951
 k-point   108 :   0.2667 0.2000 0.1333  plane waves:    2944
 k-point   109 :  -0.2000 0.2667 0.1333  plane waves:    2944
 k-point   110 :   0.3333 0.2000 0.1333  plane waves:    2945
 k-point   111 :  -0.2000 0.3333 0.1333  plane waves:    2945
 k-point   112 :   0.4000 0.2000 0.1333  plane waves:    2946
 k-point   113 :  -0.2000 0.4000 0.1333  plane waves:    2946
 k-point   114 :   0.4667 0.2000 0.1333  plane waves:    2941
 k-point   115 :  -0.2000 0.4667 0.1333  plane waves:    2941
 k-point   116 :   0.2667 0.2667 0.1333  plane waves:    2939
 k-point   117 :   0.3333 0.2667 0.1333  plane waves:    2949
 k-point   118 :  -0.2667 0.3333 0.1333  plane waves:    2949
 k-point   119 :   0.4000 0.2667 0.1333  plane waves:    2948
 k-point   120 :  -0.2667 0.4000 0.1333  plane waves:    2948
 k-point   121 :   0.4667 0.2667 0.1333  plane waves:    2941
 k-point   122 :  -0.2667 0.4667 0.1333  plane waves:    2941
 k-point   123 :   0.3333 0.3333 0.1333  plane waves:    2939
 k-point   124 :   0.4000 0.3333 0.1333  plane waves:    2945
 k-point   125 :  -0.3333 0.4000 0.1333  plane waves:    2945
 k-point   126 :   0.4667 0.3333 0.1333  plane waves:    2955
 k-point   127 :  -0.3333 0.4667 0.1333  plane waves:    2955
 k-point   128 :   0.4000 0.4000 0.1333  plane waves:    2960
 k-point   129 :   0.4667 0.4000 0.1333  plane waves:    2961
 k-point   130 :  -0.4000 0.4667 0.1333  plane waves:    2961
 k-point   131 :   0.4667 0.4667 0.1333  plane waves:    2957
 k-point   132 :   0.2000 0.2000 0.2000  plane waves:    2956
 k-point   133 :   0.2667 0.2000 0.2000  plane waves:    2951
 k-point   134 :   0.3333 0.2000 0.2000  plane waves:    2946
 k-point   135 :   0.4000 0.2000 0.2000  plane waves:    2949
 k-point   136 :   0.4667 0.2000 0.2000  plane waves:    2940
 k-point   137 :   0.2667 0.2667 0.2000  plane waves:    2951
 k-point   138 :   0.3333 0.2667 0.2000  plane waves:    2946
 k-point   139 :  -0.2667 0.3333 0.2000  plane waves:    2946
 k-point   140 :   0.4000 0.2667 0.2000  plane waves:    2948
 k-point   141 :  -0.2667 0.4000 0.2000  plane waves:    2948
 k-point   142 :   0.4667 0.2667 0.2000  plane waves:    2939
 k-point   143 :  -0.2667 0.4667 0.2000  plane waves:    2939
 k-point   144 :   0.3333 0.3333 0.2000  plane waves:    2955
 k-point   145 :   0.4000 0.3333 0.2000  plane waves:    2953
 k-point   146 :  -0.3333 0.4000 0.2000  plane waves:    2953
 k-point   147 :   0.4667 0.3333 0.2000  plane waves:    2952
 k-point   148 :  -0.3333 0.4667 0.2000  plane waves:    2952
 k-point   149 :   0.4000 0.4000 0.2000  plane waves:    2947
 k-point   150 :   0.4667 0.4000 0.2000  plane waves:    2959
 k-point   151 :  -0.4000 0.4667 0.2000  plane waves:    2959
 k-point   152 :   0.4667 0.4667 0.2000  plane waves:    2959
 k-point   153 :   0.2667 0.2667 0.2667  plane waves:    2962
 k-point   154 :   0.3333 0.2667 0.2667  plane waves:    2958
 k-point   155 :   0.4000 0.2667 0.2667  plane waves:    2950
 k-point   156 :   0.4667 0.2667 0.2667  plane waves:    2946
 k-point   157 :   0.3333 0.3333 0.2667  plane waves:    2955
 k-point   158 :   0.4000 0.3333 0.2667  plane waves:    2950
 k-point   159 :  -0.3333 0.4000 0.2667  plane waves:    2950
 k-point   160 :   0.4667 0.3333 0.2667  plane waves:    2961
 k-point   161 :  -0.3333 0.4667 0.2667  plane waves:    2961
 k-point   162 :   0.4000 0.4000 0.2667  plane waves:    2962
 k-point   163 :   0.4667 0.4000 0.2667  plane waves:    2967
 k-point   164 :  -0.4000 0.4667 0.2667  plane waves:    2967
 k-point   165 :   0.4667 0.4667 0.2667  plane waves:    2963
 k-point   166 :   0.3333 0.3333 0.3333  plane waves:    2947
 k-point   167 :   0.4000 0.3333 0.3333  plane waves:    2971
 k-point   168 :   0.4667 0.3333 0.3333  plane waves:    2968
 k-point   169 :   0.4000 0.4000 0.3333  plane waves:    2972
 k-point   170 :   0.4667 0.4000 0.3333  plane waves:    2967
 k-point   171 :  -0.4000 0.4667 0.3333  plane waves:    2967
 k-point   172 :   0.4667 0.4667 0.3333  plane waves:    2969
 k-point   173 :   0.4000 0.4000 0.4000  plane waves:    2968
 k-point   174 :   0.4667 0.4000 0.4000  plane waves:    2973
 k-point   175 :   0.4667 0.4667 0.4000  plane waves:    2966
 k-point   176 :   0.4667 0.4667 0.4667  plane waves:    2974

 maximum and minimum number of plane-waves per node :      2974     2918

 maximum number of plane-waves:      2974
 maximum index in each direction: 
   IXMAX=    9   IYMAX=    8   IZMAX=    8
   IXMIN=   -9   IYMIN=   -9   IZMIN=   -9


 serial   3D FFT for wavefunctions
 parallel 3D FFT for charge:
    minimum data exchange during FFTs selected (reduces bandwidth)


 total amount of memory used by VASP MPI-rank0   168636. kBytes
=======================================================================

   base                                    :      30000. kBytes
   nonl-proj                               :      21127. kBytes
   fftplans                                :      13060. kBytes
   grid                                    :      20134. kBytes
   one-center                              :          4. kBytes
   wavefun                                 :      84311. kBytes
 
     INWAV:  cpu time      0.0000: real time      0.0000
 Broyden mixing: mesh for mixing (old mesh)
   NGX = 17   NGY = 17   NGZ = 17
  (NGX  = 72   NGY  = 72   NGZ  = 72)
  gives a total of   4913 points

 initial charge density was supplied:
 charge density of overlapping atoms calculated
 number of electron      12.0000000 magnetization 
 keeping initial charge density in first step


--------------------------------------------------------------------------------------------------------


 Maximum index for augmentation-charges          6286 (set IRDMAX)


--------------------------------------------------------------------------------------------------------


 First call to EWALD:  gamma=   0.398
 Maximum number of real-space cells   3x   3x   3
 Maximum number of reciprocal cells   3x   3x   3

    FEWALD:  cpu time      0.0015: real time      0.0015


--------------------------------------- Ionic step        1  -------------------------------------------




--------------------------------------- Iteration      1(   1)  ---------------------------------------


    POTLOK:  cpu time      0.0264: real time      0.0294
    SETDIJ:  cpu time      0.0026: real time      0.0026
     EDDAV:  cpu time      1.7359: real time      3.4645
       DOS:  cpu time      0.0006: real time      0.0006
    --------------------------------------------
      LOOP:  cpu time      1.7656: real time      3.4972

 eigenvalue-minimisations  :  3520
 total energy-change (2. order) : 0.3314830E+02  (-0.6638384E+03)
 number of electron      12.0000000 magnetization 
 augmentation part       12.0000000 magnetization 

 Free energy of the ion-electron system (eV)
  ---------------------------------------------------
  alpha Z        PSCENC =         4.16719170
  Ewald energy   TEWEN  =      -257.73455048
  -Hartree energ DENC   =      -176.33484162
  -exchange      EXHF   =         0.00000000
  -V(xc)+E(xc)   XCENC  =        48.28271142
  PAW double counting   =       319.04650337     -380.66826624
  entropy T*S    EENTRO =        -0.00011125
  eigenvalues    EBANDS =      -334.71335462
  atomic energy  EATOM  =       811.10301397
  Solvation  Ediel_sol  =         0.00000000
  ---------------------------------------------------
  free energy    TOTEN  =        33.14829625 eV

  energy without entropy =       33.14840750  energy(sigma->0) =       33.14835187


--------------------------------------------------------------------------------------------------------




--------------------------------------- Iteration      1(   2)  ---------------------------------------


     EDDAV:  cpu time      1.6588: real time      1.6640
       DOS:  cpu time      0.0007: real time      0.0007
    --------------------------------------------
      LOOP:  cpu time      1.6595: real time      1.6647

 eigenvalue-minimisations  :  3698
 total energy-change (2. order) :-0.2773032E+02  (-0.2724660E+02)
 number of electron      12.0000000 magnetization 
 augmentation part       12.0000000 magnetization 

 Free energy of the ion-electron system (eV)
  ---------------------------------------------------
  alpha Z        PSCENC =         4.16719170
  Ewald energy   TEWEN  =      -257.73455048
  -Hartree energ DENC   =      -176.33484162
  -exchange      EXHF   =         0.00000000
  -V(xc)+E(xc)   XCENC  =        48.28271142
  PAW double counting   =       319.04650337     -380.66826624
  entropy T*S    EENTRO =        -0.00020546
  eigenvalues    EBANDS =      -362.44358173
  atomic energy  EATOM  =       811.10301397
  Solvation  Ediel_sol  =         0.00000000
  ---------------------------------------------------
  free energy    TOTEN  =         5.41797492 eV

  energy without entropy =        5.41818038  energy(sigma->0) =        5.41807765


--------------------------------------------------------------------------------------------------------




--------------------------------------- Iteration      1(   3)  ---------------------------------------


     EDDAV:  cpu time      2.6914: real time      2.6997
       DOS:  cpu time      0.0006: real time      0.0006
    --------------------------------------------
      LOOP:  cpu time      2.6920: real time      2.7004

 eigenvalue-minimisations  :  6898
 total energy-change (2. order) :-0.1140127E+02  (-0.1129450E+02)
 number of electron      12.0000000 magnetization 
 augmentation part       12.0000000 magnetization 

 Free energy of the ion-electron system (eV)
  ---------------------------------------------------
  alpha Z        PSCENC =         4.16719170
  Ewald energy   TEWEN  =      -257.73455048
  -Hartree energ DENC   =      -176.33484162
  -exchange      EXHF   =         0.00000000
  -V(xc)+E(xc)   XCENC  =        48.28271142
  PAW double counting   =       319.04650337     -380.66826624
  entropy T*S    EENTRO =        -0.00024983
  eigenvalues    EBANDS =      -373.84480337
  atomic energy  EATOM  =       811.10301397
  Solvation  Ediel_sol  =         0.00000000
  ---------------------------------------------------
  free energy    TOTEN  =        -5.98329109 eV

  energy without entropy =       -5.98304125  energy(sigma->0) =       -5.98316617


--------------------------------------------------------------------------------------------------------




--------------------------------------- Iteration      1(   4)  ---------------------------------------


     EDDAV:  cpu time      1.8093: real time      1.8149
       DOS:  cpu time      0.0006: real time      0.0006
    --------------------------------------------
      LOOP:  cpu time      1.8099: real time      1.8155

 eigenvalue-minimisations  :  4088
 total energy-change (2. order) :-0.5455989E+00  (-0.5448686E+00)
 number of electron      12.0000000 magnetization 
 augmentation part       12.0000000 magnetization 

 Free energy of the ion-electron system (eV)
  ---------------------------------------------------
  alpha Z        PSCENC =         4.16719170
  Ewald energy   TEWEN  =      -257.73455048
  -Hartree energ DENC   =      -176.33484162
  -exchange      EXHF   =         0.00000000
  -V(xc)+E(xc)   XCENC  =        48.28271142
  PAW double counting   =       319.04650337     -380.66826624
  entropy T*S    EENTRO =        -0.00034086
  eigenvalues    EBANDS =      -374.39031124
  atomic energy  EATOM  =       811.10301397
  Solvation  Ediel_sol  =         0.00000000
  ---------------------------------------------------
  free energy    TOTEN  =        -6.52888998 eV

  energy without entropy =       -6.52854912  energy(sigma->0) =       -6.52871955


--------------------------------------------------------------------------------------------------------




--------------------------------------- Iteration      1(   5)  ---------------------------------------


     EDDAV:  cpu time      2.4402: real time      2.4477
       DOS:  cpu time      0.0006: real time      0.0007
    CHARGE:  cpu time      0.1719: real time      0.1722
    MIXING:  cpu time      0.0042: real time      0.0042
    --------------------------------------------
      LOOP:  cpu time      2.6169: real time      2.6248

 eigenvalue-minimisations  :  6146
 total energy-change (2. order) :-0.5691640E-01  (-0.5688370E-01)
 number of electron      12.0000026 magnetization 
 augmentation part        3.7171080 magnetization 

 Broyden mixing:
  rms(total) = 0.53345E-01    rms(broyden)= 0.53250E-01
  rms(prec ) = 0.12286E+00
  weight for this iteration     100.00

 Free energy of the ion-electron system (eV)
  ---------------------------------------------------
  alpha Z        PSCENC =         4.16719170
  Ewald energy   TEWEN  =      -257.73455048
  -Hartree energ DENC   =      -176.33484162
  -exchange      EXHF   =         0.00000000
  -V(xc)+E(xc)   XCENC  =        48.28271142
  PAW double counting   =       319.04650337     -380.66826624
  entropy T*S    EENTRO =        -0.00029834
  eigenvalues    EBANDS =      -374.44727016
  atomic energy  EATOM  =       811.10301397
  Solvation  Ediel_sol  =         0.00000000
  ---------------------------------------------------
  free energy    TOTEN  =        -6.58580638 eV

  energy without entropy =       -6.58550804  energy(sigma->0) =       -6.58565721


--------------------------------------------------------------------------------------------------------




--------------------------------------- Iteration      1(   6)  ---------------------------------------


    POTLOK:  cpu time      0.0054: real time      0.0054
    SETDIJ:  cpu time      0.0025: real time      0.0025
     EDDAV:  cpu time      2.0135: real time      2.0199
       DOS:  cpu time      0.0006: real time      0.0006
    CHARGE:  cpu time      0.1690: real time      0.1694
    MIXING:  cpu time      0.0041: real time      0.0041
    --------------------------------------------
      LOOP:  cpu time      2.1952: real time      2.2019

 eigenvalue-minimisations  :  4732
 total energy-change (2. order) : 0.7088216E-02  (-0.9197655E-03)
 number of electron      12.0000026 magnetization 
 augmentation part        3.7110818 magnetization 

 Broyden mixing:
  rms(total) = 0.31428E-01    rms(broyden)= 0.31424E-01
  rms(prec ) = 0.77139E-01
  weight for this iteration     100.00

 eigenvalues of (default mixing * dielectric matrix)
  average eigenvalue GAMMA=   2.3461
  2.3461

 Free energy of the ion-electron system (eV)
  ---------------------------------------------------
  alpha Z        PSCENC =         4.16719170
  Ewald energy   TEWEN  =      -257.73455048
  -Hartree energ DENC   =      -175.10848403
  -exchange      EXHF   =         0.00000000
  -V(xc)+E(xc)   XCENC  =        48.19295374
  PAW double counting   =       319.84467812     -381.56880835
  entropy T*S    EENTRO =        -0.00030136
  eigenvalues    EBANDS =      -375.47441146
  atomic energy  EATOM  =       811.10301397
  Solvation  Ediel_sol  =         0.00000000
  ---------------------------------------------------
  free energy    TOTEN  =        -6.57871816 eV

  energy without entropy =       -6.57841680  energy(sigma->0) =       -6.57856748


--------------------------------------------------------------------------------------------------------




--------------------------------------- Iteration      1(   7)  ---------------------------------------


    POTLOK:  cpu time      0.0053: real time      0.0054
    SETDIJ:  cpu time      0.0024: real time      0.0024
     EDDAV:  cpu time      2.5941: real time      2.6019
       DOS:  cpu time      0.0006: real time      0.0006
    CHARGE:  cpu time      0.1675: real time      0.1678
    MIXING:  cpu time      0.0041: real time      0.0042
    --------------------------------------------
      LOOP:  cpu time      2.7741: real time      2.7822

 eigenvalue-minimisations  :  6680
 total energy-change (2. order) : 0.4064223E-02  (-0.1115232E-02)
 number of electron      12.0000026 magnetization 
 augmentation part        3.6887198 magnetization 

 Broyden mixing:
  rms(total) = 0.11659E-01    rms(broyden)= 0.11534E-01
  rms(prec ) = 0.15035E-01
  weight for this iteration     100.00

 eigenvalues of (default mixing * dielectric matrix)
  average eigenvalue GAMMA=   3.2835
  3.2835  3.2835

 Free energy of the ion-electron system (eV)
  ---------------------------------------------------
  alpha Z        PSCENC =         4.16719170
  Ewald energy   TEWEN  =      -257.73455048
  -Hartree energ DENC   =      -173.11675373
  -exchange      EXHF   =         0.00000000
  -V(xc)+E(xc)   XCENC  =        48.05335674
  PAW double counting   =       321.59998667     -383.49211829
  entropy T*S    EENTRO =        -0.00030671
  eigenvalues    EBANDS =      -377.15447381
  atomic energy  EATOM  =       811.10301397
  Solvation  Ediel_sol  =         0.00000000
  ---------------------------------------------------
  free energy    TOTEN  =        -6.57465394 eV

  energy without entropy =       -6.57434723  energy(sigma->0) =       -6.57450058


--------------------------------------------------------------------------------------------------------




--------------------------------------- Iteration      1(   8)  ---------------------------------------


    POTLOK:  cpu time      0.0052: real time      0.0052
    SETDIJ:  cpu time      0.0024: real time      0.0024
     EDDAV:  cpu time      1.7901: real time      1.7956
       DOS:  cpu time      0.0006: real time      0.0006
    --------------------------------------------
      LOOP:  cpu time      1.7983: real time      1.8038

 eigenvalue-minimisations  :  4034
 total energy-change (2. order) :-0.4372811E-04  (-0.5526220E-04)
 number of electron      12.0000026 magnetization 
 augmentation part        3.6887198 magnetization 

 Free energy of the ion-electron system (eV)
  ---------------------------------------------------
  alpha Z        PSCENC =         4.16719170
  Ewald energy   TEWEN  =      -257.73455048
  -Hartree energ DENC   =      -173.52479591
  -exchange      EXHF   =         0.00000000
  -V(xc)+E(xc)   XCENC  =        48.09773990
  PAW double counting   =       323.21842087     -385.08186989
  entropy T*S    EENTRO =        -0.00030555
  eigenvalues    EBANDS =      -376.81954228
  atomic energy  EATOM  =       811.10301397
  Solvation  Ediel_sol  =         0.00000000
  ---------------------------------------------------
  free energy    TOTEN  =        -6.57469767 eV

  energy without entropy =       -6.57439212  energy(sigma->0) =       -6.57454489


--------------------------------------------------------------------------------------------------------




 average (electrostatic) potential at core
  the test charge radii are     0.7079
  (the norm of the test charge is              1.0000)
       1 -65.7338       2 -65.7338       3 -65.7338       4 -65.7338
 
 
 
 E-fermi :   0.5836     XC(G=0):  -6.8260     alpha+bet : -6.7695

 val. band max:        0.5742634976   @ k =   0.4667   0.4667   0.2667
 cond. band min:       0.5867482459   @ k =   0.3333   0.3333   0.0000
 fundamental gap:      0.0124847483
 Fermi energy:         0.5835744942

 k-point     1 :       0.0000    0.0000    0.0000
  band No.  band energies     occupation 
      1     -46.6643      2.00000
      2     -46.6231      2.00000
      3     -46.6231      2.00000
      4     -46.6231      2.00000
      5      -3.0117      2.00000
      6       2.6810      0.00000
      7       2.6810      0.00000
      8       2.6813      0.00000
      9       2.8666      0.00000
     10       2.8666      0.00000

 k-point     2 :       0.0667    0.0000    0.0000
  band No.  band energies     occupation 
      1     -46.6639      2.00000
      2     -46.6255      2.00000
      3     -46.6230      2.00000
      4     -46.6213      2.00000
      5      -2.9863      2.00000
      6       2.0562      0.00000
      7       2.6902      0.00000
      8       2.6960      0.00000
      9       2.8288      0.00000
     10       2.8962      0.00000

 k-point     3 :       0.1333    0.0000    0.0000
  band No.  band energies     occupation 
      1     -46.6629      2.00000
      2     -46.6282      2.00000
      3     -46.6227      2.00000
      4     -46.6198      2.00000
      5      -2.9099      2.00000
      6       1.3634      0.00000
      7       2.6962      0.00000
      8       2.7165      0.00000
      9       2.9387      0.00000
     10       2.9840      0.00000

 k-point     4 :       0.2000    0.0000    0.0000
  band No.  band energies     occupation 
      1     -46.6612      2.00000
      2     -46.6313      2.00000
      3     -46.6223      2.00000
      4     -46.6189      2.00000
      5      -2.7825      2.00000
      6       0.7143      0.00000
      7       2.7215      0.00000
      8       2.7564      0.00000
      9       3.0919      0.00000
     10       3.1278      0.00000

 k-point     5 :       0.2667    0.0000    0.0000
  band No.  band energies     occupation 
      1     -46.6589      2.00000
      2     -46.6347      2.00000
      3     -46.6216      2.00000
      4     -46.6184      2.00000
      5      -2.6035      2.00000
      6       0.1150      2.00000
      7       2.7655      0.00000
      8       2.8040      0.00000
      9       3.2827      0.00000
     10       3.3219      0.00000

 k-point     6 :       0.3333    0.0000    0.0000
  band No.  band energies     occupation 
      1     -46.6562      2.00000
      2     -46.6384      2.00000
      3     -46.6209      2.00000
      4     -46.6182      2.00000
      5      -2.3731      2.00000
      6      -0.4324      2.00000
      7       2.8177      0.00000
      8       2.8511      0.00000
      9       3.5026      0.00000
     10       3.5528      0.00000

 k-point     7 :       0.4000    0.0000    0.0000
  band No.  band energies     occupation 
      1     -46.6530      2.00000
      2     -46.6421      2.00000
      3     -46.6200      2.00000
      4     -46.6183      2.00000
      5      -2.0905      2.00000
      6      -0.9267      2.00000
      7       2.8657      0.00000
      8       2.8880      0.00000
      9       3.7303      0.00000
     10       3.7869      0.00000

 k-point     8 :       0.4667    0.0000    0.0000
  band No.  band energies     occupation 
      1     -46.6495      2.00000
      2     -46.6459      2.00000
      3     -46.6193      2.00000
      4     -46.6187      2.00000
      5      -1.7556      2.00000
      6      -1.3677      2.00000
      7       2.8975      0.00000
      8       2.9053      0.00000
      9       3.9114      0.00000
     10       3.9416      0.00000

 k-point     9 :       0.0667    0.0667    0.0000
  band No.  band energies     occupation 
      1     -46.6636      2.00000
      2     -46.6264      2.00000
      3     -46.6231      2.00000
      4     -46.6205      2.00000
      5      -2.9609      2.00000
      6       2.0041      0.00000
      7       2.1506      0.00000
      8       2.7491      0.00000
      9       2.7938      0.00000
     10       3.3932      0.00000

 k-point    10 :       0.1333    0.0667    0.0000
  band No.  band energies     occupation 
      1     -46.6626      2.00000
      2     -46.6286      2.00000
      3     -46.6230      2.00000
      4     -46.6195      2.00000
      5      -2.8846      2.00000
      6       1.3747      0.00000
      7       2.1554      0.00000
      8       2.7818      0.00000
      9       2.8562      0.00000
     10       3.5467      0.00000

 k-point    11 :      -0.0667    0.1333    0.0000
  band No.  band energies     occupation 
      1     -46.6626      2.00000
      2     -46.6286      2.00000
      3     -46.6230      2.00000
      4     -46.6195      2.00000
      5      -2.8846      2.00000
      6       1.3748      0.00000
      7       2.1551      0.00000
      8       2.7830      0.00000
      9       2.8556      0.00000
     10       3.5464      0.00000

 k-point    12 :       0.2000    0.0667    0.0000
  band No.  band energies     occupation 
      1     -46.6609      2.00000
      2     -46.6315      2.00000
      3     -46.6225      2.00000
      4     -46.6187      2.00000
      5      -2.7571      2.00000
      6       0.7323      0.00000
      7       2.2471      0.00000
      8       2.8269      0.00000
      9       2.9623      0.00000
     10       3.6534      0.00000

 k-point    13 :      -0.0667    0.2000    0.0000
  band No.  band energies     occupation 
      1     -46.6609      2.00000
      2     -46.6315      2.00000
      3     -46.6225      2.00000
      4     -46.6187      2.00000
      5      -2.7571      2.00000
      6       0.7323      0.00000
      7       2.2465      0.00000
      8       2.8284      0.00000
      9       2.9620      0.00000
     10       3.6525      0.00000

 k-point    14 :       0.2667    0.0667    0.0000
  band No.  band energies     occupation 
      1     -46.6587      2.00000
      2     -46.6348      2.00000
      3     -46.6219      2.00000
      4     -46.6183      2.00000
      5      -2.5784      2.00000
      6       0.1359      2.00000
      7       2.3673      0.00000
      8       2.8717      0.00000
      9       3.1113      0.00000
     10       3.7774      0.00000

 k-point    15 :      -0.0667    0.2667    0.0000
  band No.  band energies     occupation 
      1     -46.6587      2.00000
      2     -46.6348      2.00000
      3     -46.6219      2.00000
      4     -46.6183      2.00000
      5      -2.5784      2.00000
      6       0.1359      2.00000
      7       2.3663      0.00000
      8       2.8730      0.00000
      9       3.1119      0.00000
     10       3.7760      0.00000

 k-point    16 :       0.3333    0.0667    0.0000
  band No.  band energies     occupation 
      1     -46.6559      2.00000
      2     -46.6384      2.00000
      3     -46.6211      2.00000
      4     -46.6182      2.00000
      5      -2.3480      2.00000
      6      -0.4098      2.00000
      7       2.5026      0.00000
      8       2.8995      0.00000
      9       3.3009      0.00000
     10       3.9021      0.00000

 k-point    17 :      -0.0667    0.3333    0.0000
  band No.  band energies     occupation 
      1     -46.6559      2.00000
      2     -46.6384      2.00000
      3     -46.6211      2.00000
      4     -46.6182      2.00000
      5      -2.3480      2.00000
      6      -0.4098      2.00000
      7       2.5014      0.00000
      8       2.9005      0.00000
      9       3.3025      0.00000
     10       3.9005      0.00000

 k-point    18 :       0.4000    0.0667    0.0000
  band No.  band energies     occupation 
      1     -46.6528      2.00000
      2     -46.6420      2.00000
      3     -46.6203      2.00000
      4     -46.6184      2.00000
      5      -2.0656      2.00000
      6      -0.9031      2.00000
      7       2.6382      0.00000
      8       2.8944      0.00000
      9       3.5225      0.00000
     10       3.9762      0.00000

 k-point    19 :      -0.0667    0.4000    0.0000
  band No.  band energies     occupation 
      1     -46.6528      2.00000
      2     -46.6420      2.00000
      3     -46.6203      2.00000
      4     -46.6184      2.00000
      5      -2.0656      2.00000
      6      -0.9031      2.00000
      7       2.6371      0.00000
      8       2.8948      0.00000
      9       3.5247      0.00000
     10       3.9754      0.00000

 k-point    20 :       0.4667    0.0667    0.0000
  band No.  band energies     occupation 
      1     -46.6493      2.00000
      2     -46.6457      2.00000
      3     -46.6195      2.00000
      4     -46.6188      2.00000
      5      -1.7309      2.00000
      6      -1.3435      2.00000
      7       2.7580      0.00000
      8       2.8469      0.00000
      9       3.7502      0.00000
     10       3.9264      0.00000

 k-point    21 :      -0.0667    0.4667    0.0000
  band No.  band energies     occupation 
      1     -46.6493      2.00000
      2     -46.6457      2.00000
      3     -46.6195      2.00000
      4     -46.6188      2.00000
      5      -1.7309      2.00000
      6      -1.3435      2.00000
      7       2.7572      0.00000
      8       2.8466      0.00000
      9       3.7524      0.00000
     10       3.9274      0.00000

 k-point    22 :       0.1333    0.1333    0.0000
  band No.  band energies     occupation 
      1     -46.6616      2.00000
      2     -46.6301      2.00000
      3     -46.6232      2.00000
      4     -46.6188      2.00000
      5      -2.8083      2.00000
      6       1.2972      0.00000
      7       1.6337      0.00000
      8       2.8149      0.00000
      9       2.9100      0.00000
     10       3.9601      0.00000

 k-point    23 :       0.2000    0.1333    0.0000
  band No.  band energies     occupation 
      1     -46.6600      2.00000
      2     -46.6323      2.00000
      3     -46.6230      2.00000
      4     -46.6184      2.00000
      5      -2.6810      2.00000
      6       0.7729      0.00000
      7       1.6342      0.00000
      8       2.8509      0.00000
      9       3.0075      0.00000
     10       4.0829      0.00000

 k-point    24 :      -0.1333    0.2000    0.0000
  band No.  band energies     occupation 
      1     -46.6600      2.00000
      2     -46.6323      2.00000
      3     -46.6230      2.00000
      4     -46.6184      2.00000
      5      -2.6810      2.00000
      6       0.7730      0.00000
      7       1.6338      0.00000
      8       2.8516      0.00000
      9       3.0074      0.00000
     10       4.0819      0.00000

 k-point    25 :       0.2667    0.1333    0.0000
  band No.  band energies     occupation 
      1     -46.6578      2.00000
      2     -46.6352      2.00000
      3     -46.6225      2.00000
      4     -46.6182      2.00000
      5      -2.5026      2.00000
      6       0.1948      2.00000
      7       1.7738      0.00000
      8       2.8727      0.00000
      9       3.1403      0.00000
     10       4.0940      0.00000

 k-point    26 :      -0.1333    0.2667    0.0000
  band No.  band energies     occupation 
      1     -46.6578      2.00000
      2     -46.6352      2.00000
      3     -46.6225      2.00000
      4     -46.6182      2.00000
      5      -2.5026      2.00000
      6       0.1949      2.00000
      7       1.7732      0.00000
      8       2.8736      0.00000
      9       3.1410      0.00000
     10       4.0925      0.00000

 k-point    27 :       0.3333    0.1333    0.0000
  band No.  band energies     occupation 
      1     -46.6552      2.00000
      2     -46.6384      2.00000
      3     -46.6217      2.00000
      4     -46.6183      2.00000
      5      -2.2726      2.00000
      6      -0.3436      2.00000
      7       1.9576      0.00000
      8       2.8506      0.00000
      9       3.3022      0.00000
     10       4.0477      0.00000

 k-point    28 :      -0.1333    0.3333    0.0000
  band No.  band energies     occupation 
      1     -46.6552      2.00000
      2     -46.6384      2.00000
      3     -46.6217      2.00000
      4     -46.6183      2.00000
      5      -2.2726      2.00000
      6      -0.3435      2.00000
      7       1.9567      0.00000
      8       2.8511      0.00000
      9       3.3040      0.00000
     10       4.0470      0.00000

 k-point    29 :       0.4000    0.1333    0.0000
  band No.  band energies     occupation 
      1     -46.6521      2.00000
      2     -46.6419      2.00000
      3     -46.6209      2.00000
      4     -46.6187      2.00000
      5      -1.9909      2.00000
      6      -0.8331      2.00000
      7       2.1685      0.00000
      8       2.7587      0.00000
      9       3.4832      0.00000
     10       3.9596      0.00000

 k-point    30 :      -0.1333    0.4000    0.0000
  band No.  band energies     occupation 
      1     -46.6521      2.00000
      2     -46.6419      2.00000
      3     -46.6209      2.00000
      4     -46.6187      2.00000
      5      -1.9909      2.00000
      6      -0.8330      2.00000
      7       2.1674      0.00000
      8       2.7584      0.00000
      9       3.4862      0.00000
     10       3.9609      0.00000

 k-point    31 :       0.4667    0.1333    0.0000
  band No.  band energies     occupation 
      1     -46.6488      2.00000
      2     -46.6454      2.00000
      3     -46.6200      2.00000
      4     -46.6192      2.00000
      5      -1.6571      2.00000
      6      -1.2711      2.00000
      7       2.3895      0.00000
      8       2.5965      0.00000
      9       3.6671      0.00000
     10       3.8318      0.00000

 k-point    32 :      -0.1333    0.4667    0.0000
  band No.  band energies     occupation 
      1     -46.6488      2.00000
      2     -46.6454      2.00000
      3     -46.6200      2.00000
      4     -46.6192      2.00000
      5      -1.6571      2.00000
      6      -1.2711      2.00000
      7       2.3883      0.00000
      8       2.5956      0.00000
      9       3.6707      0.00000
     10       3.8349      0.00000

 k-point    33 :       0.2000    0.2000    0.0000
  band No.  band energies     occupation 
      1     -46.6585      2.00000
      2     -46.6338      2.00000
      3     -46.6232      2.00000
      4     -46.6182      2.00000
      5      -2.5541      2.00000
      6       0.7031      0.00000
      7       1.1975      0.00000
      8       2.8580      0.00000
      9       3.1033      0.00000
     10       4.1857      0.00000

 k-point    34 :       0.2667    0.2000    0.0000
  band No.  band energies     occupation 
      1     -46.6564      2.00000
      2     -46.6359      2.00000
      3     -46.6230      2.00000
      4     -46.6183      2.00000
      5      -2.3761      2.00000
      6       0.2688      2.00000
      7       1.2117      0.00000
      8       2.8161      0.00000
      9       3.2345      0.00000
     10       4.1011      0.00000

 k-point    35 :      -0.2000    0.2667    0.0000
  band No.  band energies     occupation 
      1     -46.6564      2.00000
      2     -46.6359      2.00000
      3     -46.6230      2.00000
      4     -46.6183      2.00000
      5      -2.3761      2.00000
      6       0.2690      2.00000
      7       1.2113      0.00000
      8       2.8163      0.00000
      9       3.2351      0.00000
     10       4.1008      0.00000

 k-point    36 :       0.3333    0.2000    0.0000
  band No.  band energies     occupation 
      1     -46.6539      2.00000
      2     -46.6386      2.00000
      3     -46.6225      2.00000
      4     -46.6186      2.00000
      5      -2.1469      2.00000
      6      -0.2408      2.00000
      7       1.3912      0.00000
      8       2.6853      0.00000
      9       3.3915      0.00000
     10       3.9977      0.00000

 k-point    37 :      -0.2000    0.3333    0.0000
  band No.  band energies     occupation 
      1     -46.6539      2.00000
      2     -46.6386      2.00000
      3     -46.6225      2.00000
      4     -46.6186      2.00000
      5      -2.1469      2.00000
      6      -0.2407      2.00000
      7       1.3906      0.00000
      8       2.6851      0.00000
      9       3.3931      0.00000
     10       3.9986      0.00000

 k-point    38 :       0.4000    0.2000    0.0000
  band No.  band energies     occupation 
      1     -46.6511      2.00000
      2     -46.6416      2.00000
      3     -46.6217      2.00000
      4     -46.6192      2.00000
      5      -1.8665      2.00000
      6      -0.7194      2.00000
      7       1.6274      0.00000
      8       2.4619      0.00000
      9       3.5602      0.00000
     10       3.9239      0.00000

 k-point    39 :      -0.2000    0.4000    0.0000
  band No.  band energies     occupation 
      1     -46.6511      2.00000
      2     -46.6416      2.00000
      3     -46.6217      2.00000
      4     -46.6192      2.00000
      5      -1.8665      2.00000
      6      -0.7193      2.00000
      7       1.6266      0.00000
      8       2.4612      0.00000
      9       3.5630      0.00000
     10       3.9264      0.00000

 k-point    40 :       0.4667    0.2000    0.0000
  band No.  band energies     occupation 
      1     -46.6480      2.00000
      2     -46.6448      2.00000
      3     -46.6208      2.00000
      4     -46.6199      2.00000
      5      -1.5347      2.00000
      6      -1.1519      2.00000
      7       1.8982      0.00000
      8       2.1855      0.00000
      9       3.7189      0.00000
     10       3.8423      0.00000

 k-point    41 :      -0.2000    0.4667    0.0000
  band No.  band energies     occupation 
      1     -46.6480      2.00000
      2     -46.6448      2.00000
      3     -46.6208      2.00000
      4     -46.6199      2.00000
      5      -1.5347      2.00000
      6      -1.1519      2.00000
      7       1.8973      0.00000
      8       2.1846      0.00000
      9       3.7225      0.00000
     10       3.8460      0.00000

 k-point    42 :       0.2667    0.2667    0.0000
  band No.  band energies     occupation 
      1     -46.6545      2.00000
      2     -46.6372      2.00000
      3     -46.6233      2.00000
      4     -46.6185      2.00000
      5      -2.1990      2.00000
      6       0.2260      2.00000
      7       0.8481      0.00000
      8       2.6576      0.00000
      9       3.3683      0.00000
     10       4.0146      0.00000

 k-point    43 :       0.3333    0.2667    0.0000
  band No.  band energies     occupation 
      1     -46.6523      2.00000
      2     -46.6391      2.00000
      3     -46.6231      2.00000
      4     -46.6191      2.00000
      5      -1.9713      2.00000
      6      -0.1286      2.00000
      7       0.8869      0.00000
      8       2.3883      0.00000
      9       3.5279      0.00000
     10       3.9816      0.00000

 k-point    44 :      -0.2667    0.3333    0.0000
  band No.  band energies     occupation 
      1     -46.6523      2.00000
      2     -46.6391      2.00000
      3     -46.6231      2.00000
      4     -46.6191      2.00000
      5      -1.9713      2.00000
      6      -0.1285      2.00000
      7       0.8866      0.00000
      8       2.3881      0.00000
      9       3.5289      0.00000
     10       3.9825      0.00000

 k-point    45 :       0.4000    0.2667    0.0000
  band No.  band energies     occupation 
      1     -46.6497      2.00000
      2     -46.6415      2.00000
      3     -46.6225      2.00000
      4     -46.6199      2.00000
      5      -1.6931      2.00000
      6      -0.5702      2.00000
      7       1.1050      0.00000
      8       2.0567      0.00000
      9       3.6971      0.00000
     10       3.9819      0.00000

 k-point    46 :      -0.2667    0.4000    0.0000
  band No.  band energies     occupation 
      1     -46.6497      2.00000
      2     -46.6415      2.00000
      3     -46.6225      2.00000
      4     -46.6199      2.00000
      5      -1.6931      2.00000
      6      -0.5702      2.00000
      7       1.1045      0.00000
      8       2.0563      0.00000
      9       3.6993      0.00000
     10       3.9842      0.00000

 k-point    47 :       0.4667    0.2667    0.0000
  band No.  band energies     occupation 
      1     -46.6470      2.00000
      2     -46.6442      2.00000
      3     -46.6216      2.00000
      4     -46.6207      2.00000
      5      -1.3650      2.00000
      6      -0.9890      2.00000
      7       1.3896      0.00000
      8       1.7135      0.00000
      9       3.8490      0.00000
     10       3.9492      0.00000

 k-point    48 :      -0.2667    0.4667    0.0000
  band No.  band energies     occupation 
      1     -46.6470      2.00000
      2     -46.6442      2.00000
      3     -46.6216      2.00000
      4     -46.6207      2.00000
      5      -1.3650      2.00000
      6      -0.9890      2.00000
      7       1.3890      0.00000
      8       1.7129      0.00000
      9       3.8521      0.00000
     10       3.9524      0.00000

 k-point    49 :       0.3333    0.3333    0.0000
  band No.  band energies     occupation 
      1     -46.6503      2.00000
      2     -46.6401      2.00000
      3     -46.6233      2.00000
      4     -46.6198      2.00000
      5      -1.7459      2.00000
      6      -0.1328      2.00000
      7       0.5867      0.82243
      8       2.0129      0.00000
      9       3.6945      0.00000
     10       4.0364      0.00000

 k-point    50 :       0.4000    0.3333    0.0000
  band No.  band energies     occupation 
      1     -46.6481      2.00000
      2     -46.6416      2.00000
      3     -46.6230      2.00000
      4     -46.6207      2.00000
      5      -1.4717      2.00000
      6      -0.4149      2.00000
      7       0.6573      0.00000
      8       1.6202      0.00000
      9       3.8700      0.00000
     10       4.1020      0.00000

 k-point    51 :      -0.3333    0.4000    0.0000
  band No.  band energies     occupation 
      1     -46.6481      2.00000
      2     -46.6416      2.00000
      3     -46.6230      2.00000
      4     -46.6207      2.00000
      5      -1.4717      2.00000
      6      -0.4148      2.00000
      7       0.6571      0.00000
      8       1.6200      0.00000
      9       3.8712      0.00000
     10       4.1034      0.00000

 k-point    52 :       0.4667    0.3333    0.0000
  band No.  band energies     occupation 
      1     -46.6458      2.00000
      2     -46.6436      2.00000
      3     -46.6225      2.00000
      4     -46.6216      2.00000
      5      -1.1513      2.00000
      6      -0.7911      2.00000
      7       0.9150      0.00000
      8       1.2465      0.00000
      9       4.0232      0.00000
     10       4.1092      0.00000

 k-point    53 :      -0.3333    0.4667    0.0000
  band No.  band energies     occupation 
      1     -46.6458      2.00000
      2     -46.6436      2.00000
      3     -46.6225      2.00000
      4     -46.6216      2.00000
      5      -1.1513      2.00000
      6      -0.7910      2.00000
      7       0.9147      0.00000
      8       1.2462      0.00000
      9       4.0254      0.00000
     10       4.1116      0.00000

 k-point    54 :       0.4000    0.4000    0.0000
  band No.  band energies     occupation 
      1     -46.6464      2.00000
      2     -46.6422      2.00000
      3     -46.6233      2.00000
      4     -46.6216      2.00000
      5      -1.2054      2.00000
      6      -0.3723      2.00000
      7       0.4130      2.00000
      8       1.1987      0.00000
      9       4.0547      0.00000
     10       4.2259      0.00000

 k-point    55 :       0.4667    0.4000    0.0000
  band No.  band energies     occupation 
      1     -46.6447      2.00000
      2     -46.6433      2.00000
      3     -46.6231      2.00000
      4     -46.6225      2.00000
      5      -0.9018      2.00000
      6      -0.5875      2.00000
      7       0.5204      1.99999
      8       0.8203      0.00000
      9       4.2103      0.00000
     10       4.2780      0.00000

 k-point    56 :      -0.4000    0.4667    0.0000
  band No.  band energies     occupation 
      1     -46.6447      2.00000
      2     -46.6433      2.00000
      3     -46.6231      2.00000
      4     -46.6225      2.00000
      5      -0.9018      2.00000
      6      -0.5874      2.00000
      7       0.5203      1.99999
      8       0.8202      0.00000
      9       4.2114      0.00000
     10       4.2792      0.00000

 k-point    57 :       0.4667    0.4667    0.0000
  band No.  band energies     occupation 
      1     -46.6438      2.00000
      2     -46.6433      2.00000
      3     -46.6234      2.00000
      4     -46.6231      2.00000
      5      -0.6451      2.00000
      6      -0.4922      2.00000
      7       0.3265      2.00000
      8       0.4750      2.00000
      9       4.3574      0.00000
     10       4.3861      0.00000

 k-point    58 :       0.0667    0.0667    0.0667
  band No.  band energies     occupation 
      1     -46.6633      2.00000
      2     -46.6271      2.00000
      3     -46.6232      2.00000
      4     -46.6200      2.00000
      5      -2.9355      2.00000
      6       1.9892      0.00000
      7       2.0700      0.00000
      8       2.2377      0.00000
      9       3.1744      0.00000
     10       3.5827      0.00000

 k-point    59 :       0.1333    0.0667    0.0667
  band No.  band energies     occupation 
      1     -46.6622      2.00000
      2     -46.6291      2.00000
      3     -46.6232      2.00000
      4     -46.6192      2.00000
      5      -2.8592      2.00000
      6       1.3876      0.00000
      7       2.0973      0.00000
      8       2.2568      0.00000
      9       3.2471      0.00000
     10       3.7409      0.00000

 k-point    60 :       0.2000    0.0667    0.0667
  band No.  band energies     occupation 
      1     -46.6606      2.00000
      2     -46.6318      2.00000
      3     -46.6228      2.00000
      4     -46.6186      2.00000
      5      -2.7317      2.00000
      6       0.7507      0.00000
      7       2.1930      0.00000
      8       2.3526      0.00000
      9       3.2828      0.00000
     10       3.8508      0.00000

 k-point    61 :       0.2667    0.0667    0.0667
  band No.  band energies     occupation 
      1     -46.6584      2.00000
      2     -46.6349      2.00000
      3     -46.6221      2.00000
      4     -46.6182      2.00000
      5      -2.5531      2.00000
      6       0.1570      2.00000
      7       2.3113      0.00000
      8       2.4878      0.00000
      9       3.3155      0.00000
     10       3.9641      0.00000

 k-point    62 :       0.3333    0.0667    0.0667
  band No.  band energies     occupation 
      1     -46.6557      2.00000
      2     -46.6384      2.00000
      3     -46.6213      2.00000
      4     -46.6182      2.00000
      5      -2.3228      2.00000
      6      -0.3871      2.00000
      7       2.4410      0.00000
      8       2.6384      0.00000
      9       3.3581      0.00000
     10       4.0436      0.00000

 k-point    63 :       0.4000    0.0667    0.0667
  band No.  band energies     occupation 
      1     -46.6526      2.00000
      2     -46.6420      2.00000
      3     -46.6205      2.00000
      4     -46.6185      2.00000
      5      -2.0407      2.00000
      6      -0.8795      2.00000
      7       2.5717      0.00000
      8       2.7479      0.00000
      9       3.4495      0.00000
     10       4.0157      0.00000

 k-point    64 :       0.4667    0.0667    0.0667
  band No.  band energies     occupation 
      1     -46.6492      2.00000
      2     -46.6456      2.00000
      3     -46.6197      2.00000
      4     -46.6190      2.00000
      5      -1.7063      2.00000
      6      -1.3192      2.00000
      7       2.6875      0.00000
      8       2.7600      0.00000
      9       3.6275      0.00000
     10       3.8501      0.00000

 k-point    65 :       0.1333    0.1333    0.0667
  band No.  band energies     occupation 
      1     -46.6613      2.00000
      2     -46.6304      2.00000
      3     -46.6234      2.00000
      4     -46.6187      2.00000
      5      -2.7829      2.00000
      6       1.3172      0.00000
      7       1.6324      0.00000
      8       2.2543      0.00000
      9       3.3481      0.00000
     10       4.0777      0.00000

 k-point    66 :       0.2000    0.1333    0.0667
  band No.  band energies     occupation 
      1     -46.6596      2.00000
      2     -46.6325      2.00000
      3     -46.6232      2.00000
      4     -46.6183      2.00000
      5      -2.6556      2.00000
      6       0.7930      0.00000
      7       1.6409      0.00000
      8       2.3399      0.00000
      9       3.3801      0.00000
     10       4.1971      0.00000

 k-point    67 :      -0.1333    0.2000    0.0667
  band No.  band energies     occupation 
      1     -46.6596      2.00000
      2     -46.6325      2.00000
      3     -46.6232      2.00000
      4     -46.6183      2.00000
      5      -2.6556      2.00000
      6       0.7931      0.00000
      7       1.6406      0.00000
      8       2.3402      0.00000
      9       3.3803      0.00000
     10       4.1965      0.00000

 k-point    68 :       0.2667    0.1333    0.0667
  band No.  band energies     occupation 
      1     -46.6575      2.00000
      2     -46.6352      2.00000
      3     -46.6227      2.00000
      4     -46.6182      2.00000
      5      -2.4773      2.00000
      6       0.2165      2.00000
      7       1.7826      0.00000
      8       2.4516      0.00000
      9       3.3847      0.00000
     10       4.2068      0.00000

 k-point    69 :      -0.1333    0.2667    0.0667
  band No.  band energies     occupation 
      1     -46.6575      2.00000
      2     -46.6352      2.00000
      3     -46.6227      2.00000
      4     -46.6182      2.00000
      5      -2.4773      2.00000
      6       0.2165      2.00000
      7       1.7820      0.00000
      8       2.4523      0.00000
      9       3.3850      0.00000
     10       4.2062      0.00000

 k-point    70 :       0.3333    0.1333    0.0667
  band No.  band energies     occupation 
      1     -46.6549      2.00000
      2     -46.6384      2.00000
      3     -46.6219      2.00000
      4     -46.6183      2.00000
      5      -2.2474      2.00000
      6      -0.3207      2.00000
      7       1.9653      0.00000
      8       2.5623      0.00000
      9       3.3711      0.00000
     10       4.1256      0.00000

 k-point    71 :      -0.1333    0.3333    0.0667
  band No.  band energies     occupation 
      1     -46.6549      2.00000
      2     -46.6384      2.00000
      3     -46.6219      2.00000
      4     -46.6183      2.00000
      5      -2.2474      2.00000
      6      -0.3206      2.00000
      7       1.9645      0.00000
      8       2.5632      0.00000
      9       3.3715      0.00000
     10       4.1260      0.00000

 k-point    72 :       0.4000    0.1333    0.0667
  band No.  band energies     occupation 
      1     -46.6519      2.00000
      2     -46.6418      2.00000
      3     -46.6211      2.00000
      4     -46.6188      2.00000
      5      -1.9659      2.00000
      6      -0.8093      2.00000
      7       2.1702      0.00000
      8       2.6126      0.00000
      9       3.3911      0.00000
     10       3.9499      0.00000

 k-point    73 :      -0.1333    0.4000    0.0667
  band No.  band energies     occupation 
      1     -46.6519      2.00000
      2     -46.6418      2.00000
      3     -46.6211      2.00000
      4     -46.6188      2.00000
      5      -1.9659      2.00000
      6      -0.8093      2.00000
      7       2.1691      0.00000
      8       2.6129      0.00000
      9       3.3921      0.00000
     10       3.9516      0.00000

 k-point    74 :       0.4667    0.1333    0.0667
  band No.  band energies     occupation 
      1     -46.6487      2.00000
      2     -46.6452      2.00000
      3     -46.6202      2.00000
      4     -46.6194      2.00000
      5      -1.6324      2.00000
      6      -1.2468      2.00000
      7       2.3748      0.00000
      8       2.5416      0.00000
      9       3.5138      0.00000
     10       3.7227      0.00000

 k-point    75 :      -0.1333    0.4667    0.0667
  band No.  band energies     occupation 
      1     -46.6487      2.00000
      2     -46.6452      2.00000
      3     -46.6202      2.00000
      4     -46.6194      2.00000
      5      -1.6324      2.00000
      6      -1.2468      2.00000
      7       2.3738      0.00000
      8       2.5411      0.00000
      9       3.5157      0.00000
     10       3.7250      0.00000

 k-point    76 :       0.2000    0.2000    0.0667
  band No.  band energies     occupation 
      1     -46.6582      2.00000
      2     -46.6339      2.00000
      3     -46.6234      2.00000
      4     -46.6182      2.00000
      5      -2.5288      2.00000
      6       0.7268      0.00000
      7       1.2072      0.00000
      8       2.4119      0.00000
      9       3.4005      0.00000
     10       4.2920      0.00000

 k-point    77 :       0.2667    0.2000    0.0667
  band No.  band energies     occupation 
      1     -46.6562      2.00000
      2     -46.6360      2.00000
      3     -46.6232      2.00000
      4     -46.6183      2.00000
      5      -2.3509      2.00000
      6       0.2919      2.00000
      7       1.2249      0.00000
      8       2.4882      0.00000
      9       3.3739      0.00000
     10       4.2099      0.00000

 k-point    78 :      -0.2000    0.2667    0.0667
  band No.  band energies     occupation 
      1     -46.6562      2.00000
      2     -46.6359      2.00000
      3     -46.6232      2.00000
      4     -46.6183      2.00000
      5      -2.3509      2.00000
      6       0.2920      2.00000
      7       1.2245      0.00000
      8       2.4885      0.00000
      9       3.3740      0.00000
     10       4.2102      0.00000

 k-point    79 :       0.3333    0.2000    0.0667
  band No.  band energies     occupation 
      1     -46.6537      2.00000
      2     -46.6385      2.00000
      3     -46.6227      2.00000
      4     -46.6187      2.00000
      5      -2.1218      2.00000
      6      -0.2173      2.00000
      7       1.4049      0.00000
      8       2.5093      0.00000
      9       3.3349      0.00000
     10       4.0797      0.00000

 k-point    80 :      -0.2000    0.3333    0.0667
  band No.  band energies     occupation 
      1     -46.6537      2.00000
      2     -46.6385      2.00000
      3     -46.6227      2.00000
      4     -46.6187      2.00000
      5      -2.1218      2.00000
      6      -0.2173      2.00000
      7       1.4044      0.00000
      8       2.5095      0.00000
      9       3.3353      0.00000
     10       4.0815      0.00000

 k-point    81 :       0.4000    0.2000    0.0667
  band No.  band energies     occupation 
      1     -46.6509      2.00000
      2     -46.6415      2.00000
      3     -46.6219      2.00000
      4     -46.6193      2.00000
      5      -1.8415      2.00000
      6      -0.6954      2.00000
      7       1.6388      0.00000
      8       2.3980      0.00000
      9       3.3800      0.00000
     10       3.9202      0.00000

 k-point    82 :      -0.2000    0.4000    0.0667
  band No.  band energies     occupation 
      1     -46.6509      2.00000
      2     -46.6415      2.00000
      3     -46.6219      2.00000
      4     -46.6193      2.00000
      5      -1.8415      2.00000
      6      -0.6953      2.00000
      7       1.6381      0.00000
      8       2.3976      0.00000
      9       3.3814      0.00000
     10       3.9232      0.00000

 k-point    83 :       0.4667    0.2000    0.0667
  band No.  band energies     occupation 
      1     -46.6478      2.00000
      2     -46.6447      2.00000
      3     -46.6210      2.00000
      4     -46.6201      2.00000
      5      -1.5099      2.00000
      6      -1.1275      2.00000
      7       1.9025      0.00000
      8       2.1710      0.00000
      9       3.5298      0.00000
     10       3.7271      0.00000

 k-point    84 :      -0.2000    0.4667    0.0667
  band No.  band energies     occupation 
      1     -46.6478      2.00000
      2     -46.6447      2.00000
      3     -46.6210      2.00000
      4     -46.6201      2.00000
      5      -1.5099      2.00000
      6      -1.1274      2.00000
      7       1.9016      0.00000
      8       2.1702      0.00000
      9       3.5322      0.00000
     10       3.7302      0.00000

 k-point    85 :       0.2667    0.2667    0.0667
  band No.  band energies     occupation 
      1     -46.6543      2.00000
      2     -46.6372      2.00000
      3     -46.6235      2.00000
      4     -46.6187      2.00000
      5      -2.1738      2.00000
      6       0.2511      2.00000
      7       0.8619      0.00000
      8       2.4733      0.00000
      9       3.3215      0.00000
     10       4.1411      0.00000

 k-point    86 :       0.3333    0.2667    0.0667
  band No.  band energies     occupation 
      1     -46.6520      2.00000
      2     -46.6390      2.00000
      3     -46.6233      2.00000
      4     -46.6192      2.00000
      5      -1.9461      2.00000
      6      -0.1041      2.00000
      7       0.9026      0.00000
      8       2.3199      0.00000
      9       3.3329      0.00000
     10       4.0890      0.00000

 k-point    87 :      -0.2667    0.3333    0.0667
  band No.  band energies     occupation 
      1     -46.6520      2.00000
      2     -46.6390      2.00000
      3     -46.6233      2.00000
      4     -46.6192      2.00000
      5      -1.9461      2.00000
      6      -0.1040      2.00000
      7       0.9023      0.00000
      8       2.3198      0.00000
      9       3.3333      0.00000
     10       4.0905      0.00000

 k-point    88 :       0.4000    0.2667    0.0667
  band No.  band energies     occupation 
      1     -46.6495      2.00000
      2     -46.6413      2.00000
      3     -46.6227      2.00000
      4     -46.6200      2.00000
      5      -1.6680      2.00000
      6      -0.5458      2.00000
      7       1.1203      0.00000
      8       2.0408      0.00000
      9       3.4563      0.00000
     10       3.9996      0.00000

 k-point    89 :      -0.2667    0.4000    0.0667
  band No.  band energies     occupation 
      1     -46.6495      2.00000
      2     -46.6413      2.00000
      3     -46.6227      2.00000
      4     -46.6200      2.00000
      5      -1.6680      2.00000
      6      -0.5457      2.00000
      7       1.1199      0.00000
      8       2.0404      0.00000
      9       3.4576      0.00000
     10       4.0023      0.00000

 k-point    90 :       0.4667    0.2667    0.0667
  band No.  band energies     occupation 
      1     -46.6468      2.00000
      2     -46.6440      2.00000
      3     -46.6218      2.00000
      4     -46.6209      2.00000
      5      -1.3402      2.00000
      6      -0.9644      2.00000
      7       1.4018      0.00000
      8       1.7177      0.00000
      9       3.6431      0.00000
     10       3.8408      0.00000

 k-point    91 :      -0.2667    0.4667    0.0667
  band No.  band energies     occupation 
      1     -46.6468      2.00000
      2     -46.6440      2.00000
      3     -46.6218      2.00000
      4     -46.6209      2.00000
      5      -1.3402      2.00000
      6      -0.9643      2.00000
      7       1.4013      0.00000
      8       1.7172      0.00000
      9       3.6453      0.00000
     10       3.8437      0.00000

 k-point    92 :       0.3333    0.3333    0.0667
  band No.  band energies     occupation 
      1     -46.6501      2.00000
      2     -46.6400      2.00000
      3     -46.6235      2.00000
      4     -46.6200      2.00000
      5      -1.7208      2.00000
      6      -0.1069      2.00000
      7       0.6025      0.18050
      8       1.9964      0.00000
      9       3.4352      0.00000
     10       4.1360      0.00000

 k-point    93 :       0.4000    0.3333    0.0667
  band No.  band energies     occupation 
      1     -46.6479      2.00000
      2     -46.6415      2.00000
      3     -46.6233      2.00000
      4     -46.6209      2.00000
      5      -1.4467      2.00000
      6      -0.3896      2.00000
      7       0.6740      0.00000
      8       1.6242      0.00000
      9       3.6112      0.00000
     10       4.1279      0.00000

 k-point    94 :      -0.3333    0.4000    0.0667
  band No.  band energies     occupation 
      1     -46.6479      2.00000
      2     -46.6415      2.00000
      3     -46.6233      2.00000
      4     -46.6209      2.00000
      5      -1.4467      2.00000
      6      -0.3895      2.00000
      7       0.6738      0.00000
      8       1.6240      0.00000
      9       3.6119      0.00000
     10       4.1295      0.00000

 k-point    95 :       0.4667    0.3333    0.0667
  band No.  band energies     occupation 
      1     -46.6456      2.00000
      2     -46.6434      2.00000
      3     -46.6227      2.00000
      4     -46.6218      2.00000
      5      -1.1263      2.00000
      6      -0.7661      2.00000
      7       0.9309      0.00000
      8       1.2589      0.00000
      9       3.8186      0.00000
     10       4.0111      0.00000

 k-point    96 :      -0.3333    0.4667    0.0667
  band No.  band energies     occupation 
      1     -46.6456      2.00000
      2     -46.6434      2.00000
      3     -46.6227      2.00000
      4     -46.6218      2.00000
      5      -1.1263      2.00000
      6      -0.7661      2.00000
      7       0.9306      0.00000
      8       1.2587      0.00000
      9       3.8202      0.00000
     10       4.0133      0.00000

 k-point    97 :       0.4000    0.4000    0.0667
  band No.  band energies     occupation 
      1     -46.6462      2.00000
      2     -46.6420      2.00000
      3     -46.6235      2.00000
      4     -46.6218      2.00000
      5      -1.1803      2.00000
      6      -0.3460      2.00000
      7       0.4297      2.00000
      8       1.2112      0.00000
      9       3.8130      0.00000
     10       4.2246      0.00000

 k-point    98 :       0.4667    0.4000    0.0667
  band No.  band energies     occupation 
      1     -46.6445      2.00000
      2     -46.6431      2.00000
      3     -46.6233      2.00000
      4     -46.6227      2.00000
      5      -0.8766      2.00000
      6      -0.5618      2.00000
      7       0.5376      1.99885
      8       0.8364      0.00000
      9       4.0259      0.00000
     10       4.1910      0.00000

 k-point    99 :      -0.4000    0.4667    0.0667
  band No.  band energies     occupation 
      1     -46.6445      2.00000
      2     -46.6431      2.00000
      3     -46.6233      2.00000
      4     -46.6227      2.00000
      5      -0.8766      2.00000
      6      -0.5618      2.00000
      7       0.5375      1.99889
      8       0.8363      0.00000
      9       4.0267      0.00000
     10       4.1921      0.00000

 k-point   100 :       0.4667    0.4667    0.0667
  band No.  band energies     occupation 
      1     -46.6436      2.00000
      2     -46.6431      2.00000
      3     -46.6235      2.00000
      4     -46.6233      2.00000
      5      -0.6193      2.00000
      6      -0.4657      2.00000
      7       0.3435      2.00000
      8       0.4923      2.00000
      9       4.2170      0.00000
     10       4.2923      0.00000

 k-point   101 :       0.1333    0.1333    0.1333
  band No.  band energies     occupation 
      1     -46.6603      2.00000
      2     -46.6313      2.00000
      3     -46.6236      2.00000
      4     -46.6184      2.00000
      5      -2.7068      2.00000
      6       1.3108      0.00000
      7       1.5177      0.00000
      8       1.8567      0.00000
      9       3.5368      0.00000
     10       4.3299      0.00000

 k-point   102 :       0.2000    0.1333    0.1333
  band No.  band energies     occupation 
      1     -46.6587      2.00000
      2     -46.6330      2.00000
      3     -46.6236      2.00000
      4     -46.6182      2.00000
      5      -2.5796      2.00000
      6       0.8421      0.00000
      7       1.5562      0.00000
      8       1.8761      0.00000
      9       3.5607      0.00000
     10       4.4259      0.00000

 k-point   103 :       0.2667    0.1333    0.1333
  band No.  band energies     occupation 
      1     -46.6567      2.00000
      2     -46.6354      2.00000
      3     -46.6232      2.00000
      4     -46.6182      2.00000
      5      -2.4014      2.00000
      6       0.2780      2.00000
      7       1.7127      0.00000
      8       1.9875      0.00000
      9       3.5066      0.00000
     10       4.3545      0.00000

 k-point   104 :       0.3333    0.1333    0.1333
  band No.  band energies     occupation 
      1     -46.6542      2.00000
      2     -46.6383      2.00000
      3     -46.6225      2.00000
      4     -46.6186      2.00000
      5      -2.1721      2.00000
      6      -0.2534      2.00000
      7       1.9039      0.00000
      8       2.1323      0.00000
      9       3.4029      0.00000
     10       4.1231      0.00000

 k-point   105 :       0.4000    0.1333    0.1333
  band No.  band energies     occupation 
      1     -46.6513      2.00000
      2     -46.6415      2.00000
      3     -46.6216      2.00000
      4     -46.6191      2.00000
      5      -1.8911      2.00000
      6      -0.7387      2.00000
      7       2.1030      0.00000
      8       2.2773      0.00000
      9       3.3026      0.00000
     10       3.8004      0.00000

 k-point   106 :       0.4667    0.1333    0.1333
  band No.  band energies     occupation 
      1     -46.6481      2.00000
      2     -46.6448      2.00000
      3     -46.6207      2.00000
      4     -46.6198      2.00000
      5      -1.5584      2.00000
      6      -1.1742      2.00000
      7       2.2715      0.00000
      8       2.3456      0.00000
      9       3.3081      0.00000
     10       3.4945      0.00000

 k-point   107 :       0.2000    0.2000    0.1333
  band No.  band energies     occupation 
      1     -46.6573      2.00000
      2     -46.6342      2.00000
      3     -46.6239      2.00000
      4     -46.6182      2.00000
      5      -2.4528      2.00000
      6       0.7911      0.00000
      7       1.2154      0.00000
      8       1.8673      0.00000
      9       3.5746      0.00000
     10       4.4782      0.00000

 k-point   108 :       0.2667    0.2000    0.1333
  band No.  band energies     occupation 
      1     -46.6553      2.00000
      2     -46.6360      2.00000
      3     -46.6238      2.00000
      4     -46.6185      2.00000
      5      -2.2751      2.00000
      6       0.3580      2.00000
      7       1.2517      0.00000
      8       1.9715      0.00000
      9       3.4809      0.00000
     10       4.3219      0.00000

 k-point   109 :      -0.2000    0.2667    0.1333
  band No.  band energies     occupation 
      1     -46.6553      2.00000
      2     -46.6360      2.00000
      3     -46.6238      2.00000
      4     -46.6185      2.00000
      5      -2.2751      2.00000
      6       0.3581      2.00000
      7       1.2514      0.00000
      8       1.9717      0.00000
      9       3.4807      0.00000
     10       4.3226      0.00000

 k-point   110 :       0.3333    0.2000    0.1333
  band No.  band energies     occupation 
      1     -46.6529      2.00000
      2     -46.6384      2.00000
      3     -46.6232      2.00000
      4     -46.6190      2.00000
      5      -2.0464      2.00000
      6      -0.1485      2.00000
      7       1.4355      0.00000
      8       2.0902      0.00000
      9       3.3201      0.00000
     10       4.0368      0.00000

 k-point   111 :      -0.2000    0.3333    0.1333
  band No.  band energies     occupation 
      1     -46.6529      2.00000
      2     -46.6384      2.00000
      3     -46.6232      2.00000
      4     -46.6190      2.00000
      5      -2.0464      2.00000
      6      -0.1484      2.00000
      7       1.4351      0.00000
      8       2.0905      0.00000
      9       3.3197      0.00000
     10       4.0384      0.00000

 k-point   112 :       0.4000    0.2000    0.1333
  band No.  band energies     occupation 
      1     -46.6502      2.00000
      2     -46.6412      2.00000
      3     -46.6224      2.00000
      4     -46.6197      2.00000
      5      -1.7666      2.00000
      6      -0.6241      2.00000
      7       1.6625      0.00000
      8       2.1594      0.00000
      9       3.1900      0.00000
     10       3.7109      0.00000

 k-point   113 :      -0.2000    0.4000    0.1333
  band No.  band energies     occupation 
      1     -46.6502      2.00000
      2     -46.6412      2.00000
      3     -46.6224      2.00000
      4     -46.6197      2.00000
      5      -1.7666      2.00000
      6      -0.6240      2.00000
      7       1.6619      0.00000
      8       2.1596      0.00000
      9       3.1900      0.00000
     10       3.7127      0.00000

 k-point   114 :       0.4667    0.2000    0.1333
  band No.  band energies     occupation 
      1     -46.6473      2.00000
      2     -46.6442      2.00000
      3     -46.6215      2.00000
      4     -46.6205      2.00000
      5      -1.4358      2.00000
      6      -1.0545      2.00000
      7       1.8990      0.00000
      8       2.0924      0.00000
      9       3.2170      0.00000
     10       3.4158      0.00000

 k-point   115 :      -0.2000    0.4667    0.1333
  band No.  band energies     occupation 
      1     -46.6473      2.00000
      2     -46.6442      2.00000
      3     -46.6215      2.00000
      4     -46.6205      2.00000
      5      -1.4358      2.00000
      6      -1.0544      2.00000
      7       1.8985      0.00000
      8       2.0921      0.00000
      9       3.2179      0.00000
     10       3.4174      0.00000

 k-point   116 :       0.2667    0.2667    0.1333
  band No.  band energies     occupation 
      1     -46.6535      2.00000
      2     -46.6371      2.00000
      3     -46.6240      2.00000
      4     -46.6189      2.00000
      5      -2.0981      2.00000
      6       0.3246      2.00000
      7       0.8981      0.00000
      8       2.0432      0.00000
      9       3.3263      0.00000
     10       4.2177      0.00000

 k-point   117 :       0.3333    0.2667    0.1333
  band No.  band energies     occupation 
      1     -46.6513      2.00000
      2     -46.6388      2.00000
      3     -46.6239      2.00000
      4     -46.6196      2.00000
      5      -1.8708      2.00000
      6      -0.0318      2.00000
      7       0.9458      0.00000
      8       2.0694      0.00000
      9       3.1510      0.00000
     10       4.0493      0.00000

 k-point   118 :      -0.2667    0.3333    0.1333
  band No.  band energies     occupation 
      1     -46.6513      2.00000
      2     -46.6388      2.00000
      3     -46.6239      2.00000
      4     -46.6196      2.00000
      5      -1.8708      2.00000
      6      -0.0317      2.00000
      7       0.9455      0.00000
      8       2.0695      0.00000
      9       3.1509      0.00000
     10       4.0508      0.00000

 k-point   119 :       0.4000    0.2667    0.1333
  band No.  band energies     occupation 
      1     -46.6488      2.00000
      2     -46.6410      2.00000
      3     -46.6233      2.00000
      4     -46.6205      2.00000
      5      -1.5931      2.00000
      6      -0.4733      2.00000
      7       1.1623      0.00000
      8       1.9577      0.00000
      9       3.1197      0.00000
     10       3.7922      0.00000

 k-point   120 :      -0.2667    0.4000    0.1333
  band No.  band energies     occupation 
      1     -46.6488      2.00000
      2     -46.6410      2.00000
      3     -46.6233      2.00000
      4     -46.6205      2.00000
      5      -1.5931      2.00000
      6      -0.4732      2.00000
      7       1.1619      0.00000
      8       1.9575      0.00000
      9       3.1201      0.00000
     10       3.7942      0.00000

 k-point   121 :       0.4667    0.2667    0.1333
  band No.  band energies     occupation 
      1     -46.6462      2.00000
      2     -46.6435      2.00000
      3     -46.6224      2.00000
      4     -46.6214      2.00000
      5      -1.2658      2.00000
      6      -0.8909      2.00000
      7       1.4323      0.00000
      8       1.7162      0.00000
      9       3.2643      0.00000
     10       3.5097      0.00000

 k-point   122 :      -0.2667    0.4667    0.1333
  band No.  band energies     occupation 
      1     -46.6462      2.00000
      2     -46.6435      2.00000
      3     -46.6224      2.00000
      4     -46.6214      2.00000
      5      -1.2658      2.00000
      6      -0.8908      2.00000
      7       1.4318      0.00000
      8       1.7158      0.00000
      9       3.2654      0.00000
     10       3.5114      0.00000

 k-point   123 :       0.3333    0.3333    0.1333
  band No.  band energies     occupation 
      1     -46.6493      2.00000
      2     -46.6396      2.00000
      3     -46.6241      2.00000
      4     -46.6204      2.00000
      5      -1.6455      2.00000
      6      -0.0300      2.00000
      7       0.6477      0.00001
      8       1.9116      0.00000
      9       3.0905      0.00000
     10       4.0723      0.00000

 k-point   124 :       0.4000    0.3333    0.1333
  band No.  band energies     occupation 
      1     -46.6472      2.00000
      2     -46.6410      2.00000
      3     -46.6239      2.00000
      4     -46.6214      2.00000
      5      -1.3717      2.00000
      6      -0.3144      2.00000
      7       0.7223      0.00000
      8       1.6221      0.00000
      9       3.2023      0.00000
     10       3.9416      0.00000

 k-point   125 :      -0.3333    0.4000    0.1333
  band No.  band energies     occupation 
      1     -46.6472      2.00000
      2     -46.6410      2.00000
      3     -46.6239      2.00000
      4     -46.6214      2.00000
      5      -1.3717      2.00000
      6      -0.3144      2.00000
      7       0.7221      0.00000
      8       1.6220      0.00000
      9       3.2026      0.00000
     10       3.9430      0.00000

 k-point   126 :       0.4667    0.3333    0.1333
  band No.  band energies     occupation 
      1     -46.6450      2.00000
      2     -46.6428      2.00000
      3     -46.6233      2.00000
      4     -46.6224      2.00000
      5      -1.0517      2.00000
      6      -0.6916      2.00000
      7       0.9758      0.00000
      8       1.2905      0.00000
      9       3.4203      0.00000
     10       3.6873      0.00000

 k-point   127 :      -0.3333    0.4667    0.1333
  band No.  band energies     occupation 
      1     -46.6450      2.00000
      2     -46.6428      2.00000
      3     -46.6233      2.00000
      4     -46.6224      2.00000
      5      -1.0516      2.00000
      6      -0.6916      2.00000
      7       0.9756      0.00000
      8       1.2902      0.00000
      9       3.4213      0.00000
     10       3.6887      0.00000

 k-point   128 :       0.4000    0.4000    0.1333
  band No.  band energies     occupation 
      1     -46.6455      2.00000
      2     -46.6415      2.00000
      3     -46.6242      2.00000
      4     -46.6224      2.00000
      5      -1.1053      2.00000
      6      -0.2676      2.00000
      7       0.4784      2.00000
      8       1.2428      0.00000
      9       3.3927      0.00000
     10       4.0326      0.00000

 k-point   129 :       0.4667    0.4000    0.1333
  band No.  band energies     occupation 
      1     -46.6439      2.00000
      2     -46.6424      2.00000
      3     -46.6239      2.00000
      4     -46.6233      2.00000
      5      -0.8013      2.00000
      6      -0.4853      2.00000
      7       0.5877      0.77052
      8       0.8821      0.00000
      9       3.6411      0.00000
     10       3.8971      0.00000

 k-point   130 :      -0.4000    0.4667    0.1333
  band No.  band energies     occupation 
      1     -46.6439      2.00000
      2     -46.6424      2.00000
      3     -46.6239      2.00000
      4     -46.6233      2.00000
      5      -0.8013      2.00000
      6      -0.4853      2.00000
      7       0.5876      0.77612
      8       0.8820      0.00000
      9       3.6416      0.00000
     10       3.8979      0.00000

 k-point   131 :       0.4667    0.4667    0.1333
  band No.  band energies     occupation 
      1     -46.6430      2.00000
      2     -46.6425      2.00000
      3     -46.6242      2.00000
      4     -46.6239      2.00000
      5      -0.5425      2.00000
      6      -0.3867      2.00000
      7       0.3935      2.00000
      8       0.5428      1.99605
      9       3.8837      0.00000
     10       4.0225      0.00000

 k-point   132 :       0.2000    0.2000    0.2000
  band No.  band energies     occupation 
      1     -46.6559      2.00000
      2     -46.6350      2.00000
      3     -46.6244      2.00000
      4     -46.6184      2.00000
      5      -2.3263      2.00000
      6       0.8136      0.00000
      7       1.1145      0.00000
      8       1.5640      0.00000
      9       3.5990      0.00000
     10       4.5005      0.00000

 k-point   133 :       0.2667    0.2000    0.2000
  band No.  band energies     occupation 
      1     -46.6540      2.00000
      2     -46.6363      2.00000
      3     -46.6244      2.00000
      4     -46.6188      2.00000
      5      -2.1489      2.00000
      6       0.4487      2.00000
      7       1.1750      0.00000
      8       1.5949      0.00000
      9       3.5002      0.00000
     10       4.2581      0.00000

 k-point   134 :       0.3333    0.2000    0.2000
  band No.  band energies     occupation 
      1     -46.6517      2.00000
      2     -46.6383      2.00000
      3     -46.6240      2.00000
      4     -46.6195      2.00000
      5      -1.9209      2.00000
      6      -0.0403      2.00000
      7       1.3716      0.00000
      8       1.7139      0.00000
      9       3.3116      0.00000
     10       3.8408      0.00000

 k-point   135 :       0.4000    0.2000    0.2000
  band No.  band energies     occupation 
      1     -46.6492      2.00000
      2     -46.6408      2.00000
      3     -46.6233      2.00000
      4     -46.6203      2.00000
      5      -1.6421      2.00000
      6      -0.5082      2.00000
      7       1.5982      0.00000
      8       1.8394      0.00000
      9       3.1142      0.00000
     10       3.4355      0.00000

 k-point   136 :       0.4667    0.2000    0.2000
  band No.  band energies     occupation 
      1     -46.6464      2.00000
      2     -46.6435      2.00000
      3     -46.6223      2.00000
      4     -46.6213      2.00000
      5      -1.3129      2.00000
      6      -0.9342      2.00000
      7       1.8009      0.00000
      8       1.8944      0.00000
      9       3.0200      0.00000
     10       3.1338      0.00000

 k-point   137 :       0.2667    0.2667    0.2000
  band No.  band energies     occupation 
      1     -46.6523      2.00000
      2     -46.6371      2.00000
      3     -46.6248      2.00000
      4     -46.6194      2.00000
      5      -1.9723      2.00000
      6       0.4349      2.00000
      7       0.9255      0.00000
      8       1.5886      0.00000
      9       3.3766      0.00000
     10       4.1024      0.00000

 k-point   138 :       0.3333    0.2667    0.2000
  band No.  band energies     occupation 
      1     -46.6502      2.00000
      2     -46.6385      2.00000
      3     -46.6247      2.00000
      4     -46.6202      2.00000
      5      -1.7454      2.00000
      6       0.0827      2.00000
      7       0.9958      0.00000
      8       1.6817      0.00000
      9       3.1407      0.00000
     10       3.7887      0.00000

 k-point   139 :      -0.2667    0.3333    0.2000
  band No.  band energies     occupation 
      1     -46.6502      2.00000
      2     -46.6385      2.00000
      3     -46.6247      2.00000
      4     -46.6202      2.00000
      5      -1.7454      2.00000
      6       0.0827      2.00000
      7       0.9956      0.00000
      8       1.6818      0.00000
      9       3.1405      0.00000
     10       3.7898      0.00000

 k-point   140 :       0.4000    0.2667    0.2000
  band No.  band energies     occupation 
      1     -46.6478      2.00000
      2     -46.6404      2.00000
      3     -46.6241      2.00000
      4     -46.6212      2.00000
      5      -1.4686      2.00000
      6      -0.3552      2.00000
      7       1.2111      0.00000
      8       1.7361      0.00000
      9       2.9454      0.00000
     10       3.4249      0.00000

 k-point   141 :      -0.2667    0.4000    0.2000
  band No.  band energies     occupation 
      1     -46.6478      2.00000
      2     -46.6404      2.00000
      3     -46.6241      2.00000
      4     -46.6212      2.00000
      5      -1.4686      2.00000
      6      -0.3552      2.00000
      7       1.2108      0.00000
      8       1.7361      0.00000
      9       2.9453      0.00000
     10       3.4259      0.00000

 k-point   142 :       0.4667    0.2667    0.2000
  band No.  band energies     occupation 
      1     -46.6452      2.00000
      2     -46.6427      2.00000
      3     -46.6232      2.00000
      4     -46.6222      2.00000
      5      -1.1427      2.00000
      6      -0.7698      2.00000
      7       1.4540      0.00000
      8       1.6579      0.00000
      9       2.9323      0.00000
     10       3.1175      0.00000

 k-point   143 :      -0.2667    0.4667    0.2000
  band No.  band energies     occupation 
      1     -46.6452      2.00000
      2     -46.6427      2.00000
      3     -46.6232      2.00000
      4     -46.6222      2.00000
      5      -1.1427      2.00000
      6      -0.7697      2.00000
      7       1.4537      0.00000
      8       1.6577      0.00000
      9       2.9326      0.00000
     10       3.1183      0.00000

 k-point   144 :       0.3333    0.3333    0.2000
  band No.  band energies     occupation 
      1     -46.6483      2.00000
      2     -46.6391      2.00000
      3     -46.6250      2.00000
      4     -46.6212      2.00000
      5      -1.5205      2.00000
      6       0.0936      2.00000
      7       0.7130      0.00000
      8       1.6852      0.00000
      9       2.9192      0.00000
     10       3.8128      0.00000

 k-point   145 :       0.4000    0.3333    0.2000
  band No.  band energies     occupation 
      1     -46.6462      2.00000
      2     -46.6403      2.00000
      3     -46.6249      2.00000
      4     -46.6222      2.00000
      5      -1.2473      2.00000
      6      -0.1921      2.00000
      7       0.7944      0.00000
      8       1.5635      0.00000
      9       2.8641      0.00000
     10       3.5831      0.00000

 k-point   146 :      -0.3333    0.4000    0.2000
  band No.  band energies     occupation 
      1     -46.6462      2.00000
      2     -46.6403      2.00000
      3     -46.6249      2.00000
      4     -46.6222      2.00000
      5      -1.2473      2.00000
      6      -0.1921      2.00000
      7       0.7942      0.00000
      8       1.5635      0.00000
      9       2.8642      0.00000
     10       3.5839      0.00000

 k-point   147 :       0.4667    0.3333    0.2000
  band No.  band energies     occupation 
      1     -46.6440      2.00000
      2     -46.6420      2.00000
      3     -46.6242      2.00000
      4     -46.6233      2.00000
      5      -0.9282      2.00000
      6      -0.5692      2.00000
      7       1.0389      0.00000
      8       1.3191      0.00000
      9       3.0056      0.00000
     10       3.2681      0.00000

 k-point   148 :      -0.3333    0.4667    0.2000
  band No.  band energies     occupation 
      1     -46.6440      2.00000
      2     -46.6420      2.00000
      3     -46.6242      2.00000
      4     -46.6233      2.00000
      5      -0.9281      2.00000
      6      -0.5692      2.00000
      7       1.0387      0.00000
      8       1.3190      0.00000
      9       3.0060      0.00000
     10       3.2688      0.00000

 k-point   149 :       0.4000    0.4000    0.2000
  band No.  band energies     occupation 
      1     -46.6444      2.00000
      2     -46.6406      2.00000
      3     -46.6251      2.00000
      4     -46.6233      2.00000
      5      -0.9811      2.00000
      6      -0.1396      2.00000
      7       0.5547      1.95862
      8       1.2722      0.00000
      9       2.9714      0.00000
     10       3.7043      0.00000

 k-point   150 :       0.4667    0.4000    0.2000
  band No.  band energies     occupation 
      1     -46.6428      2.00000
      2     -46.6415      2.00000
      3     -46.6249      2.00000
      4     -46.6243      2.00000
      5      -0.6771      2.00000
      6      -0.3598      2.00000
      7       0.6656      0.00000
      8       0.9480      0.00000
      9       3.2006      0.00000
     10       3.4908      0.00000

 k-point   151 :      -0.4000    0.4667    0.2000
  band No.  band energies     occupation 
      1     -46.6428      2.00000
      2     -46.6415      2.00000
      3     -46.6249      2.00000
      4     -46.6243      2.00000
      5      -0.6771      2.00000
      6      -0.3598      2.00000
      7       0.6655      0.00000
      8       0.9480      0.00000
      9       3.2009      0.00000
     10       3.4912      0.00000

 k-point   152 :       0.4667    0.4667    0.2000
  band No.  band energies     occupation 
      1     -46.6419      2.00000
      2     -46.6414      2.00000
      3     -46.6252      2.00000
      4     -46.6250      2.00000
      5      -0.4160      2.00000
      6      -0.2571      2.00000
      7       0.4732      2.00000
      8       0.6220      0.00652
      9       3.4624      0.00000
     10       3.6599      0.00000

 k-point   153 :       0.2667    0.2667    0.2667
  band No.  band energies     occupation 
      1     -46.6506      2.00000
      2     -46.6375      2.00000
      3     -46.6254      2.00000
      4     -46.6201      2.00000
      5      -1.7963      2.00000
      6       0.4965      2.00000
      7       0.8582      0.00000
      8       1.3529      0.00000
      9       3.3548      0.00000
     10       4.0144      0.00000

 k-point   154 :       0.3333    0.2667    0.2667
  band No.  band energies     occupation 
      1     -46.6486      2.00000
      2     -46.6383      2.00000
      3     -46.6255      2.00000
      4     -46.6211      2.00000
      5      -1.5704      2.00000
      6       0.2180      2.00000
      7       0.9443      0.00000
      8       1.3881      0.00000
      9       3.1602      0.00000
     10       3.5169      0.00000

 k-point   155 :       0.4000    0.2667    0.2667
  band No.  band energies     occupation 
      1     -46.6464      2.00000
      2     -46.6398      2.00000
      3     -46.6251      2.00000
      4     -46.6221      2.00000
      5      -1.2952      2.00000
      6      -0.1989      2.00000
      7       1.1615      0.00000
      8       1.4773      0.00000
      9       2.9160      0.00000
     10       3.1033      0.00000

 k-point   156 :       0.4667    0.2667    0.2667
  band No.  band energies     occupation 
      1     -46.6441      2.00000
      2     -46.6418      2.00000
      3     -46.6243      2.00000
      4     -46.6232      2.00000
      5      -0.9722      2.00000
      6      -0.6043      2.00000
      7       1.3770      0.00000
      8       1.4982      0.00000
      9       2.7706      0.00000
     10       2.8346      0.00000

 k-point   157 :       0.3333    0.3333    0.2667
  band No.  band energies     occupation 
      1     -46.6468      2.00000
      2     -46.6386      2.00000
      3     -46.6260      2.00000
      4     -46.6221      2.00000
      5      -1.3463      2.00000
      6       0.2500      2.00000
      7       0.7653      0.00000
      8       1.3715      0.00000
      9       2.9445      0.00000
     10       3.5608      0.00000

 k-point   158 :       0.4000    0.3333    0.2667
  band No.  band energies     occupation 
      1     -46.6448      2.00000
      2     -46.6394      2.00000
      3     -46.6260      2.00000
      4     -46.6233      2.00000
      5      -1.0744      2.00000
      6      -0.0295      2.00000
      7       0.8655      0.00000
      8       1.3905      0.00000
      9       2.7226      0.00000
     10       3.1766      0.00000

 k-point   159 :      -0.3333    0.4000    0.2667
  band No.  band energies     occupation 
      1     -46.6448      2.00000
      2     -46.6394      2.00000
      3     -46.6260      2.00000
      4     -46.6233      2.00000
      5      -1.0744      2.00000
      6      -0.0295      2.00000
      7       0.8654      0.00000
      8       1.3906      0.00000
      9       2.7223      0.00000
     10       3.1763      0.00000

 k-point   160 :       0.4667    0.3333    0.2667
  band No.  band energies     occupation 
      1     -46.6428      2.00000
      2     -46.6409      2.00000
      3     -46.6254      2.00000
      4     -46.6244      2.00000
      5      -0.7576      2.00000
      6      -0.4021      2.00000
      7       1.0899      0.00000
      8       1.2954      0.00000
      9       2.6951      0.00000
     10       2.8716      0.00000

 k-point   161 :      -0.3333    0.4667    0.2667
  band No.  band energies     occupation 
      1     -46.6428      2.00000
      2     -46.6409      2.00000
      3     -46.6254      2.00000
      4     -46.6244      2.00000
      5      -0.7575      2.00000
      6      -0.4021      2.00000
      7       1.0898      0.00000
      8       1.2953      0.00000
      9       2.6952      0.00000
     10       2.8719      0.00000

 k-point   162 :       0.4000    0.4000    0.2667
  band No.  band energies     occupation 
      1     -46.6431      2.00000
      2     -46.6395      2.00000
      3     -46.6264      2.00000
      4     -46.6245      2.00000
      5      -0.8091      2.00000
      6       0.0324      2.00000
      7       0.6464      0.00001
      8       1.2511      0.00000
      9       2.6599      0.00000
     10       3.3271      0.00000

 k-point   163 :       0.4667    0.4000    0.2667
  band No.  band energies     occupation 
      1     -46.6415      2.00000
      2     -46.6402      2.00000
      3     -46.6263      2.00000
      4     -46.6256      2.00000
      5      -0.5062      2.00000
      6      -0.1891      2.00000
      7       0.7586      0.00000
      8       1.0108      0.00000
      9       2.7982      0.00000
     10       3.0648      0.00000

 k-point   164 :      -0.4000    0.4667    0.2667
  band No.  band energies     occupation 
      1     -46.6415      2.00000
      2     -46.6402      2.00000
      3     -46.6263      2.00000
      4     -46.6256      2.00000
      5      -0.5062      2.00000
      6      -0.1891      2.00000
      7       0.7585      0.00000
      8       1.0107      0.00000
      9       2.7983      0.00000
     10       3.0671      0.00000

 k-point   165 :       0.4667    0.4667    0.2667
  band No.  band energies     occupation 
      1     -46.6405      2.00000
      2     -46.6400      2.00000
      3     -46.6266      2.00000
      4     -46.6264      2.00000
      5      -0.2434      2.00000
      6      -0.0809      2.00000
      7       0.5743      1.48971
      8       0.7188      0.00000
      9       3.0326      0.00000
     10       3.3218      0.00000

 k-point   166 :       0.3333    0.3333    0.3333
  band No.  band energies     occupation 
      1     -46.6451      2.00000
      2     -46.6383      2.00000
      3     -46.6268      2.00000
      4     -46.6233      2.00000
      5      -1.1237      2.00000
      6       0.3553      2.00000
      7       0.7358      0.00000
      8       1.1956      0.00000
      9       3.0067      0.00000
     10       3.2633      0.00000

 k-point   167 :       0.4000    0.3333    0.3333
  band No.  band energies     occupation 
      1     -46.6432      2.00000
      2     -46.6387      2.00000
      3     -46.6271      2.00000
      4     -46.6246      2.00000
      5      -0.8548      2.00000
      6       0.1508      2.00000
      7       0.8414      0.00000
      8       1.2032      0.00000
      9       2.7501      0.00000
     10       2.8472      0.00000

 k-point   168 :       0.4667    0.3333    0.3333
  band No.  band energies     occupation 
      1     -46.6414      2.00000
      2     -46.6398      2.00000
      3     -46.6267      2.00000
      4     -46.6258      2.00000
      5      -0.5432      2.00000
      6      -0.1982      2.00000
      7       1.0449      0.00000
      8       1.1843      0.00000
      9       2.5725      0.00000
     10       2.6118      0.00000

 k-point   169 :       0.4000    0.4000    0.3333
  band No.  band energies     occupation 
      1     -46.6415      2.00000
      2     -46.6384      2.00000
      3     -46.6278      2.00000
      4     -46.6259      2.00000
      5      -0.5917      2.00000
      6       0.2321      2.00000
      7       0.7193      0.00000
      8       1.1386      0.00000
      9       2.5616      0.00000
     10       2.9808      0.00000

 k-point   170 :       0.4667    0.4000    0.3333
  band No.  band energies     occupation 
      1     -46.6400      2.00000
      2     -46.6388      2.00000
      3     -46.6278      2.00000
      4     -46.6270      2.00000
      5      -0.2930      2.00000
      6       0.0182      2.00000
      7       0.8349      0.00000
      8       1.0250      0.00000
      9       2.5210      0.00000
     10       2.6926      0.00000

 k-point   171 :      -0.4000    0.4667    0.3333
  band No.  band energies     occupation 
      1     -46.6400      2.00000
      2     -46.6388      2.00000
      3     -46.6278      2.00000
      4     -46.6270      2.00000
      5      -0.2930      2.00000
      6       0.0182      2.00000
      7       0.8349      0.00000
      8       1.0250      0.00000
      9       2.5209      0.00000
     10       2.6972      0.00000

 k-point   172 :       0.4667    0.4667    0.3333
  band No.  band energies     occupation 
      1     -46.6388      2.00000
      2     -46.6384      2.00000
      3     -46.6283      2.00000
      4     -46.6280      2.00000
      5      -0.0308      2.00000
      6       0.1334      2.00000
      7       0.6785      0.00000
      8       0.8084      0.00000
      9       2.6754      0.00000
     10       2.9115      0.00000

 k-point   173 :       0.4000    0.4000    0.4000
  band No.  band energies     occupation 
      1     -46.6398      2.00000
      2     -46.6375      2.00000
      3     -46.6289      2.00000
      4     -46.6273      2.00000
      5      -0.3339      2.00000
      6       0.3803      2.00000
      7       0.7172      0.00000
      8       1.0313      0.00000
      9       2.6300      0.00000
     10       2.6767      0.00000

 k-point   174 :       0.4667    0.4000    0.4000
  band No.  band energies     occupation 
      1     -46.6384      2.00000
      2     -46.6374      2.00000
      3     -46.6292      2.00000
      4     -46.6286      2.00000
      5      -0.0466      2.00000
      6       0.2389      2.00000
      7       0.8222      0.00000
      8       0.9618      0.00000
      9       2.4447      0.00000
     10       2.4899      0.00000

 k-point   175 :       0.4667    0.4667    0.4000
  band No.  band energies     occupation 
      1     -46.6370      2.00000
      2     -46.6366      2.00000
      3     -46.6301      2.00000
      4     -46.6298      2.00000
      5       0.2085      2.00000
      6       0.3662      2.00000
      7       0.7447      0.00000
      8       0.8461      0.00000
      9       2.4236      0.00000
     10       2.5837      0.00000

 k-point   176 :       0.4667    0.4667    0.4667
  band No.  band energies     occupation 
      1     -46.6353      2.00000
      2     -46.6351      2.00000
      3     -46.6317      2.00000
      4     -46.6315      2.00000
      5       0.4432      2.00000
      6       0.5476      1.98900
      7       0.7287      0.00000
      8       0.7990      0.00000
      9       2.3719      0.00000
     10       2.4165      0.00000


--------------------------------------------------------------------------------------------------------


 soft charge-density along one line, spin component            1
         0         1         2         3         4         5         6         7         8         9
 total charge-density along one line
 
 pseudopotential strength for first ion, spin component:            1
-41.222   2.746   0.000   0.000  -0.000
  2.746  -9.089   0.000   0.000  -0.000
  0.000   0.000   0.129   0.000  -0.000
  0.000   0.000   0.000   0.129  -0.000
 -0.000  -0.000  -0.000  -0.000   0.129
 total augmentation occupancy for first ion, spin component:            1
  2.001   0.004  -0.000  -0.000   0.000
  0.004   0.930  -0.000  -0.000   0.000
 -0.000  -0.000   0.020  -0.001   0.001
 -0.000  -0.000  -0.001   0.020   0.001
  0.000   0.000   0.001   0.001   0.020


------------------------ aborting loop because EDIFF is reached ----------------------------------------


    CHARGE:  cpu time      0.1842: real time      0.1845
    FORLOC:  cpu time      0.0023: real time      0.0023
    FORNL :  cpu time      0.3860: real time      0.3866
    STRESS:  cpu time      3.5719: real time      3.5795
    FORHAR:  cpu time      0.0017: real time      0.0017
    MIXING:  cpu time      0.0042: real time      0.0042
    OFIELD:  cpu time      0.0000: real time      0.0000

  FORCE on cell =-STRESS in cart. coord.  units (eV):
  Direction    XX          YY          ZZ          XY          YZ          ZX
  --------------------------------------------------------------------------------------
  Alpha Z     4.16719     4.16719     4.16719
  Ewald     -85.91158   -85.91158   -85.91158    -0.00000    -0.00000     0.00000
  Hartree    57.76350    57.76350    57.76350    -0.00000    -0.00000    -0.00000
  E(xc)     -52.93108   -52.93108   -52.93108     0.00000    -0.00000    -0.00000
  Local     -85.33322   -85.33322   -85.33322     0.00000    -0.00000     0.00000
  n-local   -75.39278   -75.68411   -76.84234    -0.02787     0.17633    -0.04297
  augment    68.80472    68.80472    68.80472     0.00000     0.00000     0.00000
  Kinetic   172.35214   170.98038   164.66547    -0.64165     0.67429    -0.50855
  Fock        0.00000     0.00000     0.00000     0.00000     0.00000     0.00000
  -------------------------------------------------------------------------------------
  Total      -0.08088    -0.08088    -0.08088     0.00000     0.00000     0.00000
  in kB      -1.46615    -1.46615    -1.46615     0.00000     0.00000     0.00000
  external pressure =       -1.47 kB  Pullay stress =        0.00 kB


 VOLUME and BASIS-vectors are now :
 -----------------------------------------------------------------------------
  energy-cutoff  :      600.00
  volume of cell :       88.39
      direct lattice vectors                 reciprocal lattice vectors
     4.454440333  0.000000000  0.000000000     0.224495094  0.000000000  0.000000000
     0.000000000  4.454440333  0.000000000     0.000000000  0.224495094  0.000000000
     0.000000000  0.000000000  4.454440333     0.000000000  0.000000000  0.224495094

  length of vectors
     4.454440333  4.454440333  4.454440333     0.224495094  0.224495094  0.224495094


 FORCES acting on ions
    electron-ion (+dipol)            ewald-force                    non-local-force                 convergence-correction
 -----------------------------------------------------------------------------------------------
   0.207E-01 -.207E-01 -.207E-01   -.234E-01 0.234E-01 0.234E-01   0.620E-04 -.620E-04 -.620E-04   -.503E-05 0.503E-05 0.503E-05
   0.207E-01 0.207E-01 0.207E-01   -.234E-01 -.234E-01 -.234E-01   0.620E-04 0.620E-04 0.620E-04   -.503E-05 -.503E-05 -.503E-05
   -.207E-01 -.207E-01 0.207E-01   0.234E-01 0.234E-01 -.234E-01   -.620E-04 -.620E-04 0.620E-04   0.503E-05 0.503E-05 -.503E-05
   -.207E-01 0.207E-01 -.207E-01   0.234E-01 -.234E-01 0.234E-01   -.620E-04 0.620E-04 -.620E-04   0.503E-05 -.503E-05 0.503E-05
 -----------------------------------------------------------------------------------------------
   -.481E-08 -.637E-08 0.643E-10   -.114E-14 -.385E-15 0.552E-15   0.156E-17 0.217E-17 -.173E-17   -.248E-14 -.324E-13 0.128E-12
 
 
 POSITION                                       TOTAL-FORCE (eV/Angst)
 -----------------------------------------------------------------------------------
      3.89571      0.55873      2.78595        -0.002652      0.002652      0.002652
      1.66849      1.66849      1.66849        -0.002652     -0.002652     -0.002652
      0.55873      2.78595      3.89571         0.002652      0.002652     -0.002652
      2.78595      3.89571      0.55873         0.002652     -0.002652      0.002652
 -----------------------------------------------------------------------------------
    total drift:                               -0.000000     -0.000000      0.000000


--------------------------------------------------------------------------------------------------------



  FREE ENERGIE OF THE ION-ELECTRON SYSTEM (eV)
  ---------------------------------------------------
  free  energy   TOTEN  =        -6.57469767 eV

  energy  without entropy=       -6.57439212  energy(sigma->0) =       -6.57454489
 


--------------------------------------------------------------------------------------------------------


    POTLOK:  cpu time      0.0097: real time      0.0097


--------------------------------------------------------------------------------------------------------


 Quasi-Newton relaxation of ions (Broydens 2nd method)
  g(Force)  = 0.407E-05   g(Stress)= 0.237E-03

 Reset! Starting new Quasi-Newton update for ions 


--------------------------------------------------------------------------------------------------------


      MLFF:  cpu time      0.0003: real time      0.0004
    WAVPRE:  cpu time      0.0258: real time      0.0259
    FEWALD:  cpu time      0.0014: real time      0.0014
    GENKIN:  cpu time      0.0435: real time      0.0436
    ORTHCH:  cpu time      0.2125: real time      0.2130
     LOOP+:  cpu time     21.8155: real time     23.6043


--------------------------------------- Ionic step        2  -------------------------------------------




--------------------------------------- Iteration      2(   1)  ---------------------------------------


    POTLOK:  cpu time      0.0050: real time      0.0050
    SETDIJ:  cpu time      0.0025: real time      0.0025
     EDDAV:  cpu time      1.8487: real time      1.8541
       DOS:  cpu time      0.0006: real time      0.0006
    CHARGE:  cpu time      0.1691: real time      0.1694
    MIXING:  cpu time      0.0040: real time      0.0040
    --------------------------------------------
      LOOP:  cpu time      2.0299: real time      2.0357

 eigenvalue-minimisations  :  4376
 total energy-change (2. order) :-0.1029064E-03  (-0.2962386E-03)
 number of electron      12.0000023 magnetization 
 augmentation part        3.6852993 magnetization 

 Broyden mixing:
  rms(total) = 0.10429E-01    rms(broyden)= 0.10409E-01
  rms(prec ) = 0.13906E-01
  weight for this iteration     100.00

 Free energy of the ion-electron system (eV)
  ---------------------------------------------------
  alpha Z        PSCENC =         4.17941056
  Ewald energy   TEWEN  =      -257.98624786
  -Hartree energ DENC   =      -173.49711834
  -exchange      EXHF   =         0.00000000
  -V(xc)+E(xc)   XCENC  =        48.13162985
  PAW double counting   =       323.78258091     -385.66045055
  entropy T*S    EENTRO =        -0.00030250
  eigenvalues    EBANDS =      -376.62727289
  atomic energy  EATOM  =       811.10301397
  Solvation  Ediel_sol  =         0.00000000
  ---------------------------------------------------
  free energy    TOTEN  =        -6.57475684 eV

  energy without entropy =       -6.57445434  energy(sigma->0) =       -6.57460559


--------------------------------------------------------------------------------------------------------




--------------------------------------- Iteration      2(   2)  ---------------------------------------


    POTLOK:  cpu time      0.0051: real time      0.0051
    SETDIJ:  cpu time      0.0024: real time      0.0024
     EDDAV:  cpu time      1.8415: real time      1.8471
       DOS:  cpu time      0.0007: real time      0.0007
    --------------------------------------------
      LOOP:  cpu time      1.8497: real time      1.8553

 eigenvalue-minimisations  :  4370
 total energy-change (2. order) :-0.8386646E-05  (-0.7637067E-04)
 number of electron      12.0000023 magnetization 
 augmentation part        3.6852993 magnetization 

 Free energy of the ion-electron system (eV)
  ---------------------------------------------------
  alpha Z        PSCENC =         4.17941056
  Ewald energy   TEWEN  =      -257.98624786
  -Hartree energ DENC   =      -173.38844930
  -exchange      EXHF   =         0.00000000
  -V(xc)+E(xc)   XCENC  =        48.11702644
  PAW double counting   =       323.83282454     -385.70597810
  entropy T*S    EENTRO =        -0.00030286
  eigenvalues    EBANDS =      -376.72606263
  atomic energy  EATOM  =       811.10301397
  Solvation  Ediel_sol  =         0.00000000
  ---------------------------------------------------
  free energy    TOTEN  =        -6.57476523 eV

  energy without entropy =       -6.57446237  energy(sigma->0) =       -6.57461380


--------------------------------------------------------------------------------------------------------




 average (electrostatic) potential at core
  the test charge radii are     0.7079
  (the norm of the test charge is              1.0000)
       1 -65.7250       2 -65.7250       3 -65.7250       4 -65.7250
 
 
 
 E-fermi :   0.5918     XC(G=0):  -6.8344     alpha+bet : -6.7893

 val. band max:        0.5822344000   @ k =   0.4667   0.4667   0.2667
 cond. band min:       0.5954783478   @ k =   0.3333   0.3333   0.0000
 fundamental gap:      0.0132439478
 Fermi energy:         0.5918473469

 k-point     1 :       0.0000    0.0000    0.0000
  band No.  band energies     occupation 
      1     -46.6553      2.00000
      2     -46.6138      2.00000
      3     -46.6138      2.00000
      4     -46.6138      2.00000
      5      -3.0090      2.00000
      6       2.6920      0.00000
      7       2.6920      0.00000
      8       2.6922      0.00000
      9       2.8771      0.00000
     10       2.8771      0.00000

 k-point     2 :       0.0667    0.0000    0.0000
  band No.  band energies     occupation 
      1     -46.6550      2.00000
      2     -46.6161      2.00000
      3     -46.6137      2.00000
      4     -46.6119      2.00000
      5      -2.9836      2.00000
      6       2.0657      0.00000
      7       2.7011      0.00000
      8       2.7065      0.00000
      9       2.8398      0.00000
     10       2.9067      0.00000

 k-point     3 :       0.1333    0.0000    0.0000
  band No.  band energies     occupation 
      1     -46.6540      2.00000
      2     -46.6189      2.00000
      3     -46.6134      2.00000
      4     -46.6104      2.00000
      5      -2.9071      2.00000
      6       1.3719      0.00000
      7       2.7064      0.00000
      8       2.7273      0.00000
      9       2.9502      0.00000
     10       2.9947      0.00000

 k-point     4 :       0.2000    0.0000    0.0000
  band No.  band energies     occupation 
      1     -46.6523      2.00000
      2     -46.6220      2.00000
      3     -46.6129      2.00000
      4     -46.6095      2.00000
      5      -2.7796      2.00000
      6       0.7218      0.00000
      7       2.7314      0.00000
      8       2.7670      0.00000
      9       3.1038      0.00000
     10       3.1389      0.00000

 k-point     5 :       0.2667    0.0000    0.0000
  band No.  band energies     occupation 
      1     -46.6499      2.00000
      2     -46.6255      2.00000
      3     -46.6123      2.00000
      4     -46.6090      2.00000
      5      -2.6004      2.00000
      6       0.1216      2.00000
      7       2.7751      0.00000
      8       2.8144      0.00000
      9       3.2951      0.00000
     10       3.3333      0.00000

 k-point     6 :       0.3333    0.0000    0.0000
  band No.  band energies     occupation 
      1     -46.6472      2.00000
      2     -46.6292      2.00000
      3     -46.6115      2.00000
      4     -46.6088      2.00000
      5      -2.3697      2.00000
      6      -0.4265      2.00000
      7       2.8272      0.00000
      8       2.8613      0.00000
      9       3.5154      0.00000
     10       3.5648      0.00000

 k-point     7 :       0.4000    0.0000    0.0000
  band No.  band energies     occupation 
      1     -46.6439      2.00000
      2     -46.6330      2.00000
      3     -46.6107      2.00000
      4     -46.6089      2.00000
      5      -2.0867      2.00000
      6      -0.9215      2.00000
      7       2.8751      0.00000
      8       2.8978      0.00000
      9       3.7437      0.00000
     10       3.7996      0.00000

 k-point     8 :       0.4667    0.0000    0.0000
  band No.  band energies     occupation 
      1     -46.6405      2.00000
      2     -46.6368      2.00000
      3     -46.6099      2.00000
      4     -46.6093      2.00000
      5      -1.7514      2.00000
      6      -1.3631      2.00000
      7       2.9069      0.00000
      8       2.9149      0.00000
      9       3.9251      0.00000
     10       3.9550      0.00000

 k-point     9 :       0.0667    0.0667    0.0000
  band No.  band energies     occupation 
      1     -46.6547      2.00000
      2     -46.6171      2.00000
      3     -46.6138      2.00000
      4     -46.6112      2.00000
      5      -2.9582      2.00000
      6       2.0131      0.00000
      7       2.1608      0.00000
      8       2.7597      0.00000
      9       2.8047      0.00000
     10       3.4048      0.00000

 k-point    10 :       0.1333    0.0667    0.0000
  band No.  band energies     occupation 
      1     -46.6536      2.00000
      2     -46.6193      2.00000
      3     -46.6136      2.00000
      4     -46.6101      2.00000
      5      -2.8817      2.00000
      6       1.3831      0.00000
      7       2.1653      0.00000
      8       2.7923      0.00000
      9       2.8672      0.00000
     10       3.5587      0.00000

 k-point    11 :      -0.0667    0.1333    0.0000
  band No.  band energies     occupation 
      1     -46.6536      2.00000
      2     -46.6193      2.00000
      3     -46.6136      2.00000
      4     -46.6101      2.00000
      5      -2.8817      2.00000
      6       1.3831      0.00000
      7       2.1650      0.00000
      8       2.7935      0.00000
      9       2.8665      0.00000
     10       3.5582      0.00000

 k-point    12 :       0.2000    0.0667    0.0000
  band No.  band energies     occupation 
      1     -46.6519      2.00000
      2     -46.6223      2.00000
      3     -46.6132      2.00000
      4     -46.6093      2.00000
      5      -2.7541      2.00000
      6       0.7398      0.00000
      7       2.2570      0.00000
      8       2.8372      0.00000
      9       2.9734      0.00000
     10       3.6657      0.00000

 k-point    13 :      -0.0667    0.2000    0.0000
  band No.  band energies     occupation 
      1     -46.6519      2.00000
      2     -46.6223      2.00000
      3     -46.6132      2.00000
      4     -46.6093      2.00000
      5      -2.7541      2.00000
      6       0.7398      0.00000
      7       2.2563      0.00000
      8       2.8388      0.00000
      9       2.9731      0.00000
     10       3.6647      0.00000

 k-point    14 :       0.2667    0.0667    0.0000
  band No.  band energies     occupation 
      1     -46.6497      2.00000
      2     -46.6256      2.00000
      3     -46.6125      2.00000
      4     -46.6089      2.00000
      5      -2.5752      2.00000
      6       0.1425      2.00000
      7       2.3771      0.00000
      8       2.8817      0.00000
      9       3.1226      0.00000
     10       3.7901      0.00000

 k-point    15 :      -0.0667    0.2667    0.0000
  band No.  band energies     occupation 
      1     -46.6497      2.00000
      2     -46.6256      2.00000
      3     -46.6125      2.00000
      4     -46.6089      2.00000
      5      -2.5752      2.00000
      6       0.1425      2.00000
      7       2.3761      0.00000
      8       2.8832      0.00000
      9       3.1232      0.00000
     10       3.7886      0.00000

 k-point    16 :       0.3333    0.0667    0.0000
  band No.  band energies     occupation 
      1     -46.6469      2.00000
      2     -46.6292      2.00000
      3     -46.6117      2.00000
      4     -46.6088      2.00000
      5      -2.3445      2.00000
      6      -0.4039      2.00000
      7       2.5124      0.00000
      8       2.9093      0.00000
      9       3.3127      0.00000
     10       3.9154      0.00000

 k-point    17 :      -0.0667    0.3333    0.0000
  band No.  band energies     occupation 
      1     -46.6469      2.00000
      2     -46.6292      2.00000
      3     -46.6117      2.00000
      4     -46.6088      2.00000
      5      -2.3445      2.00000
      6      -0.4039      2.00000
      7       2.5111      0.00000
      8       2.9103      0.00000
      9       3.3144      0.00000
     10       3.9137      0.00000

 k-point    18 :       0.4000    0.0667    0.0000
  band No.  band energies     occupation 
      1     -46.6437      2.00000
      2     -46.6329      2.00000
      3     -46.6109      2.00000
      4     -46.6090      2.00000
      5      -2.0618      2.00000
      6      -0.8979      2.00000
      7       2.6479      0.00000
      8       2.9039      0.00000
      9       3.5348      0.00000
     10       3.9898      0.00000

 k-point    19 :      -0.0667    0.4000    0.0000
  band No.  band energies     occupation 
      1     -46.6437      2.00000
      2     -46.6329      2.00000
      3     -46.6109      2.00000
      4     -46.6090      2.00000
      5      -2.0618      2.00000
      6      -0.8979      2.00000
      7       2.6466      0.00000
      8       2.9043      0.00000
      9       3.5372      0.00000
     10       3.9891      0.00000

 k-point    20 :       0.4667    0.0667    0.0000
  band No.  band energies     occupation 
      1     -46.6403      2.00000
      2     -46.6366      2.00000
      3     -46.6101      2.00000
      4     -46.6094      2.00000
      5      -1.7267      2.00000
      6      -1.3388      2.00000
      7       2.7675      0.00000
      8       2.8563      0.00000
      9       3.7633      0.00000
     10       3.9400      0.00000

 k-point    21 :      -0.0667    0.4667    0.0000
  band No.  band energies     occupation 
      1     -46.6403      2.00000
      2     -46.6366      2.00000
      3     -46.6101      2.00000
      4     -46.6094      2.00000
      5      -1.7267      2.00000
      6      -1.3388      2.00000
      7       2.7666      0.00000
      8       2.8560      0.00000
      9       3.7656      0.00000
     10       3.9411      0.00000

 k-point    22 :       0.1333    0.1333    0.0000
  band No.  band energies     occupation 
      1     -46.6526      2.00000
      2     -46.6208      2.00000
      3     -46.6138      2.00000
      4     -46.6094      2.00000
      5      -2.8054      2.00000
      6       1.3049      0.00000
      7       1.6433      0.00000
      8       2.8253      0.00000
      9       2.9210      0.00000
     10       3.9728      0.00000

 k-point    23 :       0.2000    0.1333    0.0000
  band No.  band energies     occupation 
      1     -46.6510      2.00000
      2     -46.6231      2.00000
      3     -46.6136      2.00000
      4     -46.6090      2.00000
      5      -2.6780      2.00000
      6       0.7801      0.00000
      7       1.6435      0.00000
      8       2.8610      0.00000
      9       3.0185      0.00000
     10       4.0960      0.00000

 k-point    24 :      -0.1333    0.2000    0.0000
  band No.  band energies     occupation 
      1     -46.6510      2.00000
      2     -46.6231      2.00000
      3     -46.6136      2.00000
      4     -46.6090      2.00000
      5      -2.6780      2.00000
      6       0.7802      0.00000
      7       1.6431      0.00000
      8       2.8619      0.00000
      9       3.0185      0.00000
     10       4.0950      0.00000

 k-point    25 :       0.2667    0.1333    0.0000
  band No.  band energies     occupation 
      1     -46.6488      2.00000
      2     -46.6260      2.00000
      3     -46.6131      2.00000
      4     -46.6088      2.00000
      5      -2.4993      2.00000
      6       0.2014      2.00000
      7       1.7831      0.00000
      8       2.8826      0.00000
      9       3.1515      0.00000
     10       4.1077      0.00000

 k-point    26 :      -0.1333    0.2667    0.0000
  band No.  band energies     occupation 
      1     -46.6488      2.00000
      2     -46.6260      2.00000
      3     -46.6131      2.00000
      4     -46.6088      2.00000
      5      -2.4993      2.00000
      6       0.2014      2.00000
      7       1.7824      0.00000
      8       2.8835      0.00000
      9       3.1522      0.00000
     10       4.1061      0.00000

 k-point    27 :       0.3333    0.1333    0.0000
  band No.  band energies     occupation 
      1     -46.6461      2.00000
      2     -46.6292      2.00000
      3     -46.6124      2.00000
      4     -46.6089      2.00000
      5      -2.2691      2.00000
      6      -0.3377      2.00000
      7       1.9670      0.00000
      8       2.8601      0.00000
      9       3.3137      0.00000
     10       4.0618      0.00000

 k-point    28 :      -0.1333    0.3333    0.0000
  band No.  band energies     occupation 
      1     -46.6461      2.00000
      2     -46.6292      2.00000
      3     -46.6124      2.00000
      4     -46.6089      2.00000
      5      -2.2691      2.00000
      6      -0.3376      2.00000
      7       1.9660      0.00000
      8       2.8606      0.00000
      9       3.3156      0.00000
     10       4.0610      0.00000

 k-point    29 :       0.4000    0.1333    0.0000
  band No.  band energies     occupation 
      1     -46.6431      2.00000
      2     -46.6327      2.00000
      3     -46.6115      2.00000
      4     -46.6093      2.00000
      5      -1.9870      2.00000
      6      -0.8278      2.00000
      7       2.1780      0.00000
      8       2.7680      0.00000
      9       3.4951      0.00000
     10       3.9736      0.00000

 k-point    30 :      -0.1333    0.4000    0.0000
  band No.  band energies     occupation 
      1     -46.6431      2.00000
      2     -46.6327      2.00000
      3     -46.6115      2.00000
      4     -46.6093      2.00000
      5      -1.9870      2.00000
      6      -0.8278      2.00000
      7       2.1768      0.00000
      8       2.7677      0.00000
      9       3.4983      0.00000
     10       3.9749      0.00000

 k-point    31 :       0.4667    0.1333    0.0000
  band No.  band energies     occupation 
      1     -46.6397      2.00000
      2     -46.6363      2.00000
      3     -46.6106      2.00000
      4     -46.6099      2.00000
      5      -1.6529      2.00000
      6      -1.2664      2.00000
      7       2.3990      0.00000
      8       2.6059      0.00000
      9       3.6796      0.00000
     10       3.8451      0.00000

 k-point    32 :      -0.1333    0.4667    0.0000
  band No.  band energies     occupation 
      1     -46.6397      2.00000
      2     -46.6363      2.00000
      3     -46.6106      2.00000
      4     -46.6099      2.00000
      5      -1.6528      2.00000
      6      -1.2664      2.00000
      7       2.3977      0.00000
      8       2.6049      0.00000
      9       3.6834      0.00000
     10       3.8484      0.00000

 k-point    33 :       0.2000    0.2000    0.0000
  band No.  band energies     occupation 
      1     -46.6495      2.00000
      2     -46.6246      2.00000
      3     -46.6139      2.00000
      4     -46.6088      2.00000
      5      -2.5509      2.00000
      6       0.7097      0.00000
      7       1.2067      0.00000
      8       2.8680      0.00000
      9       3.1144      0.00000
     10       4.1997      0.00000

 k-point    34 :       0.2667    0.2000    0.0000
  band No.  band energies     occupation 
      1     -46.6474      2.00000
      2     -46.6267      2.00000
      3     -46.6137      2.00000
      4     -46.6089      2.00000
      5      -2.3727      2.00000
      6       0.2752      2.00000
      7       1.2206      0.00000
      8       2.8257      0.00000
      9       3.2458      0.00000
     10       4.1155      0.00000

 k-point    35 :      -0.2000    0.2667    0.0000
  band No.  band energies     occupation 
      1     -46.6474      2.00000
      2     -46.6267      2.00000
      3     -46.6137      2.00000
      4     -46.6089      2.00000
      5      -2.3727      2.00000
      6       0.2753      2.00000
      7       1.2202      0.00000
      8       2.8259      0.00000
      9       3.2464      0.00000
     10       4.1152      0.00000

 k-point    36 :       0.3333    0.2000    0.0000
  band No.  band energies     occupation 
      1     -46.6449      2.00000
      2     -46.6294      2.00000
      3     -46.6131      2.00000
      4     -46.6092      2.00000
      5      -2.1433      2.00000
      6      -0.2350      2.00000
      7       1.4001      0.00000
      8       2.6946      0.00000
      9       3.4030      0.00000
     10       4.0121      0.00000

 k-point    37 :      -0.2000    0.3333    0.0000
  band No.  band energies     occupation 
      1     -46.6449      2.00000
      2     -46.6294      2.00000
      3     -46.6131      2.00000
      4     -46.6092      2.00000
      5      -2.1433      2.00000
      6      -0.2349      2.00000
      7       1.3994      0.00000
      8       2.6945      0.00000
      9       3.4047      0.00000
     10       4.0130      0.00000

 k-point    38 :       0.4000    0.2000    0.0000
  band No.  band energies     occupation 
      1     -46.6420      2.00000
      2     -46.6325      2.00000
      3     -46.6123      2.00000
      4     -46.6098      2.00000
      5      -1.8626      2.00000
      6      -0.7141      2.00000
      7       1.6364      0.00000
      8       2.4712      0.00000
      9       3.5720      0.00000
     10       3.9377      0.00000

 k-point    39 :      -0.2000    0.4000    0.0000
  band No.  band energies     occupation 
      1     -46.6420      2.00000
      2     -46.6325      2.00000
      3     -46.6123      2.00000
      4     -46.6098      2.00000
      5      -1.8626      2.00000
      6      -0.7140      2.00000
      7       1.6356      0.00000
      8       2.4705      0.00000
      9       3.5750      0.00000
     10       3.9403      0.00000

 k-point    40 :       0.4667    0.2000    0.0000
  band No.  band energies     occupation 
      1     -46.6389      2.00000
      2     -46.6357      2.00000
      3     -46.6114      2.00000
      4     -46.6105      2.00000
      5      -1.5303      2.00000
      6      -1.1471      2.00000
      7       1.9074      0.00000
      8       2.1948      0.00000
      9       3.7311      0.00000
     10       3.8553      0.00000

 k-point    41 :      -0.2000    0.4667    0.0000
  band No.  band energies     occupation 
      1     -46.6389      2.00000
      2     -46.6357      2.00000
      3     -46.6114      2.00000
      4     -46.6105      2.00000
      5      -1.5303      2.00000
      6      -1.1471      2.00000
      7       1.9064      0.00000
      8       2.1938      0.00000
      9       3.7350      0.00000
     10       3.8592      0.00000

 k-point    42 :       0.2667    0.2667    0.0000
  band No.  band energies     occupation 
      1     -46.6455      2.00000
      2     -46.6280      2.00000
      3     -46.6139      2.00000
      4     -46.6091      2.00000
      5      -2.1954      2.00000
      6       0.2317      2.00000
      7       0.8570      0.00000
      8       2.6669      0.00000
      9       3.3798      0.00000
     10       4.0292      0.00000

 k-point    43 :       0.3333    0.2667    0.0000
  band No.  band energies     occupation 
      1     -46.6432      2.00000
      2     -46.6299      2.00000
      3     -46.6137      2.00000
      4     -46.6097      2.00000
      5      -1.9675      2.00000
      6      -0.1230      2.00000
      7       0.8956      0.00000
      8       2.3975      0.00000
      9       3.5396      0.00000
     10       3.9957      0.00000

 k-point    44 :      -0.2667    0.3333    0.0000
  band No.  band energies     occupation 
      1     -46.6432      2.00000
      2     -46.6299      2.00000
      3     -46.6137      2.00000
      4     -46.6097      2.00000
      5      -1.9675      2.00000
      6      -0.1229      2.00000
      7       0.8952      0.00000
      8       2.3973      0.00000
      9       3.5407      0.00000
     10       3.9968      0.00000

 k-point    45 :       0.4000    0.2667    0.0000
  band No.  band energies     occupation 
      1     -46.6406      2.00000
      2     -46.6323      2.00000
      3     -46.6131      2.00000
      4     -46.6105      2.00000
      5      -1.6889      2.00000
      6      -0.5650      2.00000
      7       1.1136      0.00000
      8       2.0659      0.00000
      9       3.7091      0.00000
     10       3.9955      0.00000

 k-point    46 :      -0.2667    0.4000    0.0000
  band No.  band energies     occupation 
      1     -46.6406      2.00000
      2     -46.6323      2.00000
      3     -46.6131      2.00000
      4     -46.6105      2.00000
      5      -1.6889      2.00000
      6      -0.5649      2.00000
      7       1.1131      0.00000
      8       2.0654      0.00000
      9       3.7114      0.00000
     10       3.9980      0.00000

 k-point    47 :       0.4667    0.2667    0.0000
  band No.  band energies     occupation 
      1     -46.6379      2.00000
      2     -46.6350      2.00000
      3     -46.6123      2.00000
      4     -46.6114      2.00000
      5      -1.3606      2.00000
      6      -0.9842      2.00000
      7       1.3983      0.00000
      8       1.7225      0.00000
      9       3.8613      0.00000
     10       3.9621      0.00000

 k-point    48 :      -0.2667    0.4667    0.0000
  band No.  band energies     occupation 
      1     -46.6379      2.00000
      2     -46.6350      2.00000
      3     -46.6123      2.00000
      4     -46.6113      2.00000
      5      -1.3606      2.00000
      6      -0.9841      2.00000
      7       1.3977      0.00000
      8       1.7219      0.00000
      9       3.8646      0.00000
     10       3.9656      0.00000

 k-point    49 :       0.3333    0.3333    0.0000
  band No.  band energies     occupation 
      1     -46.6412      2.00000
      2     -46.6309      2.00000
      3     -46.6139      2.00000
      4     -46.6105      2.00000
      5      -1.7419      2.00000
      6      -0.1277      2.00000
      7       0.5955      0.79737
      8       2.0219      0.00000
      9       3.7064      0.00000
     10       4.0503      0.00000

 k-point    50 :       0.4000    0.3333    0.0000
  band No.  band energies     occupation 
      1     -46.6390      2.00000
      2     -46.6325      2.00000
      3     -46.6137      2.00000
      4     -46.6113      2.00000
      5      -1.4674      2.00000
      6      -0.4098      2.00000
      7       0.6657      0.00000
      8       1.6291      0.00000
      9       3.8822      0.00000
     10       4.1155      0.00000

 k-point    51 :      -0.3333    0.4000    0.0000
  band No.  band energies     occupation 
      1     -46.6390      2.00000
      2     -46.6325      2.00000
      3     -46.6137      2.00000
      4     -46.6113      2.00000
      5      -1.4674      2.00000
      6      -0.4097      2.00000
      7       0.6655      0.00000
      8       1.6289      0.00000
      9       3.8835      0.00000
     10       4.1170      0.00000

 k-point    52 :       0.4667    0.3333    0.0000
  band No.  band energies     occupation 
      1     -46.6367      2.00000
      2     -46.6345      2.00000
      3     -46.6131      2.00000
      4     -46.6123      2.00000
      5      -1.1467      2.00000
      6      -0.7862      2.00000
      7       0.9234      0.00000
      8       1.2551      0.00000
      9       4.0358      0.00000
     10       4.1223      0.00000

 k-point    53 :      -0.3333    0.4667    0.0000
  band No.  band energies     occupation 
      1     -46.6367      2.00000
      2     -46.6345      2.00000
      3     -46.6131      2.00000
      4     -46.6123      2.00000
      5      -1.1466      2.00000
      6      -0.7861      2.00000
      7       0.9231      0.00000
      8       1.2548      0.00000
      9       4.0382      0.00000
     10       4.1248      0.00000

 k-point    54 :       0.4000    0.4000    0.0000
  band No.  band energies     occupation 
      1     -46.6373      2.00000
      2     -46.6331      2.00000
      3     -46.6139      2.00000
      4     -46.6123      2.00000
      5      -1.2009      2.00000
      6      -0.3677      2.00000
      7       0.4216      2.00000
      8       1.2073      0.00000
      9       4.0673      0.00000
     10       4.2395      0.00000

 k-point    55 :       0.4667    0.4000    0.0000
  band No.  band energies     occupation 
      1     -46.6356      2.00000
      2     -46.6341      2.00000
      3     -46.6137      2.00000
      4     -46.6131      2.00000
      5      -0.8971      2.00000
      6      -0.5828      2.00000
      7       0.5288      1.99999
      8       0.8286      0.00000
      9       4.2232      0.00000
     10       4.2913      0.00000

 k-point    56 :      -0.4000    0.4667    0.0000
  band No.  band energies     occupation 
      1     -46.6356      2.00000
      2     -46.6341      2.00000
      3     -46.6137      2.00000
      4     -46.6131      2.00000
      5      -0.8971      2.00000
      6      -0.5827      2.00000
      7       0.5287      1.99999
      8       0.8285      0.00000
      9       4.2243      0.00000
     10       4.2925      0.00000

 k-point    57 :       0.4667    0.4667    0.0000
  band No.  band energies     occupation 
      1     -46.6347      2.00000
      2     -46.6342      2.00000
      3     -46.6140      2.00000
      4     -46.6138      2.00000
      5      -0.6405      2.00000
      6      -0.4878      2.00000
      7       0.3350      2.00000
      8       0.4833      2.00000
      9       4.3706      0.00000
     10       4.3995      0.00000

 k-point    58 :       0.0667    0.0667    0.0667
  band No.  band energies     occupation 
      1     -46.6543      2.00000
      2     -46.6178      2.00000
      3     -46.6139      2.00000
      4     -46.6107      2.00000
      5      -2.9327      2.00000
      6       1.9979      0.00000
      7       2.0796      0.00000
      8       2.2486      0.00000
      9       3.1854      0.00000
     10       3.5947      0.00000

 k-point    59 :       0.1333    0.0667    0.0667
  band No.  band energies     occupation 
      1     -46.6533      2.00000
      2     -46.6198      2.00000
      3     -46.6138      2.00000
      4     -46.6098      2.00000
      5      -2.8563      2.00000
      6       1.3959      0.00000
      7       2.1066      0.00000
      8       2.2674      0.00000
      9       3.2581      0.00000
     10       3.7533      0.00000

 k-point    60 :       0.2000    0.0667    0.0667
  band No.  band energies     occupation 
      1     -46.6516      2.00000
      2     -46.6225      2.00000
      3     -46.6134      2.00000
      4     -46.6092      2.00000
      5      -2.7287      2.00000
      6       0.7581      0.00000
      7       2.2023      0.00000
      8       2.3632      0.00000
      9       3.2937      0.00000
     10       3.8635      0.00000

 k-point    61 :       0.2667    0.0667    0.0667
  band No.  band energies     occupation 
      1     -46.6494      2.00000
      2     -46.6257      2.00000
      3     -46.6128      2.00000
      4     -46.6088      2.00000
      5      -2.5499      2.00000
      6       0.1636      2.00000
      7       2.3207      0.00000
      8       2.4984      0.00000
      9       3.3264      0.00000
     10       3.9773      0.00000

 k-point    62 :       0.3333    0.0667    0.0667
  band No.  band energies     occupation 
      1     -46.6466      2.00000
      2     -46.6292      2.00000
      3     -46.6120      2.00000
      4     -46.6088      2.00000
      5      -2.3194      2.00000
      6      -0.3812      2.00000
      7       2.4504      0.00000
      8       2.6487      0.00000
      9       3.3694      0.00000
     10       4.0572      0.00000

 k-point    63 :       0.4000    0.0667    0.0667
  band No.  band energies     occupation 
      1     -46.6435      2.00000
      2     -46.6328      2.00000
      3     -46.6111      2.00000
      4     -46.6091      2.00000
      5      -2.0369      2.00000
      6      -0.8743      2.00000
      7       2.5811      0.00000
      8       2.7577      0.00000
      9       3.4617      0.00000
     10       4.0295      0.00000

 k-point    64 :       0.4667    0.0667    0.0667
  band No.  band energies     occupation 
      1     -46.6401      2.00000
      2     -46.6365      2.00000
      3     -46.6103      2.00000
      4     -46.6096      2.00000
      5      -1.7021      2.00000
      6      -1.3146      2.00000
      7       2.6968      0.00000
      8       2.7694      0.00000
      9       3.6406      0.00000
     10       3.8637      0.00000

 k-point    65 :       0.1333    0.1333    0.0667
  band No.  band energies     occupation 
      1     -46.6523      2.00000
      2     -46.6211      2.00000
      3     -46.6140      2.00000
      4     -46.6093      2.00000
      5      -2.7800      2.00000
      6       1.3249      0.00000
      7       1.6418      0.00000
      8       2.2646      0.00000
      9       3.3591      0.00000
     10       4.0907      0.00000

 k-point    66 :       0.2000    0.1333    0.0667
  band No.  band energies     occupation 
      1     -46.6507      2.00000
      2     -46.6232      2.00000
      3     -46.6139      2.00000
      4     -46.6089      2.00000
      5      -2.6525      2.00000
      6       0.8002      0.00000
      7       1.6501      0.00000
      8       2.3501      0.00000
      9       3.3910      0.00000
     10       4.2106      0.00000

 k-point    67 :      -0.1333    0.2000    0.0667
  band No.  band energies     occupation 
      1     -46.6507      2.00000
      2     -46.6232      2.00000
      3     -46.6139      2.00000
      4     -46.6089      2.00000
      5      -2.6525      2.00000
      6       0.8003      0.00000
      7       1.6497      0.00000
      8       2.3504      0.00000
      9       3.3913      0.00000
     10       4.2100      0.00000

 k-point    68 :       0.2667    0.1333    0.0667
  band No.  band energies     occupation 
      1     -46.6485      2.00000
      2     -46.6260      2.00000
      3     -46.6133      2.00000
      4     -46.6088      2.00000
      5      -2.4740      2.00000
      6       0.2230      2.00000
      7       1.7917      0.00000
      8       2.4617      0.00000
      9       3.3956      0.00000
     10       4.2207      0.00000

 k-point    69 :      -0.1333    0.2667    0.0667
  band No.  band energies     occupation 
      1     -46.6485      2.00000
      2     -46.6260      2.00000
      3     -46.6133      2.00000
      4     -46.6088      2.00000
      5      -2.4740      2.00000
      6       0.2231      2.00000
      7       1.7911      0.00000
      8       2.4624      0.00000
      9       3.3960      0.00000
     10       4.2201      0.00000

 k-point    70 :       0.3333    0.1333    0.0667
  band No.  band energies     occupation 
      1     -46.6459      2.00000
      2     -46.6292      2.00000
      3     -46.6126      2.00000
      4     -46.6089      2.00000
      5      -2.2439      2.00000
      6      -0.3148      2.00000
      7       1.9746      0.00000
      8       2.5721      0.00000
      9       3.3824      0.00000
     10       4.1396      0.00000

 k-point    71 :      -0.1333    0.3333    0.0667
  band No.  band energies     occupation 
      1     -46.6459      2.00000
      2     -46.6292      2.00000
      3     -46.6126      2.00000
      4     -46.6089      2.00000
      5      -2.2439      2.00000
      6      -0.3148      2.00000
      7       1.9737      0.00000
      8       2.5730      0.00000
      9       3.3829      0.00000
     10       4.1400      0.00000

 k-point    72 :       0.4000    0.1333    0.0667
  band No.  band energies     occupation 
      1     -46.6429      2.00000
      2     -46.6326      2.00000
      3     -46.6117      2.00000
      4     -46.6094      2.00000
      5      -1.9621      2.00000
      6      -0.8040      2.00000
      7       2.1795      0.00000
      8       2.6220      0.00000
      9       3.4031      0.00000
     10       3.9637      0.00000

 k-point    73 :      -0.1333    0.4000    0.0667
  band No.  band energies     occupation 
      1     -46.6429      2.00000
      2     -46.6326      2.00000
      3     -46.6117      2.00000
      4     -46.6094      2.00000
      5      -1.9621      2.00000
      6      -0.8040      2.00000
      7       2.1784      0.00000
      8       2.6223      0.00000
      9       3.4042      0.00000
     10       3.9655      0.00000

 k-point    74 :       0.4667    0.1333    0.0667
  band No.  band energies     occupation 
      1     -46.6396      2.00000
      2     -46.6361      2.00000
      3     -46.6108      2.00000
      4     -46.6100      2.00000
      5      -1.6281      2.00000
      6      -1.2421      2.00000
      7       2.3841      0.00000
      8       2.5508      0.00000
      9       3.5265      0.00000
     10       3.7360      0.00000

 k-point    75 :      -0.1333    0.4667    0.0667
  band No.  band energies     occupation 
      1     -46.6396      2.00000
      2     -46.6361      2.00000
      3     -46.6108      2.00000
      4     -46.6100      2.00000
      5      -1.6281      2.00000
      6      -1.2421      2.00000
      7       2.3830      0.00000
      8       2.5503      0.00000
      9       3.5286      0.00000
     10       3.7384      0.00000

 k-point    76 :       0.2000    0.2000    0.0667
  band No.  band energies     occupation 
      1     -46.6492      2.00000
      2     -46.6246      2.00000
      3     -46.6141      2.00000
      4     -46.6088      2.00000
      5      -2.5256      2.00000
      6       0.7334      0.00000
      7       1.2163      0.00000
      8       2.4219      0.00000
      9       3.4114      0.00000
     10       4.3062      0.00000

 k-point    77 :       0.2667    0.2000    0.0667
  band No.  band energies     occupation 
      1     -46.6471      2.00000
      2     -46.6267      2.00000
      3     -46.6139      2.00000
      4     -46.6089      2.00000
      5      -2.3475      2.00000
      6       0.2982      2.00000
      7       1.2337      0.00000
      8       2.4979      0.00000
      9       3.3851      0.00000
     10       4.2243      0.00000

 k-point    78 :      -0.2000    0.2667    0.0667
  band No.  band energies     occupation 
      1     -46.6471      2.00000
      2     -46.6267      2.00000
      3     -46.6139      2.00000
      4     -46.6089      2.00000
      5      -2.3475      2.00000
      6       0.2983      2.00000
      7       1.2333      0.00000
      8       2.4982      0.00000
      9       3.3853      0.00000
     10       4.2246      0.00000

 k-point    79 :       0.3333    0.2000    0.0667
  band No.  band energies     occupation 
      1     -46.6446      2.00000
      2     -46.6294      2.00000
      3     -46.6133      2.00000
      4     -46.6093      2.00000
      5      -2.1181      2.00000
      6      -0.2115      2.00000
      7       1.4138      0.00000
      8       2.5186      0.00000
      9       3.3468      0.00000
     10       4.0937      0.00000

 k-point    80 :      -0.2000    0.3333    0.0667
  band No.  band energies     occupation 
      1     -46.6446      2.00000
      2     -46.6294      2.00000
      3     -46.6133      2.00000
      4     -46.6093      2.00000
      5      -2.1181      2.00000
      6      -0.2114      2.00000
      7       1.4132      0.00000
      8       2.5189      0.00000
      9       3.3472      0.00000
     10       4.0955      0.00000

 k-point    81 :       0.4000    0.2000    0.0667
  band No.  band energies     occupation 
      1     -46.6418      2.00000
      2     -46.6324      2.00000
      3     -46.6125      2.00000
      4     -46.6099      2.00000
      5      -1.8375      2.00000
      6      -0.6901      2.00000
      7       1.6478      0.00000
      8       2.4071      0.00000
      9       3.3924      0.00000
     10       3.9336      0.00000

 k-point    82 :      -0.2000    0.4000    0.0667
  band No.  band energies     occupation 
      1     -46.6418      2.00000
      2     -46.6324      2.00000
      3     -46.6125      2.00000
      4     -46.6099      2.00000
      5      -1.8375      2.00000
      6      -0.6900      2.00000
      7       1.6470      0.00000
      8       2.4067      0.00000
      9       3.3938      0.00000
     10       3.9368      0.00000

 k-point    83 :       0.4667    0.2000    0.0667
  band No.  band energies     occupation 
      1     -46.6387      2.00000
      2     -46.6355      2.00000
      3     -46.6116      2.00000
      4     -46.6107      2.00000
      5      -1.5055      2.00000
      6      -1.1227      2.00000
      7       1.9115      0.00000
      8       2.1801      0.00000
      9       3.5424      0.00000
     10       3.7400      0.00000

 k-point    84 :      -0.2000    0.4667    0.0667
  band No.  band energies     occupation 
      1     -46.6387      2.00000
      2     -46.6355      2.00000
      3     -46.6116      2.00000
      4     -46.6107      2.00000
      5      -1.5055      2.00000
      6      -1.1226      2.00000
      7       1.9106      0.00000
      8       2.1793      0.00000
      9       3.5450      0.00000
     10       3.7433      0.00000

 k-point    85 :       0.2667    0.2667    0.0667
  band No.  band energies     occupation 
      1     -46.6453      2.00000
      2     -46.6280      2.00000
      3     -46.6141      2.00000
      4     -46.6093      2.00000
      5      -2.1702      2.00000
      6       0.2568      2.00000
      7       0.8708      0.00000
      8       2.4826      0.00000
      9       3.3334      0.00000
     10       4.1553      0.00000

 k-point    86 :       0.3333    0.2667    0.0667
  band No.  band energies     occupation 
      1     -46.6430      2.00000
      2     -46.6298      2.00000
      3     -46.6139      2.00000
      4     -46.6098      2.00000
      5      -1.9423      2.00000
      6      -0.0985      2.00000
      7       0.9112      0.00000
      8       2.3289      0.00000
      9       3.3452      0.00000
     10       4.1027      0.00000

 k-point    87 :      -0.2667    0.3333    0.0667
  band No.  band energies     occupation 
      1     -46.6430      2.00000
      2     -46.6298      2.00000
      3     -46.6139      2.00000
      4     -46.6098      2.00000
      5      -1.9423      2.00000
      6      -0.0984      2.00000
      7       0.9109      0.00000
      8       2.3288      0.00000
      9       3.3457      0.00000
     10       4.1042      0.00000

 k-point    88 :       0.4000    0.2667    0.0667
  band No.  band energies     occupation 
      1     -46.6404      2.00000
      2     -46.6322      2.00000
      3     -46.6133      2.00000
      4     -46.6106      2.00000
      5      -1.6639      2.00000
      6      -0.5405      2.00000
      7       1.1289      0.00000
      8       2.0498      0.00000
      9       3.4688      0.00000
     10       4.0127      0.00000

 k-point    89 :      -0.2667    0.4000    0.0667
  band No.  band energies     occupation 
      1     -46.6404      2.00000
      2     -46.6322      2.00000
      3     -46.6133      2.00000
      4     -46.6106      2.00000
      5      -1.6639      2.00000
      6      -0.5404      2.00000
      7       1.1284      0.00000
      8       2.0494      0.00000
      9       3.4702      0.00000
     10       4.0156      0.00000

 k-point    90 :       0.4667    0.2667    0.0667
  band No.  band energies     occupation 
      1     -46.6377      2.00000
      2     -46.6349      2.00000
      3     -46.6125      2.00000
      4     -46.6115      2.00000
      5      -1.3357      2.00000
      6      -0.9595      2.00000
      7       1.4105      0.00000
      8       1.7266      0.00000
      9       3.6558      0.00000
     10       3.8536      0.00000

 k-point    91 :      -0.2667    0.4667    0.0667
  band No.  band energies     occupation 
      1     -46.6377      2.00000
      2     -46.6349      2.00000
      3     -46.6125      2.00000
      4     -46.6115      2.00000
      5      -1.3357      2.00000
      6      -0.9594      2.00000
      7       1.4099      0.00000
      8       1.7260      0.00000
      9       3.6581      0.00000
     10       3.8567      0.00000

 k-point    92 :       0.3333    0.3333    0.0667
  band No.  band energies     occupation 
      1     -46.6410      2.00000
      2     -46.6308      2.00000
      3     -46.6141      2.00000
      4     -46.6106      2.00000
      5      -1.7167      2.00000
      6      -0.1018      2.00000
      7       0.6112      0.17103
      8       2.0053      0.00000
      9       3.4478      0.00000
     10       4.1495      0.00000

 k-point    93 :       0.4000    0.3333    0.0667
  band No.  band energies     occupation 
      1     -46.6388      2.00000
      2     -46.6323      2.00000
      3     -46.6139      2.00000
      4     -46.6115      2.00000
      5      -1.4424      2.00000
      6      -0.3845      2.00000
      7       0.6824      0.00000
      8       1.6329      0.00000
      9       3.6238      0.00000
     10       4.1411      0.00000

 k-point    94 :      -0.3333    0.4000    0.0667
  band No.  band energies     occupation 
      1     -46.6388      2.00000
      2     -46.6323      2.00000
      3     -46.6139      2.00000
      4     -46.6115      2.00000
      5      -1.4424      2.00000
      6      -0.3844      2.00000
      7       0.6822      0.00000
      8       1.6328      0.00000
      9       3.6246      0.00000
     10       4.1428      0.00000

 k-point    95 :       0.4667    0.3333    0.0667
  band No.  band energies     occupation 
      1     -46.6365      2.00000
      2     -46.6343      2.00000
      3     -46.6133      2.00000
      4     -46.6125      2.00000
      5      -1.1217      2.00000
      6      -0.7612      2.00000
      7       0.9393      0.00000
      8       1.2675      0.00000
      9       3.8313      0.00000
     10       4.0241      0.00000

 k-point    96 :      -0.3333    0.4667    0.0667
  band No.  band energies     occupation 
      1     -46.6365      2.00000
      2     -46.6343      2.00000
      3     -46.6133      2.00000
      4     -46.6125      2.00000
      5      -1.1217      2.00000
      6      -0.7611      2.00000
      7       0.9390      0.00000
      8       1.2672      0.00000
      9       3.8331      0.00000
     10       4.0264      0.00000

 k-point    97 :       0.4000    0.4000    0.0667
  band No.  band energies     occupation 
      1     -46.6370      2.00000
      2     -46.6329      2.00000
      3     -46.6141      2.00000
      4     -46.6124      2.00000
      5      -1.1758      2.00000
      6      -0.3413      2.00000
      7       0.4383      2.00000
      8       1.2197      0.00000
      9       3.8259      0.00000
     10       4.2379      0.00000

 k-point    98 :       0.4667    0.4000    0.0667
  band No.  band energies     occupation 
      1     -46.6354      2.00000
      2     -46.6339      2.00000
      3     -46.6140      2.00000
      4     -46.6133      2.00000
      5      -0.8719      2.00000
      6      -0.5571      2.00000
      7       0.5459      1.99884
      8       0.8446      0.00000
      9       4.0389      0.00000
     10       4.2042      0.00000

 k-point    99 :      -0.4000    0.4667    0.0667
  band No.  band energies     occupation 
      1     -46.6354      2.00000
      2     -46.6339      2.00000
      3     -46.6140      2.00000
      4     -46.6133      2.00000
      5      -0.8719      2.00000
      6      -0.5570      2.00000
      7       0.5458      1.99888
      8       0.8445      0.00000
      9       4.0397      0.00000
     10       4.2053      0.00000

 k-point   100 :       0.4667    0.4667    0.0667
  band No.  band energies     occupation 
      1     -46.6345      2.00000
      2     -46.6339      2.00000
      3     -46.6142      2.00000
      4     -46.6140      2.00000
      5      -0.6147      2.00000
      6      -0.4613      2.00000
      7       0.3520      2.00000
      8       0.5005      2.00000
      9       4.2302      0.00000
     10       4.3056      0.00000

 k-point   101 :       0.1333    0.1333    0.1333
  band No.  band energies     occupation 
      1     -46.6514      2.00000
      2     -46.6221      2.00000
      3     -46.6143      2.00000
      4     -46.6090      2.00000
      5      -2.7038      2.00000
      6       1.3181      0.00000
      7       1.5263      0.00000
      8       1.8674      0.00000
      9       3.5479      0.00000
     10       4.3435      0.00000

 k-point   102 :       0.2000    0.1333    0.1333
  band No.  band energies     occupation 
      1     -46.6498      2.00000
      2     -46.6238      2.00000
      3     -46.6143      2.00000
      4     -46.6088      2.00000
      5      -2.5764      2.00000
      6       0.8492      0.00000
      7       1.5645      0.00000
      8       1.8866      0.00000
      9       3.5717      0.00000
     10       4.4399      0.00000

 k-point   103 :       0.2667    0.1333    0.1333
  band No.  band energies     occupation 
      1     -46.6477      2.00000
      2     -46.6262      2.00000
      3     -46.6139      2.00000
      4     -46.6088      2.00000
      5      -2.3981      2.00000
      6       0.2845      2.00000
      7       1.7211      0.00000
      8       1.9978      0.00000
      9       3.5177      0.00000
     10       4.3688      0.00000

 k-point   104 :       0.3333    0.1333    0.1333
  band No.  band energies     occupation 
      1     -46.6451      2.00000
      2     -46.6291      2.00000
      3     -46.6132      2.00000
      4     -46.6092      2.00000
      5      -2.1684      2.00000
      6      -0.2475      2.00000
      7       1.9124      0.00000
      8       2.1424      0.00000
      9       3.4143      0.00000
     10       4.1372      0.00000

 k-point   105 :       0.4000    0.1333    0.1333
  band No.  band energies     occupation 
      1     -46.6422      2.00000
      2     -46.6323      2.00000
      3     -46.6123      2.00000
      4     -46.6097      2.00000
      5      -1.8871      2.00000
      6      -0.7334      2.00000
      7       2.1116      0.00000
      8       2.2870      0.00000
      9       3.3145      0.00000
     10       3.8142      0.00000

 k-point   106 :       0.4667    0.1333    0.1333
  band No.  band energies     occupation 
      1     -46.6390      2.00000
      2     -46.6357      2.00000
      3     -46.6113      2.00000
      4     -46.6104      2.00000
      5      -1.5541      2.00000
      6      -1.1694      2.00000
      7       2.2803      0.00000
      8       2.3547      0.00000
      9       3.3209      0.00000
     10       3.5079      0.00000

 k-point   107 :       0.2000    0.2000    0.1333
  band No.  band energies     occupation 
      1     -46.6483      2.00000
      2     -46.6250      2.00000
      3     -46.6146      2.00000
      4     -46.6088      2.00000
      5      -2.4495      2.00000
      6       0.7977      0.00000
      7       1.2240      0.00000
      8       1.8773      0.00000
      9       3.5857      0.00000
     10       4.4926      0.00000

 k-point   108 :       0.2667    0.2000    0.1333
  band No.  band energies     occupation 
      1     -46.6463      2.00000
      2     -46.6268      2.00000
      3     -46.6144      2.00000
      4     -46.6091      2.00000
      5      -2.2716      2.00000
      6       0.3643      2.00000
      7       1.2601      0.00000
      8       1.9813      0.00000
      9       3.4923      0.00000
     10       4.3363      0.00000

 k-point   109 :      -0.2000    0.2667    0.1333
  band No.  band energies     occupation 
      1     -46.6463      2.00000
      2     -46.6268      2.00000
      3     -46.6144      2.00000
      4     -46.6091      2.00000
      5      -2.2716      2.00000
      6       0.3644      2.00000
      7       1.2599      0.00000
      8       1.9815      0.00000
      9       3.4922      0.00000
     10       4.3370      0.00000

 k-point   110 :       0.3333    0.2000    0.1333
  band No.  band energies     occupation 
      1     -46.6439      2.00000
      2     -46.6292      2.00000
      3     -46.6139      2.00000
      4     -46.6096      2.00000
      5      -2.0426      2.00000
      6      -0.1426      2.00000
      7       1.4441      0.00000
      8       2.0996      0.00000
      9       3.3319      0.00000
     10       4.0507      0.00000

 k-point   111 :      -0.2000    0.3333    0.1333
  band No.  band energies     occupation 
      1     -46.6439      2.00000
      2     -46.6292      2.00000
      3     -46.6139      2.00000
      4     -46.6096      2.00000
      5      -2.0426      2.00000
      6      -0.1425      2.00000
      7       1.4436      0.00000
      8       2.1000      0.00000
      9       3.3316      0.00000
     10       4.0524      0.00000

 k-point   112 :       0.4000    0.2000    0.1333
  band No.  band energies     occupation 
      1     -46.6411      2.00000
      2     -46.6320      2.00000
      3     -46.6131      2.00000
      4     -46.6103      2.00000
      5      -1.7626      2.00000
      6      -0.6187      2.00000
      7       1.6711      0.00000
      8       2.1684      0.00000
      9       3.2025      0.00000
     10       3.7242      0.00000

 k-point   113 :      -0.2000    0.4000    0.1333
  band No.  band energies     occupation 
      1     -46.6411      2.00000
      2     -46.6320      2.00000
      3     -46.6131      2.00000
      4     -46.6103      2.00000
      5      -1.7626      2.00000
      6      -0.6187      2.00000
      7       1.6705      0.00000
      8       2.1686      0.00000
      9       3.2025      0.00000
     10       3.7262      0.00000

 k-point   114 :       0.4667    0.2000    0.1333
  band No.  band energies     occupation 
      1     -46.6382      2.00000
      2     -46.6351      2.00000
      3     -46.6121      2.00000
      4     -46.6111      2.00000
      5      -1.4314      2.00000
      6      -1.0496      2.00000
      7       1.9078      0.00000
      8       2.1012      0.00000
      9       3.2299      0.00000
     10       3.4288      0.00000

 k-point   115 :      -0.2000    0.4667    0.1333
  band No.  band energies     occupation 
      1     -46.6382      2.00000
      2     -46.6351      2.00000
      3     -46.6121      2.00000
      4     -46.6111      2.00000
      5      -1.4314      2.00000
      6      -1.0496      2.00000
      7       1.9071      0.00000
      8       2.1008      0.00000
      9       3.2308      0.00000
     10       3.4305      0.00000

 k-point   116 :       0.2667    0.2667    0.1333
  band No.  band energies     occupation 
      1     -46.6444      2.00000
      2     -46.6279      2.00000
      3     -46.6147      2.00000
      4     -46.6095      2.00000
      5      -2.0944      2.00000
      6       0.3303      2.00000
      7       0.9068      0.00000
      8       2.0525      0.00000
      9       3.3382      0.00000
     10       4.2317      0.00000

 k-point   117 :       0.3333    0.2667    0.1333
  band No.  band energies     occupation 
      1     -46.6422      2.00000
      2     -46.6296      2.00000
      3     -46.6145      2.00000
      4     -46.6102      2.00000
      5      -1.8669      2.00000
      6      -0.0261      2.00000
      7       0.9542      0.00000
      8       2.0782      0.00000
      9       3.1635      0.00000
     10       4.0627      0.00000

 k-point   118 :      -0.2667    0.3333    0.1333
  band No.  band energies     occupation 
      1     -46.6422      2.00000
      2     -46.6296      2.00000
      3     -46.6145      2.00000
      4     -46.6102      2.00000
      5      -1.8669      2.00000
      6      -0.0261      2.00000
      7       0.9539      0.00000
      8       2.0783      0.00000
      9       3.1635      0.00000
     10       4.0644      0.00000

 k-point   119 :       0.4000    0.2667    0.1333
  band No.  band energies     occupation 
      1     -46.6397      2.00000
      2     -46.6318      2.00000
      3     -46.6139      2.00000
      4     -46.6111      2.00000
      5      -1.5889      2.00000
      6      -0.4679      2.00000
      7       1.1707      0.00000
      8       1.9663      0.00000
      9       3.1325      0.00000
     10       3.8054      0.00000

 k-point   120 :      -0.2667    0.4000    0.1333
  band No.  band energies     occupation 
      1     -46.6397      2.00000
      2     -46.6318      2.00000
      3     -46.6139      2.00000
      4     -46.6111      2.00000
      5      -1.5889      2.00000
      6      -0.4678      2.00000
      7       1.1703      0.00000
      8       1.9661      0.00000
      9       3.1330      0.00000
     10       3.8075      0.00000

 k-point   121 :       0.4667    0.2667    0.1333
  band No.  band energies     occupation 
      1     -46.6371      2.00000
      2     -46.6344      2.00000
      3     -46.6130      2.00000
      4     -46.6120      2.00000
      5      -1.2612      2.00000
      6      -0.8859      2.00000
      7       1.4408      0.00000
      8       1.7248      0.00000
      9       3.2771      0.00000
     10       3.5226      0.00000

 k-point   122 :      -0.2667    0.4667    0.1333
  band No.  band energies     occupation 
      1     -46.6370      2.00000
      2     -46.6344      2.00000
      3     -46.6130      2.00000
      4     -46.6120      2.00000
      5      -1.2612      2.00000
      6      -0.8859      2.00000
      7       1.4403      0.00000
      8       1.7244      0.00000
      9       3.2783      0.00000
     10       3.5244      0.00000

 k-point   123 :       0.3333    0.3333    0.1333
  band No.  band energies     occupation 
      1     -46.6403      2.00000
      2     -46.6304      2.00000
      3     -46.6148      2.00000
      4     -46.6110      2.00000
      5      -1.6414      2.00000
      6      -0.0249      2.00000
      7       0.6563      0.00001
      8       1.9201      0.00000
      9       3.1034      0.00000
     10       4.0856      0.00000

 k-point   124 :       0.4000    0.3333    0.1333
  band No.  band energies     occupation 
      1     -46.6381      2.00000
      2     -46.6318      2.00000
      3     -46.6146      2.00000
      4     -46.6120      2.00000
      5      -1.3673      2.00000
      6      -0.3093      2.00000
      7       0.7306      0.00000
      8       1.6305      0.00000
      9       3.2151      0.00000
     10       3.9548      0.00000

 k-point   125 :      -0.3333    0.4000    0.1333
  band No.  band energies     occupation 
      1     -46.6381      2.00000
      2     -46.6318      2.00000
      3     -46.6146      2.00000
      4     -46.6120      2.00000
      5      -1.3673      2.00000
      6      -0.3092      2.00000
      7       0.7304      0.00000
      8       1.6304      0.00000
      9       3.2155      0.00000
     10       3.9563      0.00000

 k-point   126 :       0.4667    0.3333    0.1333
  band No.  band energies     occupation 
      1     -46.6359      2.00000
      2     -46.6337      2.00000
      3     -46.6139      2.00000
      4     -46.6130      2.00000
      5      -1.0470      2.00000
      6      -0.6866      2.00000
      7       0.9841      0.00000
      8       1.2988      0.00000
      9       3.4332      0.00000
     10       3.7003      0.00000

 k-point   127 :      -0.3333    0.4667    0.1333
  band No.  band energies     occupation 
      1     -46.6359      2.00000
      2     -46.6337      2.00000
      3     -46.6139      2.00000
      4     -46.6130      2.00000
      5      -1.0469      2.00000
      6      -0.6866      2.00000
      7       0.9838      0.00000
      8       1.2986      0.00000
      9       3.4342      0.00000
     10       3.7018      0.00000

 k-point   128 :       0.4000    0.4000    0.1333
  band No.  band energies     occupation 
      1     -46.6364      2.00000
      2     -46.6323      2.00000
      3     -46.6148      2.00000
      4     -46.6130      2.00000
      5      -1.1007      2.00000
      6      -0.2629      2.00000
      7       0.4869      2.00000
      8       1.2511      0.00000
      9       3.4056      0.00000
     10       4.0459      0.00000

 k-point   129 :       0.4667    0.4000    0.1333
  band No.  band energies     occupation 
      1     -46.6347      2.00000
      2     -46.6333      2.00000
      3     -46.6146      2.00000
      4     -46.6140      2.00000
      5      -0.7965      2.00000
      6      -0.4805      2.00000
      7       0.5959      0.77345
      8       0.8903      0.00000
      9       3.6542      0.00000
     10       3.9103      0.00000

 k-point   130 :      -0.4000    0.4667    0.1333
  band No.  band energies     occupation 
      1     -46.6347      2.00000
      2     -46.6333      2.00000
      3     -46.6146      2.00000
      4     -46.6140      2.00000
      5      -0.7965      2.00000
      6      -0.4804      2.00000
      7       0.5958      0.77944
      8       0.8902      0.00000
      9       3.6547      0.00000
     10       3.9112      0.00000

 k-point   131 :       0.4667    0.4667    0.1333
  band No.  band energies     occupation 
      1     -46.6338      2.00000
      2     -46.6333      2.00000
      3     -46.6148      2.00000
      4     -46.6146      2.00000
      5      -0.5377      2.00000
      6      -0.3822      2.00000
      7       0.4019      2.00000
      8       0.5510      1.99612
      9       3.8970      0.00000
     10       4.0358      0.00000

 k-point   132 :       0.2000    0.2000    0.2000
  band No.  band energies     occupation 
      1     -46.6469      2.00000
      2     -46.6257      2.00000
      3     -46.6150      2.00000
      4     -46.6090      2.00000
      5      -2.3228      2.00000
      6       0.8198      0.00000
      7       1.1224      0.00000
      8       1.5744      0.00000
      9       3.6104      0.00000
     10       4.5151      0.00000

 k-point   133 :       0.2667    0.2000    0.2000
  band No.  band energies     occupation 
      1     -46.6450      2.00000
      2     -46.6271      2.00000
      3     -46.6151      2.00000
      4     -46.6094      2.00000
      5      -2.1453      2.00000
      6       0.4550      2.00000
      7       1.1826      0.00000
      8       1.6051      0.00000
      9       3.5118      0.00000
     10       4.2726      0.00000

 k-point   134 :       0.3333    0.2000    0.2000
  band No.  band energies     occupation 
      1     -46.6427      2.00000
      2     -46.6291      2.00000
      3     -46.6147      2.00000
      4     -46.6101      2.00000
      5      -1.9170      2.00000
      6      -0.0345      2.00000
      7       1.3792      0.00000
      8       1.7237      0.00000
      9       3.3234      0.00000
     10       3.8547      0.00000

 k-point   135 :       0.4000    0.2000    0.2000
  band No.  band energies     occupation 
      1     -46.6401      2.00000
      2     -46.6316      2.00000
      3     -46.6139      2.00000
      4     -46.6109      2.00000
      5      -1.6379      2.00000
      6      -0.5027      2.00000
      7       1.6061      0.00000
      8       1.8487      0.00000
      9       3.1265      0.00000
     10       3.4491      0.00000

 k-point   136 :       0.4667    0.2000    0.2000
  band No.  band energies     occupation 
      1     -46.6373      2.00000
      2     -46.6344      2.00000
      3     -46.6129      2.00000
      4     -46.6119      2.00000
      5      -1.3084      2.00000
      6      -0.9293      2.00000
      7       1.8090      0.00000
      8       1.9029      0.00000
      9       3.0329      0.00000
     10       3.1471      0.00000

 k-point   137 :       0.2667    0.2667    0.2000
  band No.  band energies     occupation 
      1     -46.6432      2.00000
      2     -46.6279      2.00000
      3     -46.6154      2.00000
      4     -46.6100      2.00000
      5      -1.9685      2.00000
      6       0.4407      2.00000
      7       0.9335      0.00000
      8       1.5982      0.00000
      9       3.3885      0.00000
     10       4.1162      0.00000

 k-point   138 :       0.3333    0.2667    0.2000
  band No.  band energies     occupation 
      1     -46.6411      2.00000
      2     -46.6293      2.00000
      3     -46.6153      2.00000
      4     -46.6108      2.00000
      5      -1.7414      2.00000
      6       0.0884      2.00000
      7       1.0037      0.00000
      8       1.6908      0.00000
      9       3.1532      0.00000
     10       3.8022      0.00000

 k-point   139 :      -0.2667    0.3333    0.2000
  band No.  band energies     occupation 
      1     -46.6411      2.00000
      2     -46.6293      2.00000
      3     -46.6153      2.00000
      4     -46.6108      2.00000
      5      -1.7414      2.00000
      6       0.0884      2.00000
      7       1.0035      0.00000
      8       1.6909      0.00000
      9       3.1529      0.00000
     10       3.8031      0.00000

 k-point   140 :       0.4000    0.2667    0.2000
  band No.  band energies     occupation 
      1     -46.6387      2.00000
      2     -46.6312      2.00000
      3     -46.6148      2.00000
      4     -46.6118      2.00000
      5      -1.4642      2.00000
      6      -0.3498      2.00000
      7       1.2190      0.00000
      8       1.7445      0.00000
      9       2.9583      0.00000
     10       3.4381      0.00000

 k-point   141 :      -0.2667    0.4000    0.2000
  band No.  band energies     occupation 
      1     -46.6387      2.00000
      2     -46.6312      2.00000
      3     -46.6148      2.00000
      4     -46.6118      2.00000
      5      -1.4642      2.00000
      6      -0.3497      2.00000
      7       1.2188      0.00000
      8       1.7446      0.00000
      9       2.9581      0.00000
     10       3.4391      0.00000

 k-point   142 :       0.4667    0.2667    0.2000
  band No.  band energies     occupation 
      1     -46.6361      2.00000
      2     -46.6336      2.00000
      3     -46.6139      2.00000
      4     -46.6129      2.00000
      5      -1.1380      2.00000
      6      -0.7647      2.00000
      7       1.4620      0.00000
      8       1.6660      0.00000
      9       2.9453      0.00000
     10       3.1306      0.00000

 k-point   143 :      -0.2667    0.4667    0.2000
  band No.  band energies     occupation 
      1     -46.6361      2.00000
      2     -46.6336      2.00000
      3     -46.6139      2.00000
      4     -46.6129      2.00000
      5      -1.1380      2.00000
      6      -0.7647      2.00000
      7       1.4618      0.00000
      8       1.6658      0.00000
      9       2.9457      0.00000
     10       3.1314      0.00000

 k-point   144 :       0.3333    0.3333    0.2000
  band No.  band energies     occupation 
      1     -46.6392      2.00000
      2     -46.6299      2.00000
      3     -46.6157      2.00000
      4     -46.6118      2.00000
      5      -1.5163      2.00000
      6       0.0988      2.00000
      7       0.7212      0.00000
      8       1.6936      0.00000
      9       2.9321      0.00000
     10       3.8244      0.00000

 k-point   145 :       0.4000    0.3333    0.2000
  band No.  band energies     occupation 
      1     -46.6371      2.00000
      2     -46.6311      2.00000
      3     -46.6155      2.00000
      4     -46.6128      2.00000
      5      -1.2428      2.00000
      6      -0.1868      2.00000
      7       0.8024      0.00000
      8       1.5716      0.00000
      9       2.8772      0.00000
     10       3.5962      0.00000

 k-point   146 :      -0.3333    0.4000    0.2000
  band No.  band energies     occupation 
      1     -46.6371      2.00000
      2     -46.6311      2.00000
      3     -46.6155      2.00000
      4     -46.6128      2.00000
      5      -1.2428      2.00000
      6      -0.1868      2.00000
      7       0.8023      0.00000
      8       1.5715      0.00000
      9       2.8773      0.00000
     10       3.5971      0.00000

 k-point   147 :       0.4667    0.3333    0.2000
  band No.  band energies     occupation 
      1     -46.6349      2.00000
      2     -46.6328      2.00000
      3     -46.6149      2.00000
      4     -46.6139      2.00000
      5      -0.9233      2.00000
      6      -0.5641      2.00000
      7       1.0468      0.00000
      8       1.3271      0.00000
      9       3.0186      0.00000
     10       3.2811      0.00000

 k-point   148 :      -0.3333    0.4667    0.2000
  band No.  band energies     occupation 
      1     -46.6349      2.00000
      2     -46.6328      2.00000
      3     -46.6149      2.00000
      4     -46.6139      2.00000
      5      -0.9233      2.00000
      6      -0.5641      2.00000
      7       1.0466      0.00000
      8       1.3269      0.00000
      9       3.0190      0.00000
     10       3.2819      0.00000

 k-point   149 :       0.4000    0.4000    0.2000
  band No.  band energies     occupation 
      1     -46.6353      2.00000
      2     -46.6314      2.00000
      3     -46.6158      2.00000
      4     -46.6139      2.00000
      5      -0.9763      2.00000
      6      -0.1348      2.00000
      7       0.5630      1.95858
      8       1.2802      0.00000
      9       2.9843      0.00000
     10       3.7158      0.00000

 k-point   150 :       0.4667    0.4000    0.2000
  band No.  band energies     occupation 
      1     -46.6337      2.00000
      2     -46.6323      2.00000
      3     -46.6156      2.00000
      4     -46.6149      2.00000
      5      -0.6722      2.00000
      6      -0.3548      2.00000
      7       0.6736      0.00000
      8       0.9560      0.00000
      9       3.2136      0.00000
     10       3.5038      0.00000

 k-point   151 :      -0.4000    0.4667    0.2000
  band No.  band energies     occupation 
      1     -46.6337      2.00000
      2     -46.6323      2.00000
      3     -46.6156      2.00000
      4     -46.6149      2.00000
      5      -0.6722      2.00000
      6      -0.3548      2.00000
      7       0.6736      0.00000
      8       0.9559      0.00000
      9       3.2139      0.00000
     10       3.5043      0.00000

 k-point   152 :       0.4667    0.4667    0.2000
  band No.  band energies     occupation 
      1     -46.6327      2.00000
      2     -46.6322      2.00000
      3     -46.6159      2.00000
      4     -46.6157      2.00000
      5      -0.4112      2.00000
      6      -0.2525      2.00000
      7       0.4814      2.00000
      8       0.6301      0.00691
      9       3.4748      0.00000
     10       3.6723      0.00000

 k-point   153 :       0.2667    0.2667    0.2667
  band No.  band energies     occupation 
      1     -46.6416      2.00000
      2     -46.6283      2.00000
      3     -46.6160      2.00000
      4     -46.6108      2.00000
      5      -1.7923      2.00000
      6       0.5020      2.00000
      7       0.8656      0.00000
      8       1.3629      0.00000
      9       3.3668      0.00000
     10       4.0042      0.00000

 k-point   154 :       0.3333    0.2667    0.2667
  band No.  band energies     occupation 
      1     -46.6396      2.00000
      2     -46.6291      2.00000
      3     -46.6162      2.00000
      4     -46.6117      2.00000
      5      -1.5662      2.00000
      6       0.2236      2.00000
      7       0.9514      0.00000
      8       1.3976      0.00000
      9       3.1724      0.00000
     10       3.5282      0.00000

 k-point   155 :       0.4000    0.2667    0.2667
  band No.  band energies     occupation 
      1     -46.6373      2.00000
      2     -46.6306      2.00000
      3     -46.6158      2.00000
      4     -46.6128      2.00000
      5      -1.2907      2.00000
      6      -0.1934      2.00000
      7       1.1687      0.00000
      8       1.4861      0.00000
      9       2.9286      0.00000
     10       3.1166      0.00000

 k-point   156 :       0.4667    0.2667    0.2667
  band No.  band energies     occupation 
      1     -46.6350      2.00000
      2     -46.6327      2.00000
      3     -46.6150      2.00000
      4     -46.6139      2.00000
      5      -0.9674      2.00000
      6      -0.5991      2.00000
      7       1.3844      0.00000
      8       1.5061      0.00000
      9       2.7836      0.00000
     10       2.8479      0.00000

 k-point   157 :       0.3333    0.3333    0.2667
  band No.  band energies     occupation 
      1     -46.6377      2.00000
      2     -46.6294      2.00000
      3     -46.6167      2.00000
      4     -46.6127      2.00000
      5      -1.3418      2.00000
      6       0.2552      2.00000
      7       0.7729      0.00000
      8       1.3803      0.00000
      9       2.9560      0.00000
     10       3.5229      0.00000

 k-point   158 :       0.4000    0.3333    0.2667
  band No.  band energies     occupation 
      1     -46.6357      2.00000
      2     -46.6302      2.00000
      3     -46.6167      2.00000
      4     -46.6139      2.00000
      5      -1.0697      2.00000
      6      -0.0241      2.00000
      7       0.8729      0.00000
      8       1.3986      0.00000
      9       2.7355      0.00000
     10       3.1890      0.00000

 k-point   159 :      -0.3333    0.4000    0.2667
  band No.  band energies     occupation 
      1     -46.6357      2.00000
      2     -46.6302      2.00000
      3     -46.6167      2.00000
      4     -46.6139      2.00000
      5      -1.0697      2.00000
      6      -0.0241      2.00000
      7       0.8728      0.00000
      8       1.3986      0.00000
      9       2.7354      0.00000
     10       3.1893      0.00000

 k-point   160 :       0.4667    0.3333    0.2667
  band No.  band energies     occupation 
      1     -46.6336      2.00000
      2     -46.6317      2.00000
      3     -46.6161      2.00000
      4     -46.6151      2.00000
      5      -0.7526      2.00000
      6      -0.3969      2.00000
      7       1.0973      0.00000
      8       1.3029      0.00000
      9       2.7083      0.00000
     10       2.8847      0.00000

 k-point   161 :      -0.3333    0.4667    0.2667
  band No.  band energies     occupation 
      1     -46.6336      2.00000
      2     -46.6317      2.00000
      3     -46.6161      2.00000
      4     -46.6151      2.00000
      5      -0.7526      2.00000
      6      -0.3969      2.00000
      7       1.0972      0.00000
      8       1.3029      0.00000
      9       2.7084      0.00000
     10       2.8850      0.00000

 k-point   162 :       0.4000    0.4000    0.2667
  band No.  band energies     occupation 
      1     -46.6340      2.00000
      2     -46.6303      2.00000
      3     -46.6171      2.00000
      4     -46.6151      2.00000
      5      -0.8041      2.00000
      6       0.0373      2.00000
      7       0.6543      0.00001
      8       1.2586      0.00000
      9       2.6730      0.00000
     10       3.3392      0.00000

 k-point   163 :       0.4667    0.4000    0.2667
  band No.  band energies     occupation 
      1     -46.6323      2.00000
      2     -46.6311      2.00000
      3     -46.6170      2.00000
      4     -46.6162      2.00000
      5      -0.5011      2.00000
      6      -0.1840      2.00000
      7       0.7663      0.00000
      8       1.0183      0.00000
      9       2.8111      0.00000
     10       3.0778      0.00000

 k-point   164 :      -0.4000    0.4667    0.2667
  band No.  band energies     occupation 
      1     -46.6323      2.00000
      2     -46.6311      2.00000
      3     -46.6170      2.00000
      4     -46.6162      2.00000
      5      -0.5011      2.00000
      6      -0.1840      2.00000
      7       0.7662      0.00000
      8       1.0182      0.00000
      9       2.8113      0.00000
     10       3.0783      0.00000

 k-point   165 :       0.4667    0.4667    0.2667
  band No.  band energies     occupation 
      1     -46.6313      2.00000
      2     -46.6309      2.00000
      3     -46.6173      2.00000
      4     -46.6170      2.00000
      5      -0.2383      2.00000
      6      -0.0761      2.00000
      7       0.5822      1.50333
      8       0.7265      0.00000
      9       3.0435      0.00000
     10       3.2967      0.00000

 k-point   166 :       0.3333    0.3333    0.3333
  band No.  band energies     occupation 
      1     -46.6360      2.00000
      2     -46.6291      2.00000
      3     -46.6174      2.00000
      4     -46.6139      2.00000
      5      -1.1190      2.00000
      6       0.3603      2.00000
      7       0.7428      0.00000
      8       1.2048      0.00000
      9       3.0108      0.00000
     10       3.2756      0.00000

 k-point   167 :       0.4000    0.3333    0.3333
  band No.  band energies     occupation 
      1     -46.6341      2.00000
      2     -46.6295      2.00000
      3     -46.6178      2.00000
      4     -46.6152      2.00000
      5      -0.8499      2.00000
      6       0.1561      2.00000
      7       0.8482      0.00000
      8       1.2116      0.00000
      9       2.7608      0.00000
     10       2.8588      0.00000

 k-point   168 :       0.4667    0.3333    0.3333
  band No.  band energies     occupation 
      1     -46.6322      2.00000
      2     -46.6306      2.00000
      3     -46.6174      2.00000
      4     -46.6164      2.00000
      5      -0.5381      2.00000
      6      -0.1929      2.00000
      7       1.0517      0.00000
      8       1.1916      0.00000
      9       2.5855      0.00000
     10       2.6251      0.00000

 k-point   169 :       0.4000    0.4000    0.3333
  band No.  band energies     occupation 
      1     -46.6324      2.00000
      2     -46.6292      2.00000
      3     -46.6185      2.00000
      4     -46.6165      2.00000
      5      -0.5866      2.00000
      6       0.2372      2.00000
      7       0.7265      0.00000
      8       1.1462      0.00000
      9       2.5680      0.00000
     10       2.9888      0.00000

 k-point   170 :       0.4667    0.4000    0.3333
  band No.  band energies     occupation 
      1     -46.6308      2.00000
      2     -46.6296      2.00000
      3     -46.6185      2.00000
      4     -46.6177      2.00000
      5      -0.2877      2.00000
      6       0.0235      2.00000
      7       0.8419      0.00000
      8       1.0321      0.00000
      9       2.5340      0.00000
     10       2.7055      0.00000

 k-point   171 :      -0.4000    0.4667    0.3333
  band No.  band energies     occupation 
      1     -46.6308      2.00000
      2     -46.6296      2.00000
      3     -46.6185      2.00000
      4     -46.6177      2.00000
      5      -0.2877      2.00000
      6       0.0235      2.00000
      7       0.8419      0.00000
      8       1.0321      0.00000
      9       2.5340      0.00000
     10       2.7068      0.00000

 k-point   172 :       0.4667    0.4667    0.3333
  band No.  band energies     occupation 
      1     -46.6297      2.00000
      2     -46.6292      2.00000
      3     -46.6190      2.00000
      4     -46.6187      2.00000
      5      -0.0256      2.00000
      6       0.1384      2.00000
      7       0.6859      0.00000
      8       0.8155      0.00000
      9       2.6784      0.00000
     10       2.9219      0.00000

 k-point   173 :       0.4000    0.4000    0.4000
  band No.  band energies     occupation 
      1     -46.6307      2.00000
      2     -46.6283      2.00000
      3     -46.6196      2.00000
      4     -46.6180      2.00000
      5      -0.3287      2.00000
      6       0.3852      2.00000
      7       0.7238      0.00000
      8       1.0389      0.00000
      9       2.6416      0.00000
     10       2.6859      0.00000

 k-point   174 :       0.4667    0.4000    0.4000
  band No.  band energies     occupation 
      1     -46.6292      2.00000
      2     -46.6282      2.00000
      3     -46.6199      2.00000
      4     -46.6193      2.00000
      5      -0.0412      2.00000
      6       0.2442      2.00000
      7       0.8286      0.00000
      8       0.9686      0.00000
      9       2.4513      0.00000
     10       2.4901      0.00000

 k-point   175 :       0.4667    0.4667    0.4000
  band No.  band energies     occupation 
      1     -46.6278      2.00000
      2     -46.6274      2.00000
      3     -46.6208      2.00000
      4     -46.6205      2.00000
      5       0.2139      2.00000
      6       0.3713      2.00000
      7       0.7513      0.00000
      8       0.8527      0.00000
      9       2.4339      0.00000
     10       2.5915      0.00000

 k-point   176 :       0.4667    0.4667    0.4667
  band No.  band energies     occupation 
      1     -46.6261      2.00000
      2     -46.6258      2.00000
      3     -46.6224      2.00000
      4     -46.6222      2.00000
      5       0.4487      2.00000
      6       0.5529      1.99417
      7       0.7348      0.00000
      8       0.8051      0.00000
      9       2.3828      0.00000
     10       2.4252      0.00000


--------------------------------------------------------------------------------------------------------


 soft charge-density along one line, spin component            1
         0         1         2         3         4         5         6         7         8         9
 total charge-density along one line
 
 pseudopotential strength for first ion, spin component:            1
-41.216   2.747   0.000   0.000  -0.000
  2.747  -9.091   0.000   0.000  -0.000
  0.000   0.000   0.129   0.000  -0.000
  0.000   0.000   0.000   0.129  -0.000
 -0.000  -0.000  -0.000  -0.000   0.129
 total augmentation occupancy for first ion, spin component:            1
  2.000   0.004   0.000   0.000  -0.000
  0.004   0.934  -0.000  -0.000   0.000
  0.000  -0.000   0.020  -0.001   0.001
  0.000  -0.000  -0.001   0.020   0.001
 -0.000   0.000   0.001   0.001   0.020


------------------------ aborting loop because EDIFF is reached ----------------------------------------


    CHARGE:  cpu time      0.1822: real time      0.1826
    FORLOC:  cpu time      0.0008: real time      0.0008
    FORNL :  cpu time      0.3855: real time      0.3862
    STRESS:  cpu time      3.5399: real time      3.5474
    FORHAR:  cpu time      0.0014: real time      0.0014
    MIXING:  cpu time      0.0041: real time      0.0041
    OFIELD:  cpu time      0.0000: real time      0.0000

  FORCE on cell =-STRESS in cart. coord.  units (eV):
  Direction    XX          YY          ZZ          XY          YZ          ZX
  --------------------------------------------------------------------------------------
  Alpha Z     4.17941     4.17941     4.17941
  Ewald     -85.99548   -85.99548   -85.99548    -0.00000    -0.00000    -0.00000
  Hartree    57.72023    57.72023    57.72023    -0.00000    -0.00000    -0.00000
  E(xc)     -52.95124   -52.95124   -52.95124    -0.00000    -0.00000    -0.00000
  Local     -85.22749   -85.22749   -85.22749     0.00000    -0.00000     0.00000
  n-local   -75.37869   -75.67084   -76.83291    -0.02795     0.17680    -0.04298
  augment    68.80954    68.80954    68.80954    -0.00000     0.00000    -0.00000
  Kinetic   172.35452   170.98176   164.66025    -0.64231     0.67427    -0.50902
  Fock        0.00000     0.00000     0.00000     0.00000     0.00000     0.00000
  -------------------------------------------------------------------------------------
  Total      -0.09367    -0.09367    -0.09367     0.00000     0.00000     0.00000
  in kB      -1.70288    -1.70288    -1.70288     0.00000     0.00000     0.00000
  external pressure =       -1.70 kB  Pullay stress =        0.00 kB


 VOLUME and BASIS-vectors are now :
 -----------------------------------------------------------------------------
  energy-cutoff  :      600.00
  volume of cell :       88.13
      direct lattice vectors                 reciprocal lattice vectors
     4.450095118 -0.000000000  0.000000000     0.224714298 -0.000000000  0.000000000
     0.000000000  4.450095118  0.000000000     0.000000000  0.224714298 -0.000000000
     0.000000000  0.000000000  4.450095118    -0.000000000 -0.000000000  0.224714298

  length of vectors
     4.450095118  4.450095118  4.450095118     0.224714298  0.224714298  0.224714298


 FORCES acting on ions
    electron-ion (+dipol)            ewald-force                    non-local-force                 convergence-correction
 -----------------------------------------------------------------------------------------------
   0.224E-01 -.224E-01 -.224E-01   -.250E-01 0.250E-01 0.250E-01   0.144E-02 -.144E-02 -.144E-02   -.842E-03 0.842E-03 0.842E-03
   0.224E-01 0.224E-01 0.224E-01   -.250E-01 -.250E-01 -.250E-01   0.144E-02 0.144E-02 0.144E-02   -.842E-03 -.842E-03 -.842E-03
   -.224E-01 -.224E-01 0.224E-01   0.250E-01 0.250E-01 -.250E-01   -.144E-02 -.144E-02 0.144E-02   0.842E-03 0.842E-03 -.842E-03
   -.224E-01 0.224E-01 -.224E-01   0.250E-01 -.250E-01 0.250E-01   -.144E-02 0.144E-02 -.144E-02   0.842E-03 -.842E-03 0.842E-03
 -----------------------------------------------------------------------------------------------
   -.572E-08 -.744E-08 0.837E-10   0.128E-15 0.104E-16 -.347E-16   -.651E-18 0.434E-18 -.434E-18   -.527E-13 0.346E-13 -.169E-11
 
 
 POSITION                                       TOTAL-FORCE (eV/Angst)
 -----------------------------------------------------------------------------------
      3.89178      0.55831      2.78336        -0.001992      0.001992      0.001992
      1.66674      1.66674      1.66674        -0.001992     -0.001992     -0.001992
      0.55831      2.78336      3.89178         0.001992      0.001992     -0.001992
      2.78336      3.89178      0.55831         0.001992     -0.001992      0.001992
 -----------------------------------------------------------------------------------
    total drift:                               -0.000000     -0.000000      0.000000


--------------------------------------------------------------------------------------------------------



  FREE ENERGIE OF THE ION-ELECTRON SYSTEM (eV)
  ---------------------------------------------------
  free  energy   TOTEN  =        -6.57476523 eV

  energy  without entropy=       -6.57446237  energy(sigma->0) =       -6.57461380
 d Force = 0.3560618E-05[ 0.305E-05, 0.407E-05]  d Energy = 0.6756498E-04-0.640E-04
 d Force = 0.3709631E-04[ 0.383E-04, 0.359E-04]  d Ewald  = 0.2516974E+00-0.252E+00
 


--------------------------------------------------------------------------------------------------------


    POTLOK:  cpu time      0.0090: real time      0.0090


--------------------------------------------------------------------------------------------------------


 Quasi-Newton relaxation of ions (Broydens 2nd method)
  g(Force)  = 0.230E-05   g(Stress)= 0.317E-03

 retain information from N=  1 steps
 eigenvalues of (default step * inverse Hessian matrix)
  average eigenvalue of G=   6.3672
 eigenvalue spectrum of G is  6.3672


--------------------------------------------------------------------------------------------------------


      MLFF:  cpu time      0.0102: real time      0.0103
    WAVPRE:  cpu time      0.0245: real time      0.0246
    FEWALD:  cpu time      0.0013: real time      0.0013
    GENKIN:  cpu time      0.0426: real time      0.0426
    ORTHCH:  cpu time      0.2054: real time      0.2059
     LOOP+:  cpu time      8.3422: real time      8.3635


--------------------------------------- Ionic step        3  -------------------------------------------




--------------------------------------- Iteration      3(   1)  ---------------------------------------


    POTLOK:  cpu time      0.0048: real time      0.0049
    SETDIJ:  cpu time      0.0024: real time      0.0024
     EDDAV:  cpu time      2.3755: real time      2.3824
       DOS:  cpu time      0.0006: real time      0.0006
    CHARGE:  cpu time      0.1688: real time      0.1691
    MIXING:  cpu time      0.0040: real time      0.0040
    --------------------------------------------
      LOOP:  cpu time      2.5562: real time      2.5635

 eigenvalue-minimisations  :  6096
 total energy-change (2. order) :-0.3482775E-02  (-0.1594459E-01)
 number of electron      12.0000037 magnetization 
 augmentation part        3.6866891 magnetization 

 Broyden mixing:
  rms(total) = 0.86498E-01    rms(broyden)= 0.86215E-01
  rms(prec ) = 0.11451E+00
  weight for this iteration     100.00

 Free energy of the ion-electron system (eV)
  ---------------------------------------------------
  alpha Z        PSCENC =         4.09167313
  Ewald energy   TEWEN  =      -256.16803009
  -Hartree energ DENC   =      -171.80949686
  -exchange      EXHF   =         0.00000000
  -V(xc)+E(xc)   XCENC  =        47.74741793
  PAW double counting   =       323.56610634     -385.42235313
  entropy T*S    EENTRO =        -0.00035355
  eigenvalues    EBANDS =      -379.68621737
  atomic energy  EATOM  =       811.10301397
  Solvation  Ediel_sol  =         0.00000000
  ---------------------------------------------------
  free energy    TOTEN  =        -6.57823962 eV

  energy without entropy =       -6.57788607  energy(sigma->0) =       -6.57806284


--------------------------------------------------------------------------------------------------------




--------------------------------------- Iteration      3(   2)  ---------------------------------------


    POTLOK:  cpu time      0.0051: real time      0.0051
    SETDIJ:  cpu time      0.0024: real time      0.0024
     EDDAV:  cpu time      1.7873: real time      1.7926
       DOS:  cpu time      0.0006: real time      0.0006
    CHARGE:  cpu time      0.1681: real time      0.1685
    MIXING:  cpu time      0.0040: real time      0.0041
    --------------------------------------------
      LOOP:  cpu time      1.9675: real time      1.9733

 eigenvalue-minimisations  :  4044
 total energy-change (2. order) : 0.2628100E-02  (-0.1928080E-02)
 number of electron      12.0000037 magnetization 
 augmentation part        3.6774071 magnetization 

 Broyden mixing:
  rms(total) = 0.55802E-01    rms(broyden)= 0.55771E-01
  rms(prec ) = 0.74330E-01
  weight for this iteration     100.00

 eigenvalues of (default mixing * dielectric matrix)
  average eigenvalue GAMMA=   2.8273
  2.8273

 Free energy of the ion-electron system (eV)
  ---------------------------------------------------
  alpha Z        PSCENC =         4.09167313
  Ewald energy   TEWEN  =      -256.16803009
  -Hartree energ DENC   =      -172.69559027
  -exchange      EXHF   =         0.00000000
  -V(xc)+E(xc)   XCENC  =        47.86604126
  PAW double counting   =       323.61064771     -385.48469699
  entropy T*S    EENTRO =        -0.00034687
  eigenvalues    EBANDS =      -378.89832338
  atomic energy  EATOM  =       811.10301397
  Solvation  Ediel_sol  =         0.00000000
  ---------------------------------------------------
  free energy    TOTEN  =        -6.57561152 eV

  energy without entropy =       -6.57526465  energy(sigma->0) =       -6.57543808


--------------------------------------------------------------------------------------------------------




--------------------------------------- Iteration      3(   3)  ---------------------------------------


    POTLOK:  cpu time      0.0050: real time      0.0050
    SETDIJ:  cpu time      0.0024: real time      0.0024
     EDDAV:  cpu time      2.4517: real time      2.4588
       DOS:  cpu time      0.0007: real time      0.0007
    CHARGE:  cpu time      0.1678: real time      0.1681
    MIXING:  cpu time      0.0041: real time      0.0041
    --------------------------------------------
      LOOP:  cpu time      2.6316: real time      2.6390

 eigenvalue-minimisations  :  6326
 total energy-change (2. order) : 0.2253102E-02  (-0.6457126E-03)
 number of electron      12.0000037 magnetization 
 augmentation part        3.6947673 magnetization 

 Broyden mixing:
  rms(total) = 0.14533E-01    rms(broyden)= 0.14503E-01
  rms(prec ) = 0.18965E-01
  weight for this iteration     100.00

 eigenvalues of (default mixing * dielectric matrix)
  average eigenvalue GAMMA=   1.5795
  0.7152  2.4438

 Free energy of the ion-electron system (eV)
  ---------------------------------------------------
  alpha Z        PSCENC =         4.09167313
  Ewald energy   TEWEN  =      -256.16803009
  -Hartree energ DENC   =      -174.37035472
  -exchange      EXHF   =         0.00000000
  -V(xc)+E(xc)   XCENC  =        48.08493147
  PAW double counting   =       324.20069853     -386.11232681
  entropy T*S    EENTRO =        -0.00033264
  eigenvalues    EBANDS =      -377.40263125
  atomic energy  EATOM  =       811.10301397
  Solvation  Ediel_sol  =         0.00000000
  ---------------------------------------------------
  free energy    TOTEN  =        -6.57335842 eV

  energy without entropy =       -6.57302577  energy(sigma->0) =       -6.57319209


--------------------------------------------------------------------------------------------------------




--------------------------------------- Iteration      3(   4)  ---------------------------------------


    POTLOK:  cpu time      0.0050: real time      0.0050
    SETDIJ:  cpu time      0.0024: real time      0.0024
     EDDAV:  cpu time      1.7629: real time      1.7682
       DOS:  cpu time      0.0006: real time      0.0006
    --------------------------------------------
      LOOP:  cpu time      1.7709: real time      1.7762

 eigenvalue-minimisations  :  3964
 total energy-change (2. order) : 0.6707387E-04  (-0.7651727E-04)
 number of electron      12.0000037 magnetization 
 augmentation part        3.6947673 magnetization 

 Free energy of the ion-electron system (eV)
  ---------------------------------------------------
  alpha Z        PSCENC =         4.09167313
  Ewald energy   TEWEN  =      -256.16803009
  -Hartree energ DENC   =      -174.05683481
  -exchange      EXHF   =         0.00000000
  -V(xc)+E(xc)   XCENC  =        48.04395380
  PAW double counting   =       323.70155731     -385.59718618
  entropy T*S    EENTRO =        -0.00033514
  eigenvalues    EBANDS =      -377.69110333
  atomic energy  EATOM  =       811.10301397
  Solvation  Ediel_sol  =         0.00000000
  ---------------------------------------------------
  free energy    TOTEN  =        -6.57329134 eV

  energy without entropy =       -6.57295620  energy(sigma->0) =       -6.57312377


--------------------------------------------------------------------------------------------------------




 average (electrostatic) potential at core
  the test charge radii are     0.7079
  (the norm of the test charge is              1.0000)
       1 -65.8270       2 -65.8270       3 -65.8270       4 -65.8270
 
 
 
 E-fermi :   0.5161     XC(G=0):  -6.7847     alpha+bet : -6.6468

 val. band max:        0.5156143296   @ k =   0.3333   0.3333   0.0000
 cond. band min:       0.5204725747   @ k =  -0.4000   0.4667   0.1333
 fundamental gap:      0.0048582451
 Fermi energy:         0.5161466366

 k-point     1 :       0.0000    0.0000    0.0000
  band No.  band energies     occupation 
      1     -46.7505      2.00000
      2     -46.7119      2.00000
      3     -46.7119      2.00000
      4     -46.7119      2.00000
      5      -3.0394      2.00000
      6       2.5896      0.00000
      7       2.5896      0.00000
      8       2.5897      0.00000
      9       2.7969      0.00000
     10       2.7969      0.00000

 k-point     2 :       0.0667    0.0000    0.0000
  band No.  band energies     occupation 
      1     -46.7502      2.00000
      2     -46.7141      2.00000
      3     -46.7118      2.00000
      4     -46.7102      2.00000
      5      -3.0142      2.00000
      6       1.9833      0.00000
      7       2.5989      0.00000
      8       2.6114      0.00000
      9       2.7459      0.00000
     10       2.8260      0.00000

 k-point     3 :       0.1333    0.0000    0.0000
  band No.  band energies     occupation 
      1     -46.7492      2.00000
      2     -46.7167      2.00000
      3     -46.7115      2.00000
      4     -46.7088      2.00000
      5      -2.9384      2.00000
      6       1.2986      0.00000
      7       2.6137      0.00000
      8       2.6258      0.00000
      9       2.8526      0.00000
     10       2.9127      0.00000

 k-point     4 :       0.2000    0.0000    0.0000
  band No.  band energies     occupation 
      1     -46.7476      2.00000
      2     -46.7196      2.00000
      3     -46.7111      2.00000
      4     -46.7079      2.00000
      5      -2.8118      2.00000
      6       0.6560      0.00000
      7       2.6402      0.00000
      8       2.6666      0.00000
      9       3.0032      0.00000
     10       3.0544      0.00000

 k-point     5 :       0.2667    0.0000    0.0000
  band No.  band energies     occupation 
      1     -46.7454      2.00000
      2     -46.7228      2.00000
      3     -46.7105      2.00000
      4     -46.7074      2.00000
      5      -2.6342      2.00000
      6       0.0622      2.00000
      7       2.6850      0.00000
      8       2.7156      0.00000
      9       3.1914      0.00000
     10       3.2455      0.00000

 k-point     6 :       0.3333    0.0000    0.0000
  band No.  band energies     occupation 
      1     -46.7429      2.00000
      2     -46.7262      2.00000
      3     -46.7098      2.00000
      4     -46.7073      2.00000
      5      -2.4054      2.00000
      6      -0.4803      2.00000
      7       2.7376      0.00000
      8       2.7645      0.00000
      9       3.4088      0.00000
     10       3.4725      0.00000

 k-point     7 :       0.4000    0.0000    0.0000
  band No.  band energies     occupation 
      1     -46.7399      2.00000
      2     -46.7297      2.00000
      3     -46.7090      2.00000
      4     -46.7074      2.00000
      5      -2.1250      2.00000
      6      -0.9704      2.00000
      7       2.7854      0.00000
      8       2.8034      0.00000
      9       3.6345      0.00000
     10       3.7015      0.00000

 k-point     8 :       0.4667    0.0000    0.0000
  band No.  band energies     occupation 
      1     -46.7367      2.00000
      2     -46.7332      2.00000
      3     -46.7083      2.00000
      4     -46.7078      2.00000
      5      -1.7926      2.00000
      6      -1.4078      2.00000
      7       2.8163      0.00000
      8       2.8226      0.00000
      9       3.8158      0.00000
     10       3.8501      0.00000

 k-point     9 :       0.0667    0.0667    0.0000
  band No.  band energies     occupation 
      1     -46.7498      2.00000
      2     -46.7150      2.00000
      3     -46.7119      2.00000
      4     -46.7095      2.00000
      5      -2.9890      2.00000
      6       1.9378      0.00000
      7       2.0689      0.00000
      8       2.6637      0.00000
      9       2.7108      0.00000
     10       3.3073      0.00000

 k-point    10 :       0.1333    0.0667    0.0000
  band No.  band energies     occupation 
      1     -46.7489      2.00000
      2     -46.7171      2.00000
      3     -46.7118      2.00000
      4     -46.7085      2.00000
      5      -2.9132      2.00000
      6       1.3109      0.00000
      7       2.0780      0.00000
      8       2.6965      0.00000
      9       2.7730      0.00000
     10       3.4602      0.00000

 k-point    11 :      -0.0667    0.1333    0.0000
  band No.  band energies     occupation 
      1     -46.7489      2.00000
      2     -46.7171      2.00000
      3     -46.7118      2.00000
      4     -46.7085      2.00000
      5      -2.9132      2.00000
      6       1.3110      0.00000
      7       2.0778      0.00000
      8       2.6973      0.00000
      9       2.7726      0.00000
     10       3.4599      0.00000

 k-point    12 :       0.2000    0.0667    0.0000
  band No.  band energies     occupation 
      1     -46.7473      2.00000
      2     -46.7198      2.00000
      3     -46.7113      2.00000
      4     -46.7078      2.00000
      5      -2.7866      2.00000
      6       0.6743      0.00000
      7       2.1692      0.00000
      8       2.7417      0.00000
      9       2.8789      0.00000
     10       3.5658      0.00000

 k-point    13 :      -0.0667    0.2000    0.0000
  band No.  band energies     occupation 
      1     -46.7473      2.00000
      2     -46.7198      2.00000
      3     -46.7113      2.00000
      4     -46.7078      2.00000
      5      -2.7866      2.00000
      6       0.6743      0.00000
      7       2.1687      0.00000
      8       2.7428      0.00000
      9       2.8788      0.00000
     10       3.5652      0.00000

 k-point    14 :       0.2667    0.0667    0.0000
  band No.  band energies     occupation 
      1     -46.7452      2.00000
      2     -46.7229      2.00000
      3     -46.7108      2.00000
      4     -46.7074      2.00000
      5      -2.6092      2.00000
      6       0.0832      2.00000
      7       2.2883      0.00000
      8       2.7872      0.00000
      9       3.0272      0.00000
     10       3.6879      0.00000

 k-point    15 :      -0.0667    0.2667    0.0000
  band No.  band energies     occupation 
      1     -46.7452      2.00000
      2     -46.7229      2.00000
      3     -46.7108      2.00000
      4     -46.7074      2.00000
      5      -2.6092      2.00000
      6       0.0832      2.00000
      7       2.2876      0.00000
      8       2.7882      0.00000
      9       3.0276      0.00000
     10       3.6869      0.00000

 k-point    16 :       0.3333    0.0667    0.0000
  band No.  band energies     occupation 
      1     -46.7426      2.00000
      2     -46.7262      2.00000
      3     -46.7100      2.00000
      4     -46.7073      2.00000
      5      -2.3805      2.00000
      6      -0.4577      2.00000
      7       2.4228      0.00000
      8       2.8161      0.00000
      9       3.2153      0.00000
     10       3.8102      0.00000

 k-point    17 :      -0.0667    0.3333    0.0000
  band No.  band energies     occupation 
      1     -46.7426      2.00000
      2     -46.7262      2.00000
      3     -46.7100      2.00000
      4     -46.7073      2.00000
      5      -2.3805      2.00000
      6      -0.4577      2.00000
      7       2.4219      0.00000
      8       2.8168      0.00000
      9       3.2164      0.00000
     10       3.8091      0.00000

 k-point    18 :       0.4000    0.0667    0.0000
  band No.  band energies     occupation 
      1     -46.7397      2.00000
      2     -46.7296      2.00000
      3     -46.7093      2.00000
      4     -46.7075      2.00000
      5      -2.1002      2.00000
      6      -0.9469      2.00000
      7       2.5578      0.00000
      8       2.8121      0.00000
      9       3.4342      0.00000
     10       3.8821      0.00000

 k-point    19 :      -0.0667    0.4000    0.0000
  band No.  band energies     occupation 
      1     -46.7397      2.00000
      2     -46.7296      2.00000
      3     -46.7093      2.00000
      4     -46.7075      2.00000
      5      -2.1002      2.00000
      6      -0.9469      2.00000
      7       2.5569      0.00000
      8       2.8124      0.00000
      9       3.4359      0.00000
     10       3.8816      0.00000

 k-point    20 :       0.4667    0.0667    0.0000
  band No.  band energies     occupation 
      1     -46.7365      2.00000
      2     -46.7331      2.00000
      3     -46.7085      2.00000
      4     -46.7079      2.00000
      5      -1.7681      2.00000
      6      -1.3837      2.00000
      7       2.6772      0.00000
      8       2.7655      0.00000
      9       3.6588      0.00000
     10       3.8324      0.00000

 k-point    21 :      -0.0667    0.4667    0.0000
  band No.  band energies     occupation 
      1     -46.7365      2.00000
      2     -46.7331      2.00000
      3     -46.7085      2.00000
      4     -46.7079      2.00000
      5      -1.7681      2.00000
      6      -1.3837      2.00000
      7       2.6766      0.00000
      8       2.7653      0.00000
      9       3.6604      0.00000
     10       3.8332      0.00000

 k-point    22 :       0.1333    0.1333    0.0000
  band No.  band energies     occupation 
      1     -46.7479      2.00000
      2     -46.7184      2.00000
      3     -46.7120      2.00000
      4     -46.7079      2.00000
      5      -2.8374      2.00000
      6       1.2399      0.00000
      7       1.5563      0.00000
      8       2.7298      0.00000
      9       2.8262      0.00000
     10       3.8679      0.00000

 k-point    23 :       0.2000    0.1333    0.0000
  band No.  band energies     occupation 
      1     -46.7464      2.00000
      2     -46.7205      2.00000
      3     -46.7118      2.00000
      4     -46.7074      2.00000
      5      -2.7110      2.00000
      6       0.7167      0.00000
      7       1.5607      0.00000
      8       2.7665      0.00000
      9       2.9232      0.00000
     10       3.9887      0.00000

 k-point    24 :      -0.1333    0.2000    0.0000
  band No.  band energies     occupation 
      1     -46.7464      2.00000
      2     -46.7205      2.00000
      3     -46.7118      2.00000
      4     -46.7074      2.00000
      5      -2.7110      2.00000
      6       0.7168      0.00000
      7       1.5604      0.00000
      8       2.7670      0.00000
      9       2.9232      0.00000
     10       3.9879      0.00000

 k-point    25 :       0.2667    0.1333    0.0000
  band No.  band energies     occupation 
      1     -46.7444      2.00000
      2     -46.7232      2.00000
      3     -46.7113      2.00000
      4     -46.7073      2.00000
      5      -2.5339      2.00000
      6       0.1426      2.00000
      7       1.7002      0.00000
      8       2.7893      0.00000
      9       3.0554      0.00000
     10       3.9982      0.00000

 k-point    26 :      -0.1333    0.2667    0.0000
  band No.  band energies     occupation 
      1     -46.7444      2.00000
      2     -46.7232      2.00000
      3     -46.7113      2.00000
      4     -46.7073      2.00000
      5      -2.5339      2.00000
      6       0.1427      2.00000
      7       1.6997      0.00000
      8       2.7900      0.00000
      9       3.0559      0.00000
     10       3.9972      0.00000

 k-point    27 :       0.3333    0.1333    0.0000
  band No.  band energies     occupation 
      1     -46.7419      2.00000
      2     -46.7262      2.00000
      3     -46.7106      2.00000
      4     -46.7074      2.00000
      5      -2.3056      2.00000
      6      -0.3915      2.00000
      7       1.8828      0.00000
      8       2.7687      0.00000
      9       3.2162      0.00000
     10       3.9509      0.00000

 k-point    28 :      -0.1333    0.3333    0.0000
  band No.  band energies     occupation 
      1     -46.7419      2.00000
      2     -46.7262      2.00000
      3     -46.7106      2.00000
      4     -46.7074      2.00000
      5      -2.3056      2.00000
      6      -0.3915      2.00000
      7       1.8821      0.00000
      8       2.7690      0.00000
      9       3.2176      0.00000
     10       3.9504      0.00000

 k-point    29 :       0.4000    0.1333    0.0000
  band No.  band energies     occupation 
      1     -46.7391      2.00000
      2     -46.7295      2.00000
      3     -46.7098      2.00000
      4     -46.7077      2.00000
      5      -2.0259      2.00000
      6      -0.8771      2.00000
      7       2.0922      0.00000
      8       2.6782      0.00000
      9       3.3956      0.00000
     10       3.8636      0.00000

 k-point    30 :      -0.1333    0.4000    0.0000
  band No.  band energies     occupation 
      1     -46.7391      2.00000
      2     -46.7295      2.00000
      3     -46.7098      2.00000
      4     -46.7077      2.00000
      5      -2.0259      2.00000
      6      -0.8770      2.00000
      7       2.0913      0.00000
      8       2.6780      0.00000
      9       3.3978      0.00000
     10       3.8646      0.00000

 k-point    31 :       0.4667    0.1333    0.0000
  band No.  band energies     occupation 
      1     -46.7360      2.00000
      2     -46.7328      2.00000
      3     -46.7090      2.00000
      4     -46.7083      2.00000
      5      -1.6947      2.00000
      6      -1.3117      2.00000
      7       2.3117      0.00000
      8       2.5173      0.00000
      9       3.5770      0.00000
     10       3.7385      0.00000

 k-point    32 :      -0.1333    0.4667    0.0000
  band No.  band energies     occupation 
      1     -46.7360      2.00000
      2     -46.7328      2.00000
      3     -46.7090      2.00000
      4     -46.7083      2.00000
      5      -1.6947      2.00000
      6      -1.3117      2.00000
      7       2.3108      0.00000
      8       2.5166      0.00000
      9       3.5796      0.00000
     10       3.7408      0.00000

 k-point    33 :       0.2000    0.2000    0.0000
  band No.  band energies     occupation 
      1     -46.7450      2.00000
      2     -46.7219      2.00000
      3     -46.7120      2.00000
      4     -46.7073      2.00000
      5      -2.5850      2.00000
      6       0.6528      0.00000
      7       1.1230      0.00000
      8       2.7746      0.00000
      9       3.0183      0.00000
     10       4.0880      0.00000

 k-point    34 :       0.2667    0.2000    0.0000
  band No.  band energies     occupation 
      1     -46.7431      2.00000
      2     -46.7239      2.00000
      3     -46.7118      2.00000
      4     -46.7074      2.00000
      5      -2.4083      2.00000
      6       0.2189      2.00000
      7       1.1406      0.00000
      8       2.7344      0.00000
      9       3.1487      0.00000
     10       4.0020      0.00000

 k-point    35 :      -0.2000    0.2667    0.0000
  band No.  band energies     occupation 
      1     -46.7431      2.00000
      2     -46.7239      2.00000
      3     -46.7118      2.00000
      4     -46.7074      2.00000
      5      -2.4083      2.00000
      6       0.2190      2.00000
      7       1.1403      0.00000
      8       2.7346      0.00000
      9       3.1491      0.00000
     10       4.0018      0.00000

 k-point    36 :       0.3333    0.2000    0.0000
  band No.  band energies     occupation 
      1     -46.7408      2.00000
      2     -46.7264      2.00000
      3     -46.7113      2.00000
      4     -46.7077      2.00000
      5      -2.1807      2.00000
      6      -0.2882      2.00000
      7       1.3203      0.00000
      8       2.6055      0.00000
      9       3.3046      0.00000
     10       3.8991      0.00000

 k-point    37 :      -0.2000    0.3333    0.0000
  band No.  band energies     occupation 
      1     -46.7408      2.00000
      2     -46.7264      2.00000
      3     -46.7113      2.00000
      4     -46.7077      2.00000
      5      -2.1807      2.00000
      6      -0.2881      2.00000
      7       1.3199      0.00000
      8       2.6054      0.00000
      9       3.3058      0.00000
     10       3.8998      0.00000

 k-point    38 :       0.4000    0.2000    0.0000
  band No.  band energies     occupation 
      1     -46.7381      2.00000
      2     -46.7293      2.00000
      3     -46.7105      2.00000
      4     -46.7082      2.00000
      5      -1.9023      2.00000
      6      -0.7635      2.00000
      7       1.5552      0.00000
      8       2.3839      0.00000
      9       3.4717      0.00000
     10       3.8275      0.00000

 k-point    39 :      -0.2000    0.4000    0.0000
  band No.  band energies     occupation 
      1     -46.7381      2.00000
      2     -46.7293      2.00000
      3     -46.7105      2.00000
      4     -46.7082      2.00000
      5      -1.9023      2.00000
      6      -0.7635      2.00000
      7       1.5547      0.00000
      8       2.3835      0.00000
      9       3.4738      0.00000
     10       3.8293      0.00000

 k-point    40 :       0.4667    0.2000    0.0000
  band No.  band energies     occupation 
      1     -46.7352      2.00000
      2     -46.7322      2.00000
      3     -46.7097      2.00000
      4     -46.7089      2.00000
      5      -1.5729      2.00000
      6      -1.1929      2.00000
      7       1.8242      0.00000
      8       2.1095      0.00000
      9       3.6283      0.00000
     10       3.7489      0.00000

 k-point    41 :      -0.2000    0.4667    0.0000
  band No.  band energies     occupation 
      1     -46.7352      2.00000
      2     -46.7322      2.00000
      3     -46.7097      2.00000
      4     -46.7089      2.00000
      5      -1.5729      2.00000
      6      -1.1929      2.00000
      7       1.8235      0.00000
      8       2.1088      0.00000
      9       3.6310      0.00000
     10       3.7516      0.00000

 k-point    42 :       0.2667    0.2667    0.0000
  band No.  band energies     occupation 
      1     -46.7413      2.00000
      2     -46.7251      2.00000
      3     -46.7120      2.00000
      4     -46.7076      2.00000
      5      -2.2323      2.00000
      6       0.1811      2.00000
      7       0.7756      0.00000
      8       2.5781      0.00000
      9       3.2813      0.00000
     10       3.9148      0.00000

 k-point    43 :       0.3333    0.2667    0.0000
  band No.  band energies     occupation 
      1     -46.7393      2.00000
      2     -46.7269      2.00000
      3     -46.7118      2.00000
      4     -46.7082      2.00000
      5      -2.0062      2.00000
      6      -0.1737      2.00000
      7       0.8174      0.00000
      8       2.3111      0.00000
      9       3.4397      0.00000
     10       3.8825      0.00000

 k-point    44 :      -0.2667    0.3333    0.0000
  band No.  band energies     occupation 
      1     -46.7393      2.00000
      2     -46.7269      2.00000
      3     -46.7118      2.00000
      4     -46.7082      2.00000
      5      -2.0062      2.00000
      6      -0.1736      2.00000
      7       0.8172      0.00000
      8       2.3109      0.00000
      9       3.4405      0.00000
     10       3.8832      0.00000

 k-point    45 :       0.4000    0.2667    0.0000
  band No.  band energies     occupation 
      1     -46.7368      2.00000
      2     -46.7291      2.00000
      3     -46.7113      2.00000
      4     -46.7089      2.00000
      5      -1.7298      2.00000
      6      -0.6140      2.00000
      7       1.0359      0.00000
      8       1.9819      0.00000
      9       3.6073      0.00000
     10       3.8847      0.00000

 k-point    46 :      -0.2667    0.4000    0.0000
  band No.  band energies     occupation 
      1     -46.7368      2.00000
      2     -46.7291      2.00000
      3     -46.7113      2.00000
      4     -46.7089      2.00000
      5      -1.7298      2.00000
      6      -0.6139      2.00000
      7       1.0356      0.00000
      8       1.9815      0.00000
      9       3.6089      0.00000
     10       3.8864      0.00000

 k-point    47 :       0.4667    0.2667    0.0000
  band No.  band energies     occupation 
      1     -46.7343      2.00000
      2     -46.7316      2.00000
      3     -46.7105      2.00000
      4     -46.7097      2.00000
      5      -1.4040      2.00000
      6      -1.0304      2.00000
      7       1.3192      0.00000
      8       1.6410      0.00000
      9       3.7570      0.00000
     10       3.8547      0.00000

 k-point    48 :      -0.2667    0.4667    0.0000
  band No.  band energies     occupation 
      1     -46.7343      2.00000
      2     -46.7316      2.00000
      3     -46.7105      2.00000
      4     -46.7097      2.00000
      5      -1.4040      2.00000
      6      -1.0304      2.00000
      7       1.3188      0.00000
      8       1.6406      0.00000
      9       3.7593      0.00000
     10       3.8570      0.00000

 k-point    49 :       0.3333    0.3333    0.0000
  band No.  band energies     occupation 
      1     -46.7374      2.00000
      2     -46.7278      2.00000
      3     -46.7120      2.00000
      4     -46.7088      2.00000
      5      -1.7822      2.00000
      6      -0.1736      2.00000
      7       0.5156      1.03003
      8       1.9384      0.00000
      9       3.6045      0.00000
     10       3.9372      0.00000

 k-point    50 :       0.4000    0.3333    0.0000
  band No.  band energies     occupation 
      1     -46.7353      2.00000
      2     -46.7293      2.00000
      3     -46.7118      2.00000
      4     -46.7096      2.00000
      5      -1.5097      2.00000
      6      -0.4565      2.00000
      7       0.5888      0.00000
      8       1.5485      0.00000
      9       3.7782      0.00000
     10       4.0037      0.00000

 k-point    51 :      -0.3333    0.4000    0.0000
  band No.  band energies     occupation 
      1     -46.7353      2.00000
      2     -46.7293      2.00000
      3     -46.7118      2.00000
      4     -46.7096      2.00000
      5      -1.5097      2.00000
      6      -0.4565      2.00000
      7       0.5886      0.00000
      8       1.5483      0.00000
      9       3.7791      0.00000
     10       4.0047      0.00000

 k-point    52 :       0.4667    0.3333    0.0000
  band No.  band energies     occupation 
      1     -46.7332      2.00000
      2     -46.7311      2.00000
      3     -46.7113      2.00000
      4     -46.7105      2.00000
      5      -1.1910      2.00000
      6      -0.8324      2.00000
      7       0.8470      0.00000
      8       1.1771      0.00000
      9       3.9293      0.00000
     10       4.0128      0.00000

 k-point    53 :      -0.3333    0.4667    0.0000
  band No.  band energies     occupation 
      1     -46.7332      2.00000
      2     -46.7311      2.00000
      3     -46.7113      2.00000
      4     -46.7105      2.00000
      5      -1.1910      2.00000
      6      -0.8323      2.00000
      7       0.8468      0.00000
      8       1.1769      0.00000
      9       3.9309      0.00000
     10       4.0146      0.00000

 k-point    54 :       0.4000    0.4000    0.0000
  band No.  band energies     occupation 
      1     -46.7337      2.00000
      2     -46.7298      2.00000
      3     -46.7121      2.00000
      4     -46.7105      2.00000
      5      -1.2446      2.00000
      6      -0.4104      2.00000
      7       0.3427      2.00000
      8       1.1297      0.00000
      9       3.9607      0.00000
     10       4.1267      0.00000

 k-point    55 :       0.4667    0.4000    0.0000
  band No.  band energies     occupation 
      1     -46.7321      2.00000
      2     -46.7308      2.00000
      3     -46.7119      2.00000
      4     -46.7113      2.00000
      5      -0.9419      2.00000
      6      -0.6271      2.00000
      7       0.4525      1.99999
      8       0.7528      0.00000
      9       4.1140      0.00000
     10       4.1796      0.00000

 k-point    56 :      -0.4000    0.4667    0.0000
  band No.  band energies     occupation 
      1     -46.7321      2.00000
      2     -46.7308      2.00000
      3     -46.7119      2.00000
      4     -46.7113      2.00000
      5      -0.9419      2.00000
      6      -0.6270      2.00000
      7       0.4524      1.99999
      8       0.7528      0.00000
      9       4.1147      0.00000
     10       4.1805      0.00000

 k-point    57 :       0.4667    0.4667    0.0000
  band No.  band energies     occupation 
      1     -46.7313      2.00000
      2     -46.7308      2.00000
      3     -46.7121      2.00000
      4     -46.7119      2.00000
      5      -0.6841      2.00000
      6      -0.5290      2.00000
      7       0.2565      2.00000
      8       0.4072      2.00000
      9       4.2587      0.00000
     10       4.2865      0.00000

 k-point    58 :       0.0667    0.0667    0.0667
  band No.  band energies     occupation 
      1     -46.7495      2.00000
      2     -46.7157      2.00000
      3     -46.7120      2.00000
      4     -46.7090      2.00000
      5      -2.9637      2.00000
      6       1.9281      0.00000
      7       1.9951      0.00000
      8       2.1487      0.00000
      9       3.0842      0.00000
     10       3.4951      0.00000

 k-point    59 :       0.1333    0.0667    0.0667
  band No.  band energies     occupation 
      1     -46.7486      2.00000
      2     -46.7175      2.00000
      3     -46.7119      2.00000
      4     -46.7082      2.00000
      5      -2.8879      2.00000
      6       1.3247      0.00000
      7       2.0268      0.00000
      8       2.1711      0.00000
      9       3.1578      0.00000
     10       3.6527      0.00000

 k-point    60 :       0.2000    0.0667    0.0667
  band No.  band energies     occupation 
      1     -46.7470      2.00000
      2     -46.7200      2.00000
      3     -46.7116      2.00000
      4     -46.7076      2.00000
      5      -2.7614      2.00000
      6       0.6930      0.00000
      7       2.1203      0.00000
      8       2.2685      0.00000
      9       3.1946      0.00000
     10       3.7612      0.00000

 k-point    61 :       0.2667    0.0667    0.0667
  band No.  band energies     occupation 
      1     -46.7449      2.00000
      2     -46.7230      2.00000
      3     -46.7110      2.00000
      4     -46.7073      2.00000
      5      -2.5841      2.00000
      6       0.1044      2.00000
      7       2.2358      0.00000
      8       2.4052      0.00000
      9       3.2283      0.00000
     10       3.8724      0.00000

 k-point    62 :       0.3333    0.0667    0.0667
  band No.  band energies     occupation 
      1     -46.7424      2.00000
      2     -46.7262      2.00000
      3     -46.7102      2.00000
      4     -46.7073      2.00000
      5      -2.3555      2.00000
      6      -0.4351      2.00000
      7       2.3632      0.00000
      8       2.5565      0.00000
      9       3.2711      0.00000
     10       3.9497      0.00000

 k-point    63 :       0.4000    0.0667    0.0667
  band No.  band energies     occupation 
      1     -46.7395      2.00000
      2     -46.7296      2.00000
      3     -46.7095      2.00000
      4     -46.7075      2.00000
      5      -2.0754      2.00000
      6      -0.9234      2.00000
      7       2.4927      0.00000
      8       2.6667      0.00000
      9       3.3611      0.00000
     10       3.9206      0.00000

 k-point    64 :       0.4667    0.0667    0.0667
  band No.  band energies     occupation 
      1     -46.7363      2.00000
      2     -46.7330      2.00000
      3     -46.7087      2.00000
      4     -46.7080      2.00000
      5      -1.7436      2.00000
      6      -1.3596      2.00000
      7       2.6077      0.00000
      8       2.6796      0.00000
      9       3.5364      0.00000
     10       3.7562      0.00000

 k-point    65 :       0.1333    0.1333    0.0667
  band No.  band energies     occupation 
      1     -46.7477      2.00000
      2     -46.7187      2.00000
      3     -46.7121      2.00000
      4     -46.7077      2.00000
      5      -2.8122      2.00000
      6       1.2604      0.00000
      7       1.5572      0.00000
      8       2.1727      0.00000
      9       3.2589      0.00000
     10       3.9843      0.00000

 k-point    66 :       0.2000    0.1333    0.0667
  band No.  band energies     occupation 
      1     -46.7461      2.00000
      2     -46.7207      2.00000
      3     -46.7120      2.00000
      4     -46.7074      2.00000
      5      -2.6858      2.00000
      6       0.7370      0.00000
      7       1.5689      0.00000
      8       2.2589      0.00000
      9       3.2916      0.00000
     10       4.1018      0.00000

 k-point    67 :      -0.1333    0.2000    0.0667
  band No.  band energies     occupation 
      1     -46.7461      2.00000
      2     -46.7207      2.00000
      3     -46.7120      2.00000
      4     -46.7074      2.00000
      5      -2.6858      2.00000
      6       0.7370      0.00000
      7       1.5687      0.00000
      8       2.2591      0.00000
      9       3.2918      0.00000
     10       4.1013      0.00000

 k-point    68 :       0.2667    0.1333    0.0667
  band No.  band energies     occupation 
      1     -46.7441      2.00000
      2     -46.7233      2.00000
      3     -46.7115      2.00000
      4     -46.7073      2.00000
      5      -2.5087      2.00000
      6       0.1643      2.00000
      7       1.7101      0.00000
      8       2.3709      0.00000
      9       3.2969      0.00000
     10       4.1101      0.00000

 k-point    69 :      -0.1333    0.2667    0.0667
  band No.  band energies     occupation 
      1     -46.7441      2.00000
      2     -46.7233      2.00000
      3     -46.7115      2.00000
      4     -46.7073      2.00000
      5      -2.5087      2.00000
      6       0.1644      2.00000
      7       1.7097      0.00000
      8       2.3714      0.00000
      9       3.2971      0.00000
     10       4.1097      0.00000

 k-point    70 :       0.3333    0.1333    0.0667
  band No.  band energies     occupation 
      1     -46.7417      2.00000
      2     -46.7262      2.00000
      3     -46.7108      2.00000
      4     -46.7074      2.00000
      5      -2.2806      2.00000
      6      -0.3686      2.00000
      7       1.8914      0.00000
      8       2.4821      0.00000
      9       3.2833      0.00000
     10       4.0285      0.00000

 k-point    71 :      -0.1333    0.3333    0.0667
  band No.  band energies     occupation 
      1     -46.7417      2.00000
      2     -46.7262      2.00000
      3     -46.7108      2.00000
      4     -46.7074      2.00000
      5      -2.2806      2.00000
      6      -0.3686      2.00000
      7       1.8907      0.00000
      8       2.4827      0.00000
      9       3.2837      0.00000
     10       4.0288      0.00000

 k-point    72 :       0.4000    0.1333    0.0667
  band No.  band energies     occupation 
      1     -46.7389      2.00000
      2     -46.7294      2.00000
      3     -46.7100      2.00000
      4     -46.7078      2.00000
      5      -2.0011      2.00000
      6      -0.8534      2.00000
      7       2.0945      0.00000
      8       2.5333      0.00000
      9       3.3022      0.00000
     10       3.8544      0.00000

 k-point    73 :      -0.1333    0.4000    0.0667
  band No.  band energies     occupation 
      1     -46.7389      2.00000
      2     -46.7294      2.00000
      3     -46.7100      2.00000
      4     -46.7078      2.00000
      5      -2.0011      2.00000
      6      -0.8534      2.00000
      7       2.0938      0.00000
      8       2.5336      0.00000
      9       3.3029      0.00000
     10       3.8557      0.00000

 k-point    74 :       0.4667    0.1333    0.0667
  band No.  band energies     occupation 
      1     -46.7358      2.00000
      2     -46.7326      2.00000
      3     -46.7092      2.00000
      4     -46.7084      2.00000
      5      -1.6701      2.00000
      6      -1.2875      2.00000
      7       2.2977      0.00000
      8       2.4634      0.00000
      9       3.4231      0.00000
     10       3.6297      0.00000

 k-point    75 :      -0.1333    0.4667    0.0667
  band No.  band energies     occupation 
      1     -46.7358      2.00000
      2     -46.7326      2.00000
      3     -46.7092      2.00000
      4     -46.7084      2.00000
      5      -1.6701      2.00000
      6      -1.2875      2.00000
      7       2.2969      0.00000
      8       2.4630      0.00000
      9       3.4245      0.00000
     10       3.6314      0.00000

 k-point    76 :       0.2000    0.2000    0.0667
  band No.  band energies     occupation 
      1     -46.7448      2.00000
      2     -46.7220      2.00000
      3     -46.7122      2.00000
      4     -46.7073      2.00000
      5      -2.5599      2.00000
      6       0.6765      0.00000
      7       1.1335      0.00000
      8       2.3314      0.00000
      9       3.3123      0.00000
     10       4.1935      0.00000

 k-point    77 :       0.2667    0.2000    0.0667
  band No.  band energies     occupation 
      1     -46.7429      2.00000
      2     -46.7239      2.00000
      3     -46.7120      2.00000
      4     -46.7074      2.00000
      5      -2.3832      2.00000
      6       0.2419      2.00000
      7       1.1544      0.00000
      8       2.4084      0.00000
      9       3.2858      0.00000
     10       4.1108      0.00000

 k-point    78 :      -0.2000    0.2667    0.0667
  band No.  band energies     occupation 
      1     -46.7429      2.00000
      2     -46.7239      2.00000
      3     -46.7120      2.00000
      4     -46.7074      2.00000
      5      -2.3832      2.00000
      6       0.2420      2.00000
      7       1.1542      0.00000
      8       2.4086      0.00000
      9       3.2859      0.00000
     10       4.1110      0.00000

 k-point    79 :       0.3333    0.2000    0.0667
  band No.  band energies     occupation 
      1     -46.7405      2.00000
      2     -46.7264      2.00000
      3     -46.7115      2.00000
      4     -46.7077      2.00000
      5      -2.1557      2.00000
      6      -0.2648      2.00000
      7       1.3346      0.00000
      8       2.4309      0.00000
      9       3.2459      0.00000
     10       3.9821      0.00000

 k-point    80 :      -0.2000    0.3333    0.0667
  band No.  band energies     occupation 
      1     -46.7405      2.00000
      2     -46.7264      2.00000
      3     -46.7115      2.00000
      4     -46.7077      2.00000
      5      -2.1557      2.00000
      6      -0.2648      2.00000
      7       1.3342      0.00000
      8       2.4311      0.00000
      9       3.2462      0.00000
     10       3.9834      0.00000

 k-point    81 :       0.4000    0.2000    0.0667
  band No.  band energies     occupation 
      1     -46.7379      2.00000
      2     -46.7292      2.00000
      3     -46.7107      2.00000
      4     -46.7083      2.00000
      5      -1.8774      2.00000
      6      -0.7396      2.00000
      7       1.5671      0.00000
      8       2.3211      0.00000
      9       3.2899      0.00000
     10       3.8251      0.00000

 k-point    82 :      -0.2000    0.4000    0.0667
  band No.  band energies     occupation 
      1     -46.7379      2.00000
      2     -46.7292      2.00000
      3     -46.7107      2.00000
      4     -46.7083      2.00000
      5      -1.8774      2.00000
      6      -0.7396      2.00000
      7       1.5666      0.00000
      8       2.3209      0.00000
      9       3.2909      0.00000
     10       3.8273      0.00000

 k-point    83 :       0.4667    0.2000    0.0667
  band No.  band energies     occupation 
      1     -46.7350      2.00000
      2     -46.7321      2.00000
      3     -46.7099      2.00000
      4     -46.7090      2.00000
      5      -1.5483      2.00000
      6      -1.1686      2.00000
      7       1.8290      0.00000
      8       2.0957      0.00000
      9       3.4386      0.00000
     10       3.6343      0.00000

 k-point    84 :      -0.2000    0.4667    0.0667
  band No.  band energies     occupation 
      1     -46.7350      2.00000
      2     -46.7321      2.00000
      3     -46.7099      2.00000
      4     -46.7090      2.00000
      5      -1.5482      2.00000
      6      -1.1686      2.00000
      7       1.8284      0.00000
      8       2.0951      0.00000
      9       3.4403      0.00000
     10       3.6365      0.00000

 k-point    85 :       0.2667    0.2667    0.0667
  band No.  band energies     occupation 
      1     -46.7411      2.00000
      2     -46.7251      2.00000
      3     -46.7122      2.00000
      4     -46.7077      2.00000
      5      -2.2073      2.00000
      6       0.2062      2.00000
      7       0.7899      0.00000
      8       2.3952      0.00000
      9       3.2323      0.00000
     10       4.0421      0.00000

 k-point    86 :       0.3333    0.2667    0.0667
  band No.  band energies     occupation 
      1     -46.7390      2.00000
      2     -46.7268      2.00000
      3     -46.7120      2.00000
      4     -46.7083      2.00000
      5      -1.9812      2.00000
      6      -0.1493      2.00000
      7       0.8334      0.00000
      8       2.2438      0.00000
      9       3.2424      0.00000
     10       3.9915      0.00000

 k-point    87 :      -0.2667    0.3333    0.0667
  band No.  band energies     occupation 
      1     -46.7390      2.00000
      2     -46.7268      2.00000
      3     -46.7120      2.00000
      4     -46.7083      2.00000
      5      -1.9812      2.00000
      6      -0.1492      2.00000
      7       0.8332      0.00000
      8       2.2437      0.00000
      9       3.2428      0.00000
     10       3.9925      0.00000

 k-point    88 :       0.4000    0.2667    0.0667
  band No.  band energies     occupation 
      1     -46.7366      2.00000
      2     -46.7290      2.00000
      3     -46.7115      2.00000
      4     -46.7090      2.00000
      5      -1.7050      2.00000
      6      -0.5897      2.00000
      7       1.0516      0.00000
      8       1.9667      0.00000
      9       3.3650      0.00000
     10       3.9039      0.00000

 k-point    89 :      -0.2667    0.4000    0.0667
  band No.  band energies     occupation 
      1     -46.7366      2.00000
      2     -46.7290      2.00000
      3     -46.7115      2.00000
      4     -46.7090      2.00000
      5      -1.7050      2.00000
      6      -0.5897      2.00000
      7       1.0513      0.00000
      8       1.9664      0.00000
      9       3.3660      0.00000
     10       3.9058      0.00000

 k-point    90 :       0.4667    0.2667    0.0667
  band No.  band energies     occupation 
      1     -46.7341      2.00000
      2     -46.7315      2.00000
      3     -46.7107      2.00000
      4     -46.7098      2.00000
      5      -1.3793      2.00000
      6      -1.0059      2.00000
      7       1.3317      0.00000
      8       1.6457      0.00000
      9       3.5508      0.00000
     10       3.7469      0.00000

 k-point    91 :      -0.2667    0.4667    0.0667
  band No.  band energies     occupation 
      1     -46.7341      2.00000
      2     -46.7315      2.00000
      3     -46.7107      2.00000
      4     -46.7098      2.00000
      5      -1.3793      2.00000
      6      -1.0059      2.00000
      7       1.3313      0.00000
      8       1.6453      0.00000
      9       3.5524      0.00000
     10       3.7490      0.00000

 k-point    92 :       0.3333    0.3333    0.0667
  band No.  band energies     occupation 
      1     -46.7372      2.00000
      2     -46.7277      2.00000
      3     -46.7123      2.00000
      4     -46.7090      2.00000
      5      -1.7572      2.00000
      6      -0.1478      2.00000
      7       0.5316      0.27325
      8       1.9227      0.00000
      9       3.3437      0.00000
     10       4.0382      0.00000

 k-point    93 :       0.4000    0.3333    0.0667
  band No.  band energies     occupation 
      1     -46.7351      2.00000
      2     -46.7291      2.00000
      3     -46.7120      2.00000
      4     -46.7098      2.00000
      5      -1.4849      2.00000
      6      -0.4314      2.00000
      7       0.6057      0.00000
      8       1.5529      0.00000
      9       3.5185      0.00000
     10       4.0308      0.00000

 k-point    94 :      -0.3333    0.4000    0.0667
  band No.  band energies     occupation 
      1     -46.7351      2.00000
      2     -46.7291      2.00000
      3     -46.7120      2.00000
      4     -46.7098      2.00000
      5      -1.4849      2.00000
      6      -0.4314      2.00000
      7       0.6056      0.00000
      8       1.5527      0.00000
      9       3.5190      0.00000
     10       4.0319      0.00000

 k-point    95 :       0.4667    0.3333    0.0667
  band No.  band energies     occupation 
      1     -46.7330      2.00000
      2     -46.7309      2.00000
      3     -46.7115      2.00000
      4     -46.7107      2.00000
      5      -1.1663      2.00000
      6      -0.8076      2.00000
      7       0.8632      0.00000
      8       1.1898      0.00000
      9       3.7244      0.00000
     10       3.9154      0.00000

 k-point    96 :      -0.3333    0.4667    0.0667
  band No.  band energies     occupation 
      1     -46.7330      2.00000
      2     -46.7309      2.00000
      3     -46.7115      2.00000
      4     -46.7107      2.00000
      5      -1.1662      2.00000
      6      -0.8076      2.00000
      7       0.8629      0.00000
      8       1.1896      0.00000
      9       3.7256      0.00000
     10       3.9169      0.00000

 k-point    97 :       0.4000    0.4000    0.0667
  band No.  band energies     occupation 
      1     -46.7335      2.00000
      2     -46.7296      2.00000
      3     -46.7123      2.00000
      4     -46.7107      2.00000
      5      -1.2197      2.00000
      6      -0.3843      2.00000
      7       0.3596      2.00000
      8       1.1424      0.00000
      9       3.7185      0.00000
     10       4.1261      0.00000

 k-point    98 :       0.4667    0.4000    0.0667
  band No.  band energies     occupation 
      1     -46.7319      2.00000
      2     -46.7306      2.00000
      3     -46.7121      2.00000
      4     -46.7115      2.00000
      5      -0.9169      2.00000
      6      -0.6016      2.00000
      7       0.4698      1.99895
      8       0.7691      0.00000
      9       3.9295      0.00000
     10       4.0930      0.00000

 k-point    99 :      -0.4000    0.4667    0.0667
  band No.  band energies     occupation 
      1     -46.7319      2.00000
      2     -46.7306      2.00000
      3     -46.7121      2.00000
      4     -46.7115      2.00000
      5      -0.9169      2.00000
      6      -0.6016      2.00000
      7       0.4697      1.99897
      8       0.7690      0.00000
      9       3.9301      0.00000
     10       4.0938      0.00000

 k-point   100 :       0.4667    0.4667    0.0667
  band No.  band energies     occupation 
      1     -46.7311      2.00000
      2     -46.7306      2.00000
      3     -46.7123      2.00000
      4     -46.7121      2.00000
      5      -0.6585      2.00000
      6      -0.5026      2.00000
      7       0.2737      2.00000
      8       0.4247      2.00000
      9       4.1184      0.00000
     10       4.1928      0.00000

 k-point   101 :       0.1333    0.1333    0.1333
  band No.  band energies     occupation 
      1     -46.7468      2.00000
      2     -46.7196      2.00000
      3     -46.7124      2.00000
      4     -46.7075      2.00000
      5      -2.7366      2.00000
      6       1.2585      0.00000
      7       1.4491      0.00000
      8       1.7691      0.00000
      9       3.4461      0.00000
     10       4.2332      0.00000

 k-point   102 :       0.2000    0.1333    0.1333
  band No.  band energies     occupation 
      1     -46.7453      2.00000
      2     -46.7212      2.00000
      3     -46.7124      2.00000
      4     -46.7073      2.00000
      5      -2.6103      2.00000
      6       0.7873      0.00000
      7       1.4917      0.00000
      8       1.7912      0.00000
      9       3.4703      0.00000
     10       4.3274      0.00000

 k-point   103 :       0.2667    0.1333    0.1333
  band No.  band energies     occupation 
      1     -46.7433      2.00000
      2     -46.7235      2.00000
      3     -46.7120      2.00000
      4     -46.7073      2.00000
      5      -2.4334      2.00000
      6       0.2261      2.00000
      7       1.6474      0.00000
      8       1.9039      0.00000
      9       3.4169      0.00000
     10       4.2555      0.00000

 k-point   104 :       0.3333    0.1333    0.1333
  band No.  band energies     occupation 
      1     -46.7410      2.00000
      2     -46.7262      2.00000
      3     -46.7113      2.00000
      4     -46.7076      2.00000
      5      -2.2057      2.00000
      6      -0.3014      2.00000
      7       1.8362      0.00000
      8       2.0502      0.00000
      9       3.3135      0.00000
     10       4.0253      0.00000

 k-point   105 :       0.4000    0.1333    0.1333
  band No.  band energies     occupation 
      1     -46.7383      2.00000
      2     -46.7291      2.00000
      3     -46.7105      2.00000
      4     -46.7081      2.00000
      5      -1.9267      2.00000
      6      -0.7830      2.00000
      7       2.0321      0.00000
      8       2.1976      0.00000
      9       3.2127      0.00000
     10       3.7051      0.00000

 k-point   106 :       0.4667    0.1333    0.1333
  band No.  band energies     occupation 
      1     -46.7353      2.00000
      2     -46.7323      2.00000
      3     -46.7096      2.00000
      4     -46.7088      2.00000
      5      -1.5966      2.00000
      6      -1.2152      2.00000
      7       2.1976      0.00000
      8       2.2691      0.00000
      9       3.2167      0.00000
     10       3.4015      0.00000

 k-point   107 :       0.2000    0.2000    0.1333
  band No.  band energies     occupation 
      1     -46.7439      2.00000
      2     -46.7223      2.00000
      3     -46.7127      2.00000
      4     -46.7073      2.00000
      5      -2.4844      2.00000
      6       0.7415      0.00000
      7       1.1458      0.00000
      8       1.7866      0.00000
      9       3.4839      0.00000
     10       4.3776      0.00000

 k-point   108 :       0.2667    0.2000    0.1333
  band No.  band energies     occupation 
      1     -46.7421      2.00000
      2     -46.7240      2.00000
      3     -46.7125      2.00000
      4     -46.7075      2.00000
      5      -2.3079      2.00000
      6       0.3080      2.00000
      7       1.1842      0.00000
      8       1.8927      0.00000
      9       3.3903      0.00000
     10       4.2219      0.00000

 k-point   109 :      -0.2000    0.2667    0.1333
  band No.  band energies     occupation 
      1     -46.7421      2.00000
      2     -46.7240      2.00000
      3     -46.7125      2.00000
      4     -46.7075      2.00000
      5      -2.3079      2.00000
      6       0.3081      2.00000
      7       1.1840      0.00000
      8       1.8928      0.00000
      9       3.3902      0.00000
     10       4.2224      0.00000

 k-point   110 :       0.3333    0.2000    0.1333
  band No.  band energies     occupation 
      1     -46.7398      2.00000
      2     -46.7262      2.00000
      3     -46.7120      2.00000
      4     -46.7080      2.00000
      5      -2.0808      2.00000
      6      -0.1961      2.00000
      7       1.3675      0.00000
      8       2.0128      0.00000
      9       3.2294      0.00000
     10       3.9396      0.00000

 k-point   111 :      -0.2000    0.3333    0.1333
  band No.  band energies     occupation 
      1     -46.7398      2.00000
      2     -46.7262      2.00000
      3     -46.7120      2.00000
      4     -46.7080      2.00000
      5      -2.0808      2.00000
      6      -0.1961      2.00000
      7       1.3672      0.00000
      8       2.0131      0.00000
      9       3.2292      0.00000
     10       3.9408      0.00000

 k-point   112 :       0.4000    0.2000    0.1333
  band No.  band energies     occupation 
      1     -46.7373      2.00000
      2     -46.7289      2.00000
      3     -46.7113      2.00000
      4     -46.7087      2.00000
      5      -1.8030      2.00000
      6      -0.6686      2.00000
      7       1.5928      0.00000
      8       2.0841      0.00000
      9       3.0988      0.00000
     10       3.6164      0.00000

 k-point   113 :      -0.2000    0.4000    0.1333
  band No.  band energies     occupation 
      1     -46.7373      2.00000
      2     -46.7289      2.00000
      3     -46.7113      2.00000
      4     -46.7087      2.00000
      5      -1.8030      2.00000
      6      -0.6686      2.00000
      7       1.5923      0.00000
      8       2.0843      0.00000
      9       3.0987      0.00000
     10       3.6178      0.00000

 k-point   114 :       0.4667    0.2000    0.1333
  band No.  band energies     occupation 
      1     -46.7345      2.00000
      2     -46.7317      2.00000
      3     -46.7104      2.00000
      4     -46.7095      2.00000
      5      -1.4746      2.00000
      6      -1.0960      2.00000
      7       1.8274      0.00000
      8       2.0191      0.00000
      9       3.1252      0.00000
     10       3.3232      0.00000

 k-point   115 :      -0.2000    0.4667    0.1333
  band No.  band energies     occupation 
      1     -46.7345      2.00000
      2     -46.7317      2.00000
      3     -46.7104      2.00000
      4     -46.7095      2.00000
      5      -1.4746      2.00000
      6      -1.0960      2.00000
      7       1.8270      0.00000
      8       2.0189      0.00000
      9       3.1258      0.00000
     10       3.3243      0.00000

 k-point   116 :       0.2667    0.2667    0.1333
  band No.  band energies     occupation 
      1     -46.7403      2.00000
      2     -46.7250      2.00000
      3     -46.7128      2.00000
      4     -46.7080      2.00000
      5      -2.1322      2.00000
      6       0.2794      2.00000
      7       0.8278      0.00000
      8       1.9665      0.00000
      9       3.2351      0.00000
     10       4.1184      0.00000

 k-point   117 :       0.3333    0.2667    0.1333
  band No.  band energies     occupation 
      1     -46.7383      2.00000
      2     -46.7266      2.00000
      3     -46.7126      2.00000
      4     -46.7086      2.00000
      5      -1.9063      2.00000
      6      -0.0774      2.00000
      7       0.8779      0.00000
      8       1.9950      0.00000
      9       3.0592      0.00000
     10       3.9520      0.00000

 k-point   118 :      -0.2667    0.3333    0.1333
  band No.  band energies     occupation 
      1     -46.7383      2.00000
      2     -46.7266      2.00000
      3     -46.7126      2.00000
      4     -46.7086      2.00000
      5      -1.9063      2.00000
      6      -0.0774      2.00000
      7       0.8778      0.00000
      8       1.9950      0.00000
      9       3.0591      0.00000
     10       3.9531      0.00000

 k-point   119 :       0.4000    0.2667    0.1333
  band No.  band energies     occupation 
      1     -46.7360      2.00000
      2     -46.7286      2.00000
      3     -46.7120      2.00000
      4     -46.7094      2.00000
      5      -1.6305      2.00000
      6      -0.5176      2.00000
      7       1.0946      0.00000
      8       1.8854      0.00000
      9       3.0276      0.00000
     10       3.6972      0.00000

 k-point   120 :      -0.2667    0.4000    0.1333
  band No.  band energies     occupation 
      1     -46.7360      2.00000
      2     -46.7286      2.00000
      3     -46.7120      2.00000
      4     -46.7094      2.00000
      5      -1.6305      2.00000
      6      -0.5175      2.00000
      7       1.0944      0.00000
      8       1.8853      0.00000
      9       3.0279      0.00000
     10       3.6987      0.00000

 k-point   121 :       0.4667    0.2667    0.1333
  band No.  band energies     occupation 
      1     -46.7335      2.00000
      2     -46.7310      2.00000
      3     -46.7112      2.00000
      4     -46.7103      2.00000
      5      -1.3054      2.00000
      6      -0.9329      2.00000
      7       1.3633      0.00000
      8       1.6456      0.00000
      9       3.1720      0.00000
     10       3.4164      0.00000

 k-point   122 :      -0.2667    0.4667    0.1333
  band No.  band energies     occupation 
      1     -46.7335      2.00000
      2     -46.7310      2.00000
      3     -46.7112      2.00000
      4     -46.7103      2.00000
      5      -1.3054      2.00000
      6      -0.9328      2.00000
      7       1.3630      0.00000
      8       1.6453      0.00000
      9       3.1728      0.00000
     10       3.4176      0.00000

 k-point   123 :       0.3333    0.3333    0.1333
  band No.  band energies     occupation 
      1     -46.7365      2.00000
      2     -46.7273      2.00000
      3     -46.7128      2.00000
      4     -46.7094      2.00000
      5      -1.6825      2.00000
      6      -0.0714      2.00000
      7       0.5777      0.00001
      8       1.8397      0.00000
      9       2.9982      0.00000
     10       3.9743      0.00000

 k-point   124 :       0.4000    0.3333    0.1333
  band No.  band energies     occupation 
      1     -46.7345      2.00000
      2     -46.7286      2.00000
      3     -46.7126      2.00000
      4     -46.7103      2.00000
      5      -1.4104      2.00000
      6      -0.3568      2.00000
      7       0.6548      0.00000
      8       1.5521      0.00000
      9       3.1097      0.00000
     10       3.8448      0.00000

 k-point   125 :      -0.3333    0.4000    0.1333
  band No.  band energies     occupation 
      1     -46.7345      2.00000
      2     -46.7286      2.00000
      3     -46.7126      2.00000
      4     -46.7103      2.00000
      5      -1.4104      2.00000
      6      -0.3568      2.00000
      7       0.6547      0.00000
      8       1.5520      0.00000
      9       3.1100      0.00000
     10       3.8458      0.00000

 k-point   126 :       0.4667    0.3333    0.1333
  band No.  band energies     occupation 
      1     -46.7324      2.00000
      2     -46.7304      2.00000
      3     -46.7121      2.00000
      4     -46.7112      2.00000
      5      -1.0921      2.00000
      6      -0.7337      2.00000
      7       0.9089      0.00000
      8       1.2223      0.00000
      9       3.3269      0.00000
     10       3.5923      0.00000

 k-point   127 :      -0.3333    0.4667    0.1333
  band No.  band energies     occupation 
      1     -46.7324      2.00000
      2     -46.7304      2.00000
      3     -46.7121      2.00000
      4     -46.7112      2.00000
      5      -1.0921      2.00000
      6      -0.7336      2.00000
      7       0.9087      0.00000
      8       1.2221      0.00000
      9       3.3276      0.00000
     10       3.5933      0.00000

 k-point   128 :       0.4000    0.4000    0.1333
  band No.  band energies     occupation 
      1     -46.7329      2.00000
      2     -46.7291      2.00000
      3     -46.7129      2.00000
      4     -46.7112      2.00000
      5      -1.1453      2.00000
      6      -0.3065      2.00000
      7       0.4089      2.00000
      8       1.1749      0.00000
      9       3.2991      0.00000
     10       3.9341      0.00000

 k-point   129 :       0.4667    0.4000    0.1333
  band No.  band energies     occupation 
      1     -46.7314      2.00000
      2     -46.7300      2.00000
      3     -46.7127      2.00000
      4     -46.7121      2.00000
      5      -0.8422      2.00000
      6      -0.5257      2.00000
      7       0.5205      0.75561
      8       0.8155      0.00000
      9       3.5458      0.00000
     10       3.7998      0.00000

 k-point   130 :      -0.4000    0.4667    0.1333
  band No.  band energies     occupation 
      1     -46.7314      2.00000
      2     -46.7300      2.00000
      3     -46.7127      2.00000
      4     -46.7121      2.00000
      5      -0.8422      2.00000
      6      -0.5257      2.00000
      7       0.5205      0.75969
      8       0.8155      0.00000
      9       3.5462      0.00000
     10       3.8004      0.00000

 k-point   131 :       0.4667    0.4667    0.1333
  band No.  band energies     occupation 
      1     -46.7305      2.00000
      2     -46.7300      2.00000
      3     -46.7129      2.00000
      4     -46.7127      2.00000
      5      -0.5822      2.00000
      6      -0.4243      2.00000
      7       0.3242      2.00000
      8       0.4758      1.99569
      9       3.7860      0.00000
     10       3.9233      0.00000

 k-point   132 :       0.2000    0.2000    0.2000
  band No.  band energies     occupation 
      1     -46.7426      2.00000
      2     -46.7230      2.00000
      3     -46.7131      2.00000
      4     -46.7075      2.00000
      5      -2.3587      2.00000
      6       0.7677      0.00000
      7       1.0504      0.00000
      8       1.4781      0.00000
      9       3.5072      0.00000
     10       4.3981      0.00000

 k-point   133 :       0.2667    0.2000    0.2000
  band No.  band energies     occupation 
      1     -46.7409      2.00000
      2     -46.7243      2.00000
      3     -46.7131      2.00000
      4     -46.7079      2.00000
      5      -2.1826      2.00000
      6       0.3999      2.00000
      7       1.1143      0.00000
      8       1.5118      0.00000
      9       3.4082      0.00000
     10       4.1575      0.00000

 k-point   134 :       0.3333    0.2000    0.2000
  band No.  band energies     occupation 
      1     -46.7387      2.00000
      2     -46.7262      2.00000
      3     -46.7127      2.00000
      4     -46.7085      2.00000
      5      -1.9561      2.00000
      6      -0.0879      2.00000
      7       1.3103      0.00000
      8       1.6333      0.00000
      9       3.2198      0.00000
     10       3.7443      0.00000

 k-point   135 :       0.4000    0.2000    0.2000
  band No.  band energies     occupation 
      1     -46.7363      2.00000
      2     -46.7285      2.00000
      3     -46.7120      2.00000
      4     -46.7093      2.00000
      5      -1.6793      2.00000
      6      -0.5531      2.00000
      7       1.5347      0.00000
      8       1.7620      0.00000
      9       3.0226      0.00000
     10       3.3416      0.00000

 k-point   136 :       0.4667    0.2000    0.2000
  band No.  band energies     occupation 
      1     -46.7337      2.00000
      2     -46.7310      2.00000
      3     -46.7111      2.00000
      4     -46.7102      2.00000
      5      -1.3524      2.00000
      6      -0.9763      2.00000
      7       1.7339      0.00000
      8       1.8221      0.00000
      9       2.9276      0.00000
     10       3.0408      0.00000

 k-point   137 :       0.2667    0.2667    0.2000
  band No.  band energies     occupation 
      1     -46.7392      2.00000
      2     -46.7250      2.00000
      3     -46.7135      2.00000
      4     -46.7084      2.00000
      5      -2.0072      2.00000
      6       0.3902      2.00000
      7       0.8600      0.00000
      8       1.5097      0.00000
      9       3.2839      0.00000
     10       4.0025      0.00000

 k-point   138 :       0.3333    0.2667    0.2000
  band No.  band energies     occupation 
      1     -46.7372      2.00000
      2     -46.7263      2.00000
      3     -46.7134      2.00000
      4     -46.7092      2.00000
      5      -1.7818      2.00000
      6       0.0368      2.00000
      7       0.9316      0.00000
      8       1.6064      0.00000
      9       3.0483      0.00000
     10       3.6925      0.00000

 k-point   139 :      -0.2667    0.3333    0.2000
  band No.  band energies     occupation 
      1     -46.7372      2.00000
      2     -46.7263      2.00000
      3     -46.7134      2.00000
      4     -46.7092      2.00000
      5      -1.7818      2.00000
      6       0.0368      2.00000
      7       0.9315      0.00000
      8       1.6065      0.00000
      9       3.0481      0.00000
     10       3.6931      0.00000

 k-point   140 :       0.4000    0.2667    0.2000
  band No.  band energies     occupation 
      1     -46.7350      2.00000
      2     -46.7281      2.00000
      3     -46.7129      2.00000
      4     -46.7101      2.00000
      5      -1.5068      2.00000
      6      -0.4000      2.00000
      7       1.1464      0.00000
      8       1.6644      0.00000
      9       2.8528      0.00000
     10       3.3311      0.00000

 k-point   141 :      -0.2667    0.4000    0.2000
  band No.  band energies     occupation 
      1     -46.7350      2.00000
      2     -46.7281      2.00000
      3     -46.7129      2.00000
      4     -46.7101      2.00000
      5      -1.5068      2.00000
      6      -0.4000      2.00000
      7       1.1462      0.00000
      8       1.6644      0.00000
      9       2.8527      0.00000
     10       3.3318      0.00000

 k-point   142 :       0.4667    0.2667    0.2000
  band No.  band energies     occupation 
      1     -46.7326      2.00000
      2     -46.7303      2.00000
      3     -46.7120      2.00000
      4     -46.7111      2.00000
      5      -1.1830      2.00000
      6      -0.8124      2.00000
      7       1.3877      0.00000
      8       1.5894      0.00000
      9       2.8394      0.00000
     10       3.0247      0.00000

 k-point   143 :      -0.2667    0.4667    0.2000
  band No.  band energies     occupation 
      1     -46.7326      2.00000
      2     -46.7303      2.00000
      3     -46.7120      2.00000
      4     -46.7111      2.00000
      5      -1.1830      2.00000
      6      -0.8124      2.00000
      7       1.3875      0.00000
      8       1.5893      0.00000
      9       2.8397      0.00000
     10       3.0252      0.00000

 k-point   144 :       0.3333    0.3333    0.2000
  band No.  band energies     occupation 
      1     -46.7355      2.00000
      2     -46.7269      2.00000
      3     -46.7137      2.00000
      4     -46.7101      2.00000
      5      -1.5583      2.00000
      6       0.0516      2.00000
      7       0.6453      0.00000
      8       1.6142      0.00000
      9       2.8264      0.00000
     10       3.7136      0.00000

 k-point   145 :       0.4000    0.3333    0.2000
  band No.  band energies     occupation 
      1     -46.7335      2.00000
      2     -46.7280      2.00000
      3     -46.7135      2.00000
      4     -46.7111      2.00000
      5      -1.2868      2.00000
      6      -0.2353      2.00000
      7       0.7287      0.00000
      8       1.4955      0.00000
      9       2.7711      0.00000
     10       3.4875      0.00000

 k-point   146 :      -0.3333    0.4000    0.2000
  band No.  band energies     occupation 
      1     -46.7335      2.00000
      2     -46.7280      2.00000
      3     -46.7135      2.00000
      4     -46.7111      2.00000
      5      -1.2868      2.00000
      6      -0.2352      2.00000
      7       0.7286      0.00000
      8       1.4954      0.00000
      9       2.7712      0.00000
     10       3.4881      0.00000

 k-point   147 :       0.4667    0.3333    0.2000
  band No.  band energies     occupation 
      1     -46.7315      2.00000
      2     -46.7296      2.00000
      3     -46.7129      2.00000
      4     -46.7121      2.00000
      5      -0.9694      2.00000
      6      -0.6120      2.00000
      7       0.9735      0.00000
      8       1.2527      0.00000
      9       2.9127      0.00000
     10       3.1743      0.00000

 k-point   148 :      -0.3333    0.4667    0.2000
  band No.  band energies     occupation 
      1     -46.7315      2.00000
      2     -46.7296      2.00000
      3     -46.7129      2.00000
      4     -46.7121      2.00000
      5      -0.9694      2.00000
      6      -0.6120      2.00000
      7       0.9734      0.00000
      8       1.2526      0.00000
      9       2.9130      0.00000
     10       3.1749      0.00000

 k-point   149 :       0.4000    0.4000    0.2000
  band No.  band energies     occupation 
      1     -46.7319      2.00000
      2     -46.7283      2.00000
      3     -46.7138      2.00000
      4     -46.7120      2.00000
      5      -1.0219      2.00000
      6      -0.1793      2.00000
      7       0.4865      1.96369
      8       1.2059      0.00000
      9       2.8783      0.00000
     10       3.6045      0.00000

 k-point   150 :       0.4667    0.4000    0.2000
  band No.  band energies     occupation 
      1     -46.7304      2.00000
      2     -46.7291      2.00000
      3     -46.7136      2.00000
      4     -46.7130      2.00000
      5      -0.7189      2.00000
      6      -0.4012      2.00000
      7       0.5997      0.00000
      8       0.8827      0.00000
      9       3.1067      0.00000
     10       3.3948      0.00000

 k-point   151 :      -0.4000    0.4667    0.2000
  band No.  band energies     occupation 
      1     -46.7304      2.00000
      2     -46.7291      2.00000
      3     -46.7136      2.00000
      4     -46.7130      2.00000
      5      -0.7189      2.00000
      6      -0.4012      2.00000
      7       0.5997      0.00000
      8       0.8827      0.00000
      9       3.1068      0.00000
     10       3.3952      0.00000

 k-point   152 :       0.4667    0.4667    0.2000
  band No.  band energies     occupation 
      1     -46.7295      2.00000
      2     -46.7290      2.00000
      3     -46.7139      2.00000
      4     -46.7137      2.00000
      5      -0.4568      2.00000
      6      -0.2957      2.00000
      7       0.4049      2.00000
      8       0.5561      0.00471
      9       3.3656      0.00000
     10       3.5605      0.00000

 k-point   153 :       0.2667    0.2667    0.2667
  band No.  band energies     occupation 
      1     -46.7377      2.00000
      2     -46.7254      2.00000
      3     -46.7140      2.00000
      4     -46.7091      2.00000
      5      -1.8323      2.00000
      6       0.4547      1.99999
      7       0.7972      0.00000
      8       1.2699      0.00000
      9       3.2607      0.00000
     10       3.8620      0.00000

 k-point   154 :       0.3333    0.2667    0.2667
  band No.  band energies     occupation 
      1     -46.7358      2.00000
      2     -46.7262      2.00000
      3     -46.7141      2.00000
      4     -46.7100      2.00000
      5      -1.6079      2.00000
      6       0.1729      2.00000
      7       0.8861      0.00000
      8       1.3089      0.00000
      9       3.0664      0.00000
     10       3.4199      0.00000

 k-point   155 :       0.4000    0.2667    0.2667
  band No.  band energies     occupation 
      1     -46.7337      2.00000
      2     -46.7276      2.00000
      3     -46.7138      2.00000
      4     -46.7110      2.00000
      5      -1.3345      2.00000
      6      -0.2440      2.00000
      7       1.1028      0.00000
      8       1.4030      0.00000
      9       2.8233      0.00000
     10       3.0102      0.00000

 k-point   156 :       0.4667    0.2667    0.2667
  band No.  band energies     occupation 
      1     -46.7316      2.00000
      2     -46.7294      2.00000
      3     -46.7130      2.00000
      4     -46.7120      2.00000
      5      -1.0135      2.00000
      6      -0.6477      2.00000
      7       1.3152      0.00000
      8       1.4305      0.00000
      9       2.6775      0.00000
     10       2.7411      0.00000

 k-point   157 :       0.3333    0.3333    0.2667
  band No.  band energies     occupation 
      1     -46.7341      2.00000
      2     -46.7264      2.00000
      3     -46.7146      2.00000
      4     -46.7110      2.00000
      5      -1.3852      2.00000
      6       0.2081      2.00000
      7       0.7027      0.00000
      8       1.2973      0.00000
      9       2.8499      0.00000
     10       3.3819      0.00000

 k-point   158 :       0.4000    0.3333    0.2667
  band No.  band energies     occupation 
      1     -46.7322      2.00000
      2     -46.7272      2.00000
      3     -46.7146      2.00000
      4     -46.7120      2.00000
      5      -1.1150      2.00000
      6      -0.0734      2.00000
      7       0.8038      0.00000
      8       1.3220      0.00000
      9       2.6292      0.00000
     10       3.0820      0.00000

 k-point   159 :      -0.3333    0.4000    0.2667
  band No.  band energies     occupation 
      1     -46.7322      2.00000
      2     -46.7272      2.00000
      3     -46.7146      2.00000
      4     -46.7121      2.00000
      5      -1.1150      2.00000
      6      -0.0733      2.00000
      7       0.8037      0.00000
      8       1.3220      0.00000
      9       2.6291      0.00000
     10       3.0823      0.00000

 k-point   160 :       0.4667    0.3333    0.2667
  band No.  band energies     occupation 
      1     -46.7304      2.00000
      2     -46.7286      2.00000
      3     -46.7140      2.00000
      4     -46.7131      2.00000
      5      -0.7998      2.00000
      6      -0.4458      2.00000
      7       1.0278      0.00000
      8       1.2311      0.00000
      9       2.6016      0.00000
     10       2.7783      0.00000

 k-point   161 :      -0.3333    0.4667    0.2667
  band No.  band energies     occupation 
      1     -46.7304      2.00000
      2     -46.7286      2.00000
      3     -46.7140      2.00000
      4     -46.7131      2.00000
      5      -0.7998      2.00000
      6      -0.4458      2.00000
      7       1.0277      0.00000
      8       1.2311      0.00000
      9       2.6017      0.00000
     10       2.7785      0.00000

 k-point   162 :       0.4000    0.4000    0.2667
  band No.  band energies     occupation 
      1     -46.7306      2.00000
      2     -46.7273      2.00000
      3     -46.7150      2.00000
      4     -46.7132      2.00000
      5      -0.8509      2.00000
      6      -0.0084      2.00000
      7       0.5809      0.00000
      8       1.1866      0.00000
      9       2.5663      0.00000
     10       3.2293      0.00000

 k-point   163 :       0.4667    0.4000    0.2667
  band No.  band energies     occupation 
      1     -46.7291      2.00000
      2     -46.7279      2.00000
      3     -46.7149      2.00000
      4     -46.7142      2.00000
      5      -0.5491      2.00000
      6      -0.2317      2.00000
      7       0.6950      0.00000
      8       0.9476      0.00000
      9       2.7047      0.00000
     10       2.9705      0.00000

 k-point   164 :      -0.4000    0.4667    0.2667
  band No.  band energies     occupation 
      1     -46.7291      2.00000
      2     -46.7279      2.00000
      3     -46.7149      2.00000
      4     -46.7142      2.00000
      5      -0.5491      2.00000
      6      -0.2317      2.00000
      7       0.6950      0.00000
      8       0.9476      0.00000
      9       2.7047      0.00000
     10       2.9707      0.00000

 k-point   165 :       0.4667    0.4667    0.2667
  band No.  band energies     occupation 
      1     -46.7282      2.00000
      2     -46.7278      2.00000
      3     -46.7152      2.00000
      4     -46.7149      2.00000
      5      -0.2855      2.00000
      6      -0.1207      2.00000
      7       0.5079      1.43793
      8       0.6548      0.00000
      9       2.9359      0.00000
     10       3.1788      0.00000

 k-point   166 :       0.3333    0.3333    0.3333
  band No.  band energies     occupation 
      1     -46.7325      2.00000
      2     -46.7262      2.00000
      3     -46.7153      2.00000
      4     -46.7120      2.00000
      5      -1.1640      2.00000
      6       0.3153      2.00000
      7       0.6772      0.00000
      8       1.1183      0.00000
      9       2.8939      0.00000
     10       3.1620      0.00000

 k-point   167 :       0.4000    0.3333    0.3333
  band No.  band energies     occupation 
      1     -46.7308      2.00000
      2     -46.7265      2.00000
      3     -46.7156      2.00000
      4     -46.7133      2.00000
      5      -0.8966      2.00000
      6       0.1073      2.00000
      7       0.7850      0.00000
      8       1.1319      0.00000
      9       2.6547      0.00000
     10       2.7523      0.00000

 k-point   168 :       0.4667    0.3333    0.3333
  band No.  band energies     occupation 
      1     -46.7290      2.00000
      2     -46.7275      2.00000
      3     -46.7152      2.00000
      4     -46.7144      2.00000
      5      -0.5866      2.00000
      6      -0.2426      2.00000
      7       0.9870      0.00000
      8       1.1208      0.00000
      9       2.4792      0.00000
     10       2.5173      0.00000

 k-point   169 :       0.4000    0.4000    0.3333
  band No.  band energies     occupation 
      1     -46.7292      2.00000
      2     -46.7262      2.00000
      3     -46.7163      2.00000
      4     -46.7145      2.00000
      5      -0.6349      2.00000
      6       0.1908      2.00000
      7       0.6590      0.00000
      8       1.0730      0.00000
      9       2.4583      0.00000
     10       2.8745      0.00000

 k-point   170 :       0.4667    0.4000    0.3333
  band No.  band energies     occupation 
      1     -46.7277      2.00000
      2     -46.7266      2.00000
      3     -46.7163      2.00000
      4     -46.7156      2.00000
      5      -0.3371      2.00000
      6      -0.0255      2.00000
      7       0.7754      0.00000
      8       0.9643      0.00000
      9       2.4268      0.00000
     10       2.5987      0.00000

 k-point   171 :      -0.4000    0.4667    0.3333
  band No.  band energies     occupation 
      1     -46.7277      2.00000
      2     -46.7266      2.00000
      3     -46.7163      2.00000
      4     -46.7156      2.00000
      5      -0.3371      2.00000
      6      -0.0255      2.00000
      7       0.7754      0.00000
      8       0.9642      0.00000
      9       2.4268      0.00000
     10       2.5988      0.00000

 k-point   172 :       0.4667    0.4667    0.3333
  band No.  band energies     occupation 
      1     -46.7266      2.00000
      2     -46.7262      2.00000
      3     -46.7168      2.00000
      4     -46.7165      2.00000
      5      -0.0744      2.00000
      6       0.0921      2.00000
      7       0.6157      0.00000
      8       0.7476      0.00000
      9       2.5648      0.00000
     10       2.8111      0.00000

 k-point   173 :       0.4000    0.4000    0.4000
  band No.  band energies     occupation 
      1     -46.7276      2.00000
      2     -46.7254      2.00000
      3     -46.7173      2.00000
      4     -46.7158      2.00000
      5      -0.3783      2.00000
      6       0.3397      2.00000
      7       0.6609      0.00000
      8       0.9650      0.00000
      9       2.5332      0.00000
     10       2.5661      0.00000

 k-point   174 :       0.4667    0.4000    0.4000
  band No.  band energies     occupation 
      1     -46.7262      2.00000
      2     -46.7253      2.00000
      3     -46.7176      2.00000
      4     -46.7170      2.00000
      5      -0.0917      2.00000
      6       0.1948      2.00000
      7       0.7670      0.00000
      8       0.9023      0.00000
      9       2.3402      0.00000
     10       2.3733      0.00000

 k-point   175 :       0.4667    0.4667    0.4000
  band No.  band energies     occupation 
      1     -46.7249      2.00000
      2     -46.7246      2.00000
      3     -46.7184      2.00000
      4     -46.7182      2.00000
      5       0.1635      2.00000
      6       0.3233      2.00000
      7       0.6876      0.00000
      8       0.7893      0.00000
      9       2.3233      0.00000
     10       2.4831      0.00000

 k-point   176 :       0.4667    0.4667    0.4667
  band No.  band energies     occupation 
      1     -46.7233      2.00000
      2     -46.7231      2.00000
      3     -46.7199      2.00000
      4     -46.7197      2.00000
      5       0.3974      2.00000
      6       0.5032      1.63949
      7       0.6765      0.00000
      8       0.7460      0.00000
      9       2.2715      0.00000
     10       2.3102      0.00000


--------------------------------------------------------------------------------------------------------


 soft charge-density along one line, spin component            1
         0         1         2         3         4         5         6         7         8         9
 total charge-density along one line
 
 pseudopotential strength for first ion, spin component:            1
-41.269   2.730   0.000   0.000  -0.000
  2.730  -9.073   0.000   0.000  -0.000
  0.000   0.000   0.129   0.000  -0.000
  0.000   0.000   0.000   0.129  -0.000
 -0.000  -0.000  -0.000  -0.000   0.129
 total augmentation occupancy for first ion, spin component:            1
  2.001   0.006  -0.000  -0.000   0.000
  0.006   0.925  -0.000  -0.000   0.000
 -0.000  -0.000   0.019  -0.001   0.001
 -0.000  -0.000  -0.001   0.019   0.001
  0.000   0.000   0.001   0.001   0.019


------------------------ aborting loop because EDIFF is reached ----------------------------------------


    CHARGE:  cpu time      0.1833: real time      0.1837
    FORLOC:  cpu time      0.0008: real time      0.0008
    FORNL :  cpu time      0.3856: real time      0.3862
    STRESS:  cpu time      3.5526: real time      3.5604
    FORHAR:  cpu time      0.0014: real time      0.0014
    MIXING:  cpu time      0.0045: real time      0.0045
    OFIELD:  cpu time      0.0000: real time      0.0000

  FORCE on cell =-STRESS in cart. coord.  units (eV):
  Direction    XX          YY          ZZ          XY          YZ          ZX
  --------------------------------------------------------------------------------------
  Alpha Z     4.09167     4.09167     4.09167
  Ewald     -85.38941   -85.38941   -85.38941     0.00000     0.00000    -0.00000
  Hartree    57.99861    57.99861    57.99861    -0.00000    -0.00000    -0.00000
  E(xc)     -52.87383   -52.87383   -52.87383     0.00000    -0.00000    -0.00000
  Local     -86.02638   -86.02638   -86.02638    -0.00000    -0.00000    -0.00000
  n-local   -74.98535   -75.27027   -76.40157    -0.02811     0.17253    -0.04320
  augment    68.95599    68.95599    68.95599     0.00000     0.00000     0.00000
  Kinetic   171.65670   170.29004   164.02059    -0.63871     0.67900    -0.50560
  Fock        0.00000     0.00000     0.00000     0.00000     0.00000     0.00000
  -------------------------------------------------------------------------------------
  Total      -0.13996    -0.13996    -0.13996     0.00000     0.00000     0.00000
  in kB      -2.49116    -2.49116    -2.49116     0.00000     0.00000     0.00000
  external pressure =       -2.49 kB  Pullay stress =        0.00 kB


 VOLUME and BASIS-vectors are now :
 -----------------------------------------------------------------------------
  energy-cutoff  :      600.00
  volume of cell :       90.02
      direct lattice vectors                 reciprocal lattice vectors
     4.481678118  0.000000000 -0.000000000     0.223130705 -0.000000000  0.000000000
     0.000000000  4.481678118  0.000000000    -0.000000000  0.223130705 -0.000000000
     0.000000000  0.000000000  4.481678118     0.000000000 -0.000000000  0.223130705

  length of vectors
     4.481678118  4.481678118  4.481678118     0.223130705  0.223130705  0.223130705


 FORCES acting on ions
    electron-ion (+dipol)            ewald-force                    non-local-force                 convergence-correction
 -----------------------------------------------------------------------------------------------
   0.150E-01 -.150E-01 -.150E-01   -.174E-01 0.174E-01 0.174E-01   -.191E-02 0.191E-02 0.191E-02   0.231E-02 -.231E-02 -.231E-02
   0.150E-01 0.150E-01 0.150E-01   -.174E-01 -.174E-01 -.174E-01   -.191E-02 -.191E-02 -.191E-02   0.231E-02 0.231E-02 0.231E-02
   -.150E-01 -.150E-01 0.150E-01   0.174E-01 0.174E-01 -.174E-01   0.191E-02 0.191E-02 -.191E-02   -.231E-02 -.231E-02 0.231E-02
   -.150E-01 0.150E-01 -.150E-01   0.174E-01 -.174E-01 0.174E-01   0.191E-02 -.191E-02 0.191E-02   -.231E-02 0.231E-02 -.231E-02
 -----------------------------------------------------------------------------------------------
   -.766E-09 -.164E-08 0.317E-10   0.142E-15 -.323E-15 0.555E-16   0.108E-17 -.130E-17 -.108E-17   0.230E-14 0.282E-13 0.511E-13
 
 
 POSITION                                       TOTAL-FORCE (eV/Angst)
 -----------------------------------------------------------------------------------
      3.92001      0.56167      2.80251        -0.001972      0.001972      0.001972
      1.67917      1.67917      1.67917        -0.001972     -0.001972     -0.001972
      0.56167      2.80251      3.92001         0.001972      0.001972     -0.001972
      2.80251      3.92001      0.56167         0.001972     -0.001972      0.001972
 -----------------------------------------------------------------------------------
    total drift:                               -0.000000     -0.000000      0.000000


--------------------------------------------------------------------------------------------------------



  FREE ENERGIE OF THE ION-ELECTRON SYSTEM (eV)
  ---------------------------------------------------
  free  energy   TOTEN  =        -6.57329134 eV

  energy  without entropy=       -6.57295620  energy(sigma->0) =       -6.57312377
 d Force =-0.1446121E-04[-0.144E-04,-0.145E-04]  d Energy =-0.1473889E-02 0.146E-02
 d Force =-0.1545998E-03[-0.127E-03,-0.182E-03]  d Ewald  =-0.1818218E+01 0.182E+01
 


--------------------------------------------------------------------------------------------------------


    POTLOK:  cpu time      0.0103: real time      0.0104


--------------------------------------------------------------------------------------------------------


 Quasi-Newton relaxation of ions (Broydens 2nd method)
  g(Force)  = 0.225E-05   g(Stress)= 0.709E-03

 retain information from N=  1 steps
 eigenvalues of (default step * inverse Hessian matrix)
  average eigenvalue of G=  12.4435
 eigenvalue spectrum of G is 12.4435


--------------------------------------------------------------------------------------------------------


      MLFF:  cpu time      0.0116: real time      0.0117
    WAVPRE:  cpu time      0.0245: real time      0.0246
    FEWALD:  cpu time      0.0014: real time      0.0014
    GENKIN:  cpu time      0.0424: real time      0.0425
    ORTHCH:  cpu time      0.2054: real time      0.2058
     LOOP+:  cpu time     13.4054: real time     13.4414


--------------------------------------- Ionic step        4  -------------------------------------------




--------------------------------------- Iteration      4(   1)  ---------------------------------------


    POTLOK:  cpu time      0.0050: real time      0.0051
    SETDIJ:  cpu time      0.0024: real time      0.0024
     EDDAV:  cpu time      1.7905: real time      1.7958
       DOS:  cpu time      0.0006: real time      0.0006
    CHARGE:  cpu time      0.1697: real time      0.1700
    MIXING:  cpu time      0.0040: real time      0.0040
    --------------------------------------------
      LOOP:  cpu time      1.9724: real time      1.9780

 eigenvalue-minimisations  :  4192
 total energy-change (2. order) :-0.7949789E-02  (-0.1240755E+00)
 number of electron      11.9999982 magnetization 
 augmentation part        3.6192607 magnetization 

 Broyden mixing:
  rms(total) = 0.20887E+00    rms(broyden)= 0.20833E+00
  rms(prec ) = 0.27822E+00
  weight for this iteration     100.00

 Free energy of the ion-electron system (eV)
  ---------------------------------------------------
  alpha Z        PSCENC =         4.36072698
  Ewald energy   TEWEN  =      -261.66484013
  -Hartree energ DENC   =      -177.74760548
  -exchange      EXHF   =         0.00000000
  -V(xc)+E(xc)   XCENC  =        49.02166501
  PAW double counting   =       323.15068767     -385.04045260
  entropy T*S    EENTRO =        -0.00024527
  eigenvalues    EBANDS =      -369.76425836
  atomic energy  EATOM  =       811.10301397
  Solvation  Ediel_sol  =         0.00000000
  ---------------------------------------------------
  free energy    TOTEN  =        -6.58130820 eV

  energy without entropy =       -6.58106294  energy(sigma->0) =       -6.58118557


--------------------------------------------------------------------------------------------------------




--------------------------------------- Iteration      4(   2)  ---------------------------------------


    POTLOK:  cpu time      0.0050: real time      0.0050
    SETDIJ:  cpu time      0.0024: real time      0.0024
     EDDAV:  cpu time      2.0469: real time      2.0525
       DOS:  cpu time      0.0007: real time      0.0007
    CHARGE:  cpu time      0.1688: real time      0.1691
    MIXING:  cpu time      0.0040: real time      0.0040
    --------------------------------------------
      LOOP:  cpu time      2.2277: real time      2.2336

 eigenvalue-minimisations  :  4998
 total energy-change (2. order) :-0.1189598E-01  (-0.3846305E-01)
 number of electron      11.9999982 magnetization 
 augmentation part        3.7145157 magnetization 

 Broyden mixing:
  rms(total) = 0.16959E+00    rms(broyden)= 0.16934E+00
  rms(prec ) = 0.22614E+00
  weight for this iteration     100.00

 eigenvalues of (default mixing * dielectric matrix)
  average eigenvalue GAMMA=   4.9225
  4.9225

 Free energy of the ion-electron system (eV)
  ---------------------------------------------------
  alpha Z        PSCENC =         4.36072698
  Ewald energy   TEWEN  =      -261.66484013
  -Hartree energ DENC   =      -175.59310631
  -exchange      EXHF   =         0.00000000
  -V(xc)+E(xc)   XCENC  =        48.72463052
  PAW double counting   =       325.48628774     -387.33465857
  entropy T*S    EENTRO =        -0.00025559
  eigenvalues    EBANDS =      -371.67500279
  atomic energy  EATOM  =       811.10301397
  Solvation  Ediel_sol  =         0.00000000
  ---------------------------------------------------
  free energy    TOTEN  =        -6.59320418 eV

  energy without entropy =       -6.59294859  energy(sigma->0) =       -6.59307639


--------------------------------------------------------------------------------------------------------




--------------------------------------- Iteration      4(   3)  ---------------------------------------


    POTLOK:  cpu time      0.0049: real time      0.0050
    SETDIJ:  cpu time      0.0024: real time      0.0024
     EDDAV:  cpu time      2.4478: real time      2.4545
       DOS:  cpu time      0.0006: real time      0.0006
    CHARGE:  cpu time      0.1679: real time      0.1682
    MIXING:  cpu time      0.0041: real time      0.0041
    --------------------------------------------
      LOOP:  cpu time      2.6277: real time      2.6348

 eigenvalue-minimisations  :  6356
 total energy-change (2. order) : 0.4197148E-02  (-0.1314781E-01)
 number of electron      11.9999982 magnetization 
 augmentation part        3.6351497 magnetization 

 Broyden mixing:
  rms(total) = 0.19198E+00    rms(broyden)= 0.19196E+00
  rms(prec ) = 0.25495E+00
  weight for this iteration     100.00

 eigenvalues of (default mixing * dielectric matrix)
  average eigenvalue GAMMA=   1.6777
  0.9008  2.4546

 Free energy of the ion-electron system (eV)
  ---------------------------------------------------
  alpha Z        PSCENC =         4.36072698
  Ewald energy   TEWEN  =      -261.66484013
  -Hartree energ DENC   =      -167.09045819
  -exchange      EXHF   =         0.00000000
  -V(xc)+E(xc)   XCENC  =        47.63002241
  PAW double counting   =       320.39320762     -382.00357631
  entropy T*S    EENTRO =        -0.00028486
  eigenvalues    EBANDS =      -379.31681851
  atomic energy  EATOM  =       811.10301397
  Solvation  Ediel_sol  =         0.00000000
  ---------------------------------------------------
  free energy    TOTEN  =        -6.58900703 eV

  energy without entropy =       -6.58872217  energy(sigma->0) =       -6.58886460


--------------------------------------------------------------------------------------------------------




--------------------------------------- Iteration      4(   4)  ---------------------------------------


    POTLOK:  cpu time      0.0050: real time      0.0050
    SETDIJ:  cpu time      0.0024: real time      0.0024
     EDDAV:  cpu time      2.1305: real time      2.1363
       DOS:  cpu time      0.0006: real time      0.0006
    CHARGE:  cpu time      0.1681: real time      0.1684
    MIXING:  cpu time      0.0041: real time      0.0041
    --------------------------------------------
      LOOP:  cpu time      2.3107: real time      2.3168

 eigenvalue-minimisations  :  5316
 total energy-change (2. order) : 0.1926927E-01  (-0.3346182E-02)
 number of electron      11.9999982 magnetization 
 augmentation part        3.6609599 magnetization 

 Broyden mixing:
  rms(total) = 0.10853E-01    rms(broyden)= 0.10807E-01
  rms(prec ) = 0.14048E-01
  weight for this iteration     100.00

 eigenvalues of (default mixing * dielectric matrix)
  average eigenvalue GAMMA=   1.5991
  2.4248  1.1862  1.1862

 Free energy of the ion-electron system (eV)
  ---------------------------------------------------
  alpha Z        PSCENC =         4.36072698
  Ewald energy   TEWEN  =      -261.66484013
  -Hartree energ DENC   =      -171.45443911
  -exchange      EXHF   =         0.00000000
  -V(xc)+E(xc)   XCENC  =        48.18692474
  PAW double counting   =       324.06409597     -385.83391919
  entropy T*S    EENTRO =        -0.00026880
  eigenvalues    EBANDS =      -375.33103220
  atomic energy  EATOM  =       811.10301397
  Solvation  Ediel_sol  =         0.00000000
  ---------------------------------------------------
  free energy    TOTEN  =        -6.56973776 eV

  energy without entropy =       -6.56946897  energy(sigma->0) =       -6.56960336


--------------------------------------------------------------------------------------------------------




--------------------------------------- Iteration      4(   5)  ---------------------------------------


    POTLOK:  cpu time      0.0050: real time      0.0050
    SETDIJ:  cpu time      0.0024: real time      0.0024
     EDDAV:  cpu time      1.9162: real time      1.9216
       DOS:  cpu time      0.0006: real time      0.0006
    CHARGE:  cpu time      0.1681: real time      0.1684
    MIXING:  cpu time      0.0045: real time      0.0045
    --------------------------------------------
      LOOP:  cpu time      2.0968: real time      2.1026

 eigenvalue-minimisations  :  4494
 total energy-change (2. order) :-0.8107952E-03  (-0.7402871E-03)
 number of electron      11.9999982 magnetization 
 augmentation part        3.6711387 magnetization 

 Broyden mixing:
  rms(total) = 0.21122E-02    rms(broyden)= 0.19223E-02
  rms(prec ) = 0.23718E-02
  weight for this iteration     100.00

 eigenvalues of (default mixing * dielectric matrix)
  average eigenvalue GAMMA=   1.5318
  2.5123  1.8807  0.6956  1.0388

 Free energy of the ion-electron system (eV)
  ---------------------------------------------------
  alpha Z        PSCENC =         4.36072698
  Ewald energy   TEWEN  =      -261.66484013
  -Hartree energ DENC   =      -171.55747536
  -exchange      EXHF   =         0.00000000
  -V(xc)+E(xc)   XCENC  =        48.19775453
  PAW double counting   =       325.21027721     -387.00225394
  entropy T*S    EENTRO =        -0.00026860
  eigenvalues    EBANDS =      -375.21748322
  atomic energy  EATOM  =       811.10301397
  Solvation  Ediel_sol  =         0.00000000
  ---------------------------------------------------
  free energy    TOTEN  =        -6.57054856 eV

  energy without entropy =       -6.57027996  energy(sigma->0) =       -6.57041426


--------------------------------------------------------------------------------------------------------




--------------------------------------- Iteration      4(   6)  ---------------------------------------


    POTLOK:  cpu time      0.0053: real time      0.0053
    SETDIJ:  cpu time      0.0024: real time      0.0024
     EDDAV:  cpu time      1.5043: real time      1.5085
       DOS:  cpu time      0.0006: real time      0.0006
    --------------------------------------------
      LOOP:  cpu time      1.5126: real time      1.5168

 eigenvalue-minimisations  :  3306
 total energy-change (2. order) :-0.5055947E-04  (-0.2425364E-04)
 number of electron      11.9999982 magnetization 
 augmentation part        3.6711387 magnetization 

 Free energy of the ion-electron system (eV)
  ---------------------------------------------------
  alpha Z        PSCENC =         4.36072698
  Ewald energy   TEWEN  =      -261.66484013
  -Hartree energ DENC   =      -171.57182119
  -exchange      EXHF   =         0.00000000
  -V(xc)+E(xc)   XCENC  =        48.19891851
  PAW double counting   =       325.87293140     -387.67898853
  entropy T*S    EENTRO =        -0.00026878
  eigenvalues    EBANDS =      -375.19027135
  atomic energy  EATOM  =       811.10301397
  Solvation  Ediel_sol  =         0.00000000
  ---------------------------------------------------
  free energy    TOTEN  =        -6.57059912 eV

  energy without entropy =       -6.57033034  energy(sigma->0) =       -6.57046473


--------------------------------------------------------------------------------------------------------




 average (electrostatic) potential at core
  the test charge radii are     0.7079
  (the norm of the test charge is              1.0000)
       1 -65.5803       2 -65.5803       3 -65.5803       4 -65.5803
 
 
 
 E-fermi :   0.7433     XC(G=0):  -6.9370     alpha+bet : -7.0839

 val. band max:        0.7296835863   @ k =   0.4667   0.4667   0.2667
 cond. band min:       0.7461714195   @ k =  -0.4000   0.4667   0.1333
 fundamental gap:      0.0164878332
 Fermi energy:         0.7432853454

 k-point     1 :       0.0000    0.0000    0.0000
  band No.  band energies     occupation 
      1     -46.5143      2.00000
      2     -46.4662      2.00000
      3     -46.4662      2.00000
      4     -46.4662      2.00000
      5      -2.9501      2.00000
      6       2.8966      0.00000
      7       2.8966      0.00000
      8       2.8967      0.00000
      9       3.0409      0.00000
     10       3.0409      0.00000

 k-point     2 :       0.0667    0.0000    0.0000
  band No.  band energies     occupation 
      1     -46.5139      2.00000
      2     -46.4689      2.00000
      3     -46.4661      2.00000
      4     -46.4640      2.00000
      5      -2.9244      2.00000
      6       2.2302      0.00000
      7       2.8967      0.00000
      8       2.9054      0.00000
      9       3.0309      0.00000
     10       3.0713      0.00000

 k-point     3 :       0.1333    0.0000    0.0000
  band No.  band energies     occupation 
      1     -46.5127      2.00000
      2     -46.4721      2.00000
      3     -46.4657      2.00000
      4     -46.4623      2.00000
      5      -2.8466      2.00000
      6       1.5183      0.00000
      7       2.8926      0.00000
      8       2.9306      0.00000
      9       3.1477      0.00000
     10       3.1620      0.00000

 k-point     4 :       0.2000    0.0000    0.0000
  band No.  band energies     occupation 
      1     -46.5108      2.00000
      2     -46.4758      2.00000
      3     -46.4652      2.00000
      4     -46.4612      2.00000
      5      -2.7169      2.00000
      6       0.8532      0.00000
      7       2.9149      0.00000
      8       2.9683      0.00000
      9       3.3071      0.00000
     10       3.3107      0.00000

 k-point     5 :       0.2667    0.0000    0.0000
  band No.  band energies     occupation 
      1     -46.5080      2.00000
      2     -46.4798      2.00000
      3     -46.4645      2.00000
      4     -46.4606      2.00000
      5      -2.5346      2.00000
      6       0.2399      2.00000
      7       2.9569      0.00000
      8       3.0126      0.00000
      9       3.5043      0.00000
     10       3.5119      0.00000

 k-point     6 :       0.3333    0.0000    0.0000
  band No.  band energies     occupation 
      1     -46.5048      2.00000
      2     -46.4840      2.00000
      3     -46.4636      2.00000
      4     -46.4604      2.00000
      5      -2.2999      2.00000
      6      -0.3197      2.00000
      7       3.0081      0.00000
      8       3.0557      0.00000
      9       3.7305      0.00000
     10       3.7522      0.00000

 k-point     7 :       0.4000    0.0000    0.0000
  band No.  band energies     occupation 
      1     -46.5011      2.00000
      2     -46.4884      2.00000
      3     -46.4626      2.00000
      4     -46.4605      2.00000
      5      -2.0119      2.00000
      6      -0.8247      2.00000
      7       3.0563      0.00000
      8       3.0880      0.00000
      9       3.9636      0.00000
     10       3.9983      0.00000

 k-point     8 :       0.4667    0.0000    0.0000
  band No.  band energies     occupation 
      1     -46.4971      2.00000
      2     -46.4928      2.00000
      3     -46.4618      2.00000
      4     -46.4610      2.00000
      5      -1.6705      2.00000
      6      -1.2749      2.00000
      7       3.0899      0.00000
      8       3.1010      0.00000
      9       4.1454      0.00000
     10       4.1667      0.00000

 k-point     9 :       0.0667    0.0667    0.0000
  band No.  band energies     occupation 
      1     -46.5135      2.00000
      2     -46.4700      2.00000
      3     -46.4662      2.00000
      4     -46.4632      2.00000
      5      -2.8985      2.00000
      6       2.1645      0.00000
      7       2.3440      0.00000
      8       2.9518      0.00000
      9       2.9955      0.00000
     10       3.6024      0.00000

 k-point    10 :       0.1333    0.0667    0.0000
  band No.  band energies     occupation 
      1     -46.5123      2.00000
      2     -46.4727      2.00000
      3     -46.4660      2.00000
      4     -46.4619      2.00000
      5      -2.8208      2.00000
      6       1.5273      0.00000
      7       2.3402      0.00000
      8       2.9847      0.00000
      9       3.0578      0.00000
     10       3.7583      0.00000

 k-point    11 :      -0.0667    0.1333    0.0000
  band No.  band energies     occupation 
      1     -46.5123      2.00000
      2     -46.4727      2.00000
      3     -46.4660      2.00000
      4     -46.4619      2.00000
      5      -2.8208      2.00000
      6       1.5274      0.00000
      7       2.3397      0.00000
      8       2.9870      0.00000
      9       3.0564      0.00000
     10       3.7576      0.00000

 k-point    12 :       0.2000    0.0667    0.0000
  band No.  band energies     occupation 
      1     -46.5104      2.00000
      2     -46.4760      2.00000
      3     -46.4655      2.00000
      4     -46.4610      2.00000
      5      -2.6910      2.00000
      6       0.8705      0.00000
      7       2.4332      0.00000
      8       3.0293      0.00000
      9       3.1642      0.00000
     10       3.8681      0.00000

 k-point    13 :      -0.0667    0.2000    0.0000
  band No.  band energies     occupation 
      1     -46.5104      2.00000
      2     -46.4760      2.00000
      3     -46.4655      2.00000
      4     -46.4610      2.00000
      5      -2.6910      2.00000
      6       0.8705      0.00000
      7       2.4320      0.00000
      8       3.0322      0.00000
      9       3.1635      0.00000
     10       3.8665      0.00000

 k-point    14 :       0.2667    0.0667    0.0000
  band No.  band energies     occupation 
      1     -46.5078      2.00000
      2     -46.4799      2.00000
      3     -46.4647      2.00000
      4     -46.4605      2.00000
      5      -2.5090      2.00000
      6       0.2606      2.00000
      7       2.5554      0.00000
      8       3.0723      0.00000
      9       3.3152      0.00000
     10       3.9972      0.00000

 k-point    15 :      -0.0667    0.2667    0.0000
  band No.  band energies     occupation 
      1     -46.5078      2.00000
      2     -46.4799      2.00000
      3     -46.4647      2.00000
      4     -46.4605      2.00000
      5      -2.5090      2.00000
      6       0.2607      2.00000
      7       2.5536      0.00000
      8       3.0749      0.00000
      9       3.3162      0.00000
     10       3.9946      0.00000

 k-point    16 :       0.3333    0.0667    0.0000
  band No.  band energies     occupation 
      1     -46.5045      2.00000
      2     -46.4840      2.00000
      3     -46.4638      2.00000
      4     -46.4604      2.00000
      5      -2.2744      2.00000
      6      -0.2970      2.00000
      7       2.6925      0.00000
      8       3.0973      0.00000
      9       3.5092      0.00000
     10       4.1283      0.00000

 k-point    17 :      -0.0667    0.3333    0.0000
  band No.  band energies     occupation 
      1     -46.5045      2.00000
      2     -46.4840      2.00000
      3     -46.4638      2.00000
      4     -46.4604      2.00000
      5      -2.2744      2.00000
      6      -0.2970      2.00000
      7       2.6903      0.00000
      8       3.0991      0.00000
      9       3.5121      0.00000
     10       4.1254      0.00000

 k-point    18 :       0.4000    0.0667    0.0000
  band No.  band energies     occupation 
      1     -46.5009      2.00000
      2     -46.4883      2.00000
      3     -46.4629      2.00000
      4     -46.4606      2.00000
      5      -1.9867      2.00000
      6      -0.8009      2.00000
      7       2.8292      0.00000
      8       3.0892      0.00000
      9       3.7376      0.00000
     10       4.2075      0.00000

 k-point    19 :      -0.0667    0.4000    0.0000
  band No.  band energies     occupation 
      1     -46.5009      2.00000
      2     -46.4883      2.00000
      3     -46.4629      2.00000
      4     -46.4606      2.00000
      5      -1.9867      2.00000
      6      -0.8008      2.00000
      7       2.8271      0.00000
      8       3.0899      0.00000
      9       3.7417      0.00000
     10       4.2061      0.00000

 k-point    20 :       0.4667    0.0667    0.0000
  band No.  band energies     occupation 
      1     -46.4969      2.00000
      2     -46.4926      2.00000
      3     -46.4620      2.00000
      4     -46.4612      2.00000
      5      -1.6455      2.00000
      6      -1.2503      2.00000
      7       2.9497      0.00000
      8       3.0396      0.00000
      9       3.9738      0.00000
     10       4.1570      0.00000

 k-point    21 :      -0.0667    0.4667    0.0000
  band No.  band energies     occupation 
      1     -46.4969      2.00000
      2     -46.4926      2.00000
      3     -46.4620      2.00000
      4     -46.4612      2.00000
      5      -1.6455      2.00000
      6      -1.2503      2.00000
      7       2.9481      0.00000
      8       3.0391      0.00000
      9       3.9778      0.00000
     10       4.1588      0.00000

 k-point    22 :       0.1333    0.1333    0.0000
  band No.  band energies     occupation 
      1     -46.5112      2.00000
      2     -46.4743      2.00000
      3     -46.4663      2.00000
      4     -46.4612      2.00000
      5      -2.7431      2.00000
      6       1.4358      0.00000
      7       1.8167      0.00000
      8       3.0174      0.00000
      9       3.1124      0.00000
     10       4.1851      0.00000

 k-point    23 :       0.2000    0.1333    0.0000
  band No.  band energies     occupation 
      1     -46.5093      2.00000
      2     -46.4769      2.00000
      3     -46.4660      2.00000
      4     -46.4606      2.00000
      5      -2.6136      2.00000
      6       0.9069      0.00000
      7       1.8095      0.00000
      8       3.0517      0.00000
      9       3.2110      0.00000
     10       4.3133      0.00000

 k-point    24 :      -0.1333    0.2000    0.0000
  band No.  band energies     occupation 
      1     -46.5093      2.00000
      2     -46.4769      2.00000
      3     -46.4660      2.00000
      4     -46.4606      2.00000
      5      -2.6136      2.00000
      6       0.9070      0.00000
      7       1.8088      0.00000
      8       3.0532      0.00000
      9       3.2109      0.00000
     10       4.3115      0.00000

 k-point    25 :       0.2667    0.1333    0.0000
  band No.  band energies     occupation 
      1     -46.5068      2.00000
      2     -46.4803      2.00000
      3     -46.4654      2.00000
      4     -46.4604      2.00000
      5      -2.4320      2.00000
      6       0.3183      2.00000
      7       1.9495      0.00000
      8       3.0707      0.00000
      9       3.3456      0.00000
     10       4.3288      0.00000

 k-point    26 :      -0.1333    0.2667    0.0000
  band No.  band energies     occupation 
      1     -46.5068      2.00000
      2     -46.4803      2.00000
      3     -46.4654      2.00000
      4     -46.4604      2.00000
      5      -2.4320      2.00000
      6       0.3185      2.00000
      7       1.9483      0.00000
      8       3.0724      0.00000
      9       3.3468      0.00000
     10       4.3261      0.00000

 k-point    27 :       0.3333    0.1333    0.0000
  band No.  band energies     occupation 
      1     -46.5037      2.00000
      2     -46.4840      2.00000
      3     -46.4646      2.00000
      4     -46.4605      2.00000
      5      -2.1978      2.00000
      6      -0.2309      2.00000
      7       2.1362      0.00000
      8       3.0449      0.00000
      9       3.5103      0.00000
     10       4.2854      0.00000

 k-point    28 :      -0.1333    0.3333    0.0000
  band No.  band energies     occupation 
      1     -46.5037      2.00000
      2     -46.4840      2.00000
      3     -46.4646      2.00000
      4     -46.4605      2.00000
      5      -2.1978      2.00000
      6      -0.2308      2.00000
      7       2.1345      0.00000
      8       3.0458      0.00000
      9       3.5137      0.00000
     10       4.2842      0.00000

 k-point    29 :       0.4000    0.1333    0.0000
  band No.  band energies     occupation 
      1     -46.5001      2.00000
      2     -46.4881      2.00000
      3     -46.4636      2.00000
      4     -46.4610      2.00000
      5      -1.9108      2.00000
      6      -0.7303      2.00000
      7       2.3506      0.00000
      8       2.9495      0.00000
      9       3.6959      0.00000
     10       4.1952      0.00000

 k-point    30 :      -0.1333    0.4000    0.0000
  band No.  band energies     occupation 
      1     -46.5001      2.00000
      2     -46.4881      2.00000
      3     -46.4636      2.00000
      4     -46.4610      2.00000
      5      -1.9108      2.00000
      6      -0.7303      2.00000
      7       2.3485      0.00000
      8       2.9490      0.00000
      9       3.7014      0.00000
     10       4.1975      0.00000

 k-point    31 :       0.4667    0.1333    0.0000
  band No.  band energies     occupation 
      1     -46.4963      2.00000
      2     -46.4922      2.00000
      3     -46.4626      2.00000
      4     -46.4617      2.00000
      5      -1.5706      2.00000
      6      -1.1772      2.00000
      7       2.5749      0.00000
      8       2.7847      0.00000
      9       3.8866      0.00000
     10       4.0600      0.00000

 k-point    32 :      -0.1333    0.4667    0.0000
  band No.  band energies     occupation 
      1     -46.4963      2.00000
      2     -46.4922      2.00000
      3     -46.4626      2.00000
      4     -46.4617      2.00000
      5      -1.5706      2.00000
      6      -1.1771      2.00000
      7       2.5727      0.00000
      8       2.7829      0.00000
      9       3.8932      0.00000
     10       4.0656      0.00000

 k-point    33 :       0.2000    0.2000    0.0000
  band No.  band energies     occupation 
      1     -46.5075      2.00000
      2     -46.4787      2.00000
      3     -46.4663      2.00000
      4     -46.4604      2.00000
      5      -2.4845      2.00000
      6       0.8243      0.00000
      7       1.3733      0.00000
      8       3.0564      0.00000
      9       3.3084      0.00000
     10       4.4252      0.00000

 k-point    34 :       0.2667    0.2000    0.0000
  band No.  band energies     occupation 
      1     -46.5051      2.00000
      2     -46.4812      2.00000
      3     -46.4661      2.00000
      4     -46.4605      2.00000
      5      -2.3034      2.00000
      6       0.3874      2.00000
      7       1.3807      0.00000
      8       3.0101      0.00000
      9       3.4417      0.00000
     10       4.3443      0.00000

 k-point    35 :      -0.2000    0.2667    0.0000
  band No.  band energies     occupation 
      1     -46.5051      2.00000
      2     -46.4812      2.00000
      3     -46.4661      2.00000
      4     -46.4605      2.00000
      5      -2.3034      2.00000
      6       0.3875      2.00000
      7       1.3800      0.00000
      8       3.0105      0.00000
      9       3.4428      0.00000
     10       4.3438      0.00000

 k-point    36 :       0.3333    0.2000    0.0000
  band No.  band energies     occupation 
      1     -46.5022      2.00000
      2     -46.4843      2.00000
      3     -46.4654      2.00000
      4     -46.4609      2.00000
      5      -2.0701      2.00000
      6      -0.1292      2.00000
      7       1.5600      0.00000
      8       2.8746      0.00000
      9       3.6015      0.00000
     10       4.2396      0.00000

 k-point    37 :      -0.2000    0.3333    0.0000
  band No.  band energies     occupation 
      1     -46.5022      2.00000
      2     -46.4843      2.00000
      3     -46.4654      2.00000
      4     -46.4609      2.00000
      5      -2.0701      2.00000
      6      -0.1291      2.00000
      7       1.5589      0.00000
      8       2.8743      0.00000
      9       3.6046      0.00000
     10       4.2411      0.00000

 k-point    38 :       0.4000    0.2000    0.0000
  band No.  band energies     occupation 
      1     -46.4989      2.00000
      2     -46.4878      2.00000
      3     -46.4645      2.00000
      4     -46.4616      2.00000
      5      -1.7846      2.00000
      6      -0.6162      2.00000
      7       1.7994      0.00000
      8       2.6471      0.00000
      9       3.7742      0.00000
     10       4.1597      0.00000

 k-point    39 :      -0.2000    0.4000    0.0000
  band No.  band energies     occupation 
      1     -46.4989      2.00000
      2     -46.4878      2.00000
      3     -46.4645      2.00000
      4     -46.4616      2.00000
      5      -1.7846      2.00000
      6      -0.6161      2.00000
      7       1.7979      0.00000
      8       2.6459      0.00000
      9       3.7794      0.00000
     10       4.1643      0.00000

 k-point    40 :       0.4667    0.2000    0.0000
  band No.  band energies     occupation 
      1     -46.4953      2.00000
      2     -46.4916      2.00000
      3     -46.4634      2.00000
      4     -46.4624      2.00000
      5      -1.4466      2.00000
      6      -1.0567      2.00000
      7       2.0746      0.00000
      8       2.3665      0.00000
      9       3.9386      0.00000
     10       4.0698      0.00000

 k-point    41 :      -0.2000    0.4667    0.0000
  band No.  band energies     occupation 
      1     -46.4953      2.00000
      2     -46.4916      2.00000
      3     -46.4634      2.00000
      4     -46.4624      2.00000
      5      -1.4466      2.00000
      6      -1.0567      2.00000
      7       2.0729      0.00000
      8       2.3648      0.00000
      9       3.9454      0.00000
     10       4.0765      0.00000

 k-point    42 :       0.2667    0.2667    0.0000
  band No.  band energies     occupation 
      1     -46.5029      2.00000
      2     -46.4827      2.00000
      3     -46.4663      2.00000
      4     -46.4608      2.00000
      5      -2.1232      2.00000
      6       0.3334      2.00000
      7       1.0189      0.00000
      8       2.8464      0.00000
      9       3.5785      0.00000
     10       4.2596      0.00000

 k-point    43 :       0.3333    0.2667    0.0000
  band No.  band energies     occupation 
      1     -46.5003      2.00000
      2     -46.4849      2.00000
      3     -46.4661      2.00000
      4     -46.4615      2.00000
      5      -1.8916      2.00000
      6      -0.0221      2.00000
      7       1.0518      0.00000
      8       2.5719      0.00000
      9       3.7412      0.00000
     10       4.2238      0.00000

 k-point    44 :      -0.2667    0.3333    0.0000
  band No.  band energies     occupation 
      1     -46.5003      2.00000
      2     -46.4849      2.00000
      3     -46.4661      2.00000
      4     -46.4615      2.00000
      5      -1.8916      2.00000
      6      -0.0219      2.00000
      7       1.0512      0.00000
      8       2.5715      0.00000
      9       3.7431      0.00000
     10       4.2255      0.00000

 k-point    45 :       0.4000    0.2667    0.0000
  band No.  band energies     occupation 
      1     -46.4973      2.00000
      2     -46.4877      2.00000
      3     -46.4654      2.00000
      4     -46.4624      2.00000
      5      -1.6086      2.00000
      6      -0.4678      2.00000
      7       1.2692      0.00000
      8       2.2350      0.00000
      9       3.9145      0.00000
     10       4.2187      0.00000

 k-point    46 :      -0.2667    0.4000    0.0000
  band No.  band energies     occupation 
      1     -46.4973      2.00000
      2     -46.4877      2.00000
      3     -46.4654      2.00000
      4     -46.4624      2.00000
      5      -1.6085      2.00000
      6      -0.4676      2.00000
      7       1.2683      0.00000
      8       2.2341      0.00000
      9       3.9185      0.00000
     10       4.2230      0.00000

 k-point    47 :       0.4667    0.2667    0.0000
  band No.  band energies     occupation 
      1     -46.4941      2.00000
      2     -46.4908      2.00000
      3     -46.4645      2.00000
      4     -46.4634      2.00000
      5      -1.2749      2.00000
      6      -0.8927      2.00000
      7       1.5572      0.00000
      8       1.8862      0.00000
      9       4.0718      0.00000
     10       4.1789      0.00000

 k-point    48 :      -0.2667    0.4667    0.0000
  band No.  band energies     occupation 
      1     -46.4941      2.00000
      2     -46.4908      2.00000
      3     -46.4645      2.00000
      4     -46.4634      2.00000
      5      -1.2749      2.00000
      6      -0.8926      2.00000
      7       1.5561      0.00000
      8       1.8851      0.00000
      9       4.0776      0.00000
     10       4.1849      0.00000

 k-point    49 :       0.3333    0.3333    0.0000
  band No.  band energies     occupation 
      1     -46.4980      2.00000
      2     -46.4861      2.00000
      3     -46.4664      2.00000
      4     -46.4624      2.00000
      5      -1.6626      2.00000
      6      -0.0357      2.00000
      7       0.7541      0.44265
      8       2.1900      0.00000
      9       3.9122      0.00000
     10       4.2783      0.00000

 k-point    50 :       0.4000    0.3333    0.0000
  band No.  band energies     occupation 
      1     -46.4954      2.00000
      2     -46.4878      2.00000
      3     -46.4661      2.00000
      4     -46.4634      2.00000
      5      -1.3842      2.00000
      6      -0.3169      2.00000
      7       0.8195      0.00000
      8       1.7910      0.00000
      9       4.0921      0.00000
     10       4.3411      0.00000

 k-point    51 :      -0.3333    0.4000    0.0000
  band No.  band energies     occupation 
      1     -46.4954      2.00000
      2     -46.4878      2.00000
      3     -46.4661      2.00000
      4     -46.4634      2.00000
      5      -1.3842      2.00000
      6      -0.3168      2.00000
      7       0.8190      0.00000
      8       1.7906      0.00000
      9       4.0943      0.00000
     10       4.3437      0.00000

 k-point    52 :       0.4667    0.3333    0.0000
  band No.  band energies     occupation 
      1     -46.4927      2.00000
      2     -46.4901      2.00000
      3     -46.4654      2.00000
      4     -46.4645      2.00000
      5      -1.0591      2.00000
      6      -0.6947      2.00000
      7       1.0763      0.00000
      8       1.4116      0.00000
      9       4.2509      0.00000
     10       4.3431      0.00000

 k-point    53 :      -0.3333    0.4667    0.0000
  band No.  band energies     occupation 
      1     -46.4927      2.00000
      2     -46.4901      2.00000
      3     -46.4654      2.00000
      4     -46.4645      2.00000
      5      -1.0591      2.00000
      6      -0.6946      2.00000
      7       1.0758      0.00000
      8       1.4110      0.00000
      9       4.2550      0.00000
     10       4.3475      0.00000

 k-point    54 :       0.4000    0.4000    0.0000
  band No.  band energies     occupation 
      1     -46.4934      2.00000
      2     -46.4885      2.00000
      3     -46.4664      2.00000
      4     -46.4645      2.00000
      5      -1.1146      2.00000
      6      -0.2820      2.00000
      7       0.5783      2.00000
      8       1.3629      0.00000
      9       4.2827      0.00000
     10       4.4670      0.00000

 k-point    55 :       0.4667    0.4000    0.0000
  band No.  band energies     occupation 
      1     -46.4914      2.00000
      2     -46.4897      2.00000
      3     -46.4662      2.00000
      4     -46.4654      2.00000
      5      -0.8086      2.00000
      6      -0.4947      2.00000
      7       0.6811      1.99999
      8       0.9803      0.00000
      9       4.4439      0.00000
     10       4.5167      0.00000

 k-point    56 :      -0.4000    0.4667    0.0000
  band No.  band energies     occupation 
      1     -46.4914      2.00000
      2     -46.4897      2.00000
      3     -46.4662      2.00000
      4     -46.4654      2.00000
      5      -0.8085      2.00000
      6      -0.4946      2.00000
      7       0.6809      1.99999
      8       0.9801      0.00000
      9       4.4458      0.00000
     10       4.5188      0.00000

 k-point    57 :       0.4667    0.4667    0.0000
  band No.  band energies     occupation 
      1     -46.4904      2.00000
      2     -46.4898      2.00000
      3     -46.4665      2.00000
      4     -46.4662      2.00000
      5      -0.5541      2.00000
      6      -0.4053      2.00000
      7       0.4908      2.00000
      8       0.6351      2.00000
      9       4.5965      0.00000
     10       4.6275      0.00000

 k-point    58 :       0.0667    0.0667    0.0667
  band No.  band energies     occupation 
      1     -46.5131      2.00000
      2     -46.4709      2.00000
      3     -46.4664      2.00000
      4     -46.4626      2.00000
      5      -2.8726      2.00000
      6       2.1394      0.00000
      7       2.2490      0.00000
      8       2.4481      0.00000
      9       3.3893      0.00000
     10       3.7966      0.00000

 k-point    59 :       0.1333    0.0667    0.0667
  band No.  band energies     occupation 
      1     -46.5119      2.00000
      2     -46.4731      2.00000
      3     -46.4662      2.00000
      4     -46.4616      2.00000
      5      -2.7949      2.00000
      6       1.5384      0.00000
      7       2.2674      0.00000
      8       2.4610      0.00000
      9       3.4603      0.00000
     10       3.9573      0.00000

 k-point    60 :       0.2000    0.0667    0.0667
  band No.  band energies     occupation 
      1     -46.5100      2.00000
      2     -46.4763      2.00000
      3     -46.4658      2.00000
      4     -46.4609      2.00000
      5      -2.6652      2.00000
      6       0.8883      0.00000
      7       2.3669      0.00000
      8       2.5541      0.00000
      9       3.4937      0.00000
     10       4.0709      0.00000

 k-point    61 :       0.2667    0.0667    0.0667
  band No.  band energies     occupation 
      1     -46.5074      2.00000
      2     -46.4800      2.00000
      3     -46.4650      2.00000
      4     -46.4605      2.00000
      5      -2.4834      2.00000
      6       0.2816      2.00000
      7       2.4908      0.00000
      8       2.6868      0.00000
      9       3.5246      0.00000
     10       4.1895      0.00000

 k-point    62 :       0.3333    0.0667    0.0667
  band No.  band energies     occupation 
      1     -46.5042      2.00000
      2     -46.4840      2.00000
      3     -46.4641      2.00000
      4     -46.4604      2.00000
      5      -2.2488      2.00000
      6      -0.2743      2.00000
      7       2.6252      0.00000
      8       2.8351      0.00000
      9       3.5680      0.00000
     10       4.2745      0.00000

 k-point    63 :       0.4000    0.0667    0.0667
  band No.  band energies     occupation 
      1     -46.5006      2.00000
      2     -46.4882      2.00000
      3     -46.4631      2.00000
      4     -46.4607      2.00000
      5      -1.9613      2.00000
      6      -0.7770      2.00000
      7       2.7588      0.00000
      8       2.9415      0.00000
      9       3.6646      0.00000
     10       4.2493      0.00000

 k-point    64 :       0.4667    0.0667    0.0667
  band No.  band energies     occupation 
      1     -46.4967      2.00000
      2     -46.4925      2.00000
      3     -46.4622      2.00000
      4     -46.4614      2.00000
      5      -1.6205      2.00000
      6      -1.2258      2.00000
      7       2.8763      0.00000
      8       2.9507      0.00000
      9       3.8507      0.00000
     10       4.0805      0.00000

 k-point    65 :       0.1333    0.1333    0.0667
  band No.  band energies     occupation 
      1     -46.5108      2.00000
      2     -46.4746      2.00000
      3     -46.4665      2.00000
      4     -46.4610      2.00000
      5      -2.7173      2.00000
      6       1.4548      0.00000
      7       1.8105      0.00000
      8       2.4499      0.00000
      9       3.5612      0.00000
     10       4.3060      0.00000

 k-point    66 :       0.2000    0.1333    0.0667
  band No.  band energies     occupation 
      1     -46.5089      2.00000
      2     -46.4771      2.00000
      3     -46.4663      2.00000
      4     -46.4606      2.00000
      5      -2.5878      2.00000
      6       0.9266      0.00000
      7       1.8126      0.00000
      8       2.5340      0.00000
      9       3.5917      0.00000
     10       4.4307      0.00000

 k-point    67 :      -0.1333    0.2000    0.0667
  band No.  band energies     occupation 
      1     -46.5089      2.00000
      2     -46.4771      2.00000
      3     -46.4663      2.00000
      4     -46.4606      2.00000
      5      -2.5878      2.00000
      6       0.9267      0.00000
      7       1.8121      0.00000
      8       2.5346      0.00000
      9       3.5920      0.00000
     10       4.4296      0.00000

 k-point    68 :       0.2667    0.1333    0.0667
  band No.  band energies     occupation 
      1     -46.5064      2.00000
      2     -46.4804      2.00000
      3     -46.4657      2.00000
      4     -46.4604      2.00000
      5      -2.4062      2.00000
      6       0.3400      2.00000
      7       1.9555      0.00000
      8       2.6449      0.00000
      9       3.5950      0.00000
     10       4.4442      0.00000

 k-point    69 :      -0.1333    0.2667    0.0667
  band No.  band energies     occupation 
      1     -46.5064      2.00000
      2     -46.4804      2.00000
      3     -46.4657      2.00000
      4     -46.4604      2.00000
      5      -2.4062      2.00000
      6       0.3401      2.00000
      7       1.9544      0.00000
      8       2.6461      0.00000
      9       3.5956      0.00000
     10       4.4431      0.00000

 k-point    70 :       0.3333    0.1333    0.0667
  band No.  band energies     occupation 
      1     -46.5034      2.00000
      2     -46.4840      2.00000
      3     -46.4648      2.00000
      4     -46.4606      2.00000
      5      -2.1722      2.00000
      6      -0.2078      2.00000
      7       2.1416      0.00000
      8       2.7538      0.00000
      9       3.5823      0.00000
     10       4.3638      0.00000

 k-point    71 :      -0.1333    0.3333    0.0667
  band No.  band energies     occupation 
      1     -46.5034      2.00000
      2     -46.4840      2.00000
      3     -46.4648      2.00000
      4     -46.4606      2.00000
      5      -2.1722      2.00000
      6      -0.2078      2.00000
      7       2.1401      0.00000
      8       2.7553      0.00000
      9       3.5831      0.00000
     10       4.3645      0.00000

 k-point    72 :       0.4000    0.1333    0.0667
  band No.  band energies     occupation 
      1     -46.4999      2.00000
      2     -46.4880      2.00000
      3     -46.4638      2.00000
      4     -46.4611      2.00000
      5      -1.8855      2.00000
      6      -0.7063      2.00000
      7       2.3503      0.00000
      8       2.8009      0.00000
      9       3.6065      0.00000
     10       4.1840      0.00000

 k-point    73 :      -0.1333    0.4000    0.0667
  band No.  band energies     occupation 
      1     -46.4999      2.00000
      2     -46.4880      2.00000
      3     -46.4638      2.00000
      4     -46.4611      2.00000
      5      -1.8855      2.00000
      6      -0.7063      2.00000
      7       2.3483      0.00000
      8       2.8015      0.00000
      9       3.6084      0.00000
     10       4.1872      0.00000

 k-point    74 :       0.4667    0.1333    0.0667
  band No.  band energies     occupation 
      1     -46.4961      2.00000
      2     -46.4920      2.00000
      3     -46.4628      2.00000
      4     -46.4618      2.00000
      5      -1.5456      2.00000
      6      -1.1525      2.00000
      7       2.5581      0.00000
      8       2.7273      0.00000
      9       3.7349      0.00000
     10       3.9502      0.00000

 k-point    75 :      -0.1333    0.4667    0.0667
  band No.  band energies     occupation 
      1     -46.4961      2.00000
      2     -46.4920      2.00000
      3     -46.4628      2.00000
      4     -46.4618      2.00000
      5      -1.5456      2.00000
      6      -1.1525      2.00000
      7       2.5562      0.00000
      8       2.7263      0.00000
      9       3.7385      0.00000
     10       3.9543      0.00000

 k-point    76 :       0.2000    0.2000    0.0667
  band No.  band energies     occupation 
      1     -46.5072      2.00000
      2     -46.4788      2.00000
      3     -46.4666      2.00000
      4     -46.4604      2.00000
      5      -2.4587      2.00000
      6       0.8479      0.00000
      7       1.3810      0.00000
      8       2.6045      0.00000
      9       3.6116      0.00000
     10       4.5337      0.00000

 k-point    77 :       0.2667    0.2000    0.0667
  band No.  band energies     occupation 
      1     -46.5048      2.00000
      2     -46.4812      2.00000
      3     -46.4663      2.00000
      4     -46.4606      2.00000
      5      -2.2777      2.00000
      6       0.4106      2.00000
      7       1.3924      0.00000
      8       2.6786      0.00000
      9       3.5855      0.00000
     10       4.4532      0.00000

 k-point    78 :      -0.2000    0.2667    0.0667
  band No.  band energies     occupation 
      1     -46.5048      2.00000
      2     -46.4812      2.00000
      3     -46.4663      2.00000
      4     -46.4606      2.00000
      5      -2.2777      2.00000
      6       0.4108      2.00000
      7       1.3917      0.00000
      8       2.6791      0.00000
      9       3.5858      0.00000
     10       4.4537      0.00000

 k-point    79 :       0.3333    0.2000    0.0667
  band No.  band energies     occupation 
      1     -46.5019      2.00000
      2     -46.4842      2.00000
      3     -46.4657      2.00000
      4     -46.4610      2.00000
      5      -2.0445      2.00000
      6      -0.1055      2.00000
      7       1.5725      0.00000
      8       2.6957      0.00000
      9       3.5499      0.00000
     10       4.3188      0.00000

 k-point    80 :      -0.2000    0.3333    0.0667
  band No.  band energies     occupation 
      1     -46.5019      2.00000
      2     -46.4842      2.00000
      3     -46.4657      2.00000
      4     -46.4610      2.00000
      5      -2.0445      2.00000
      6      -0.1054      2.00000
      7       1.5715      0.00000
      8       2.6961      0.00000
      9       3.5507      0.00000
     10       4.3220      0.00000

 k-point    81 :       0.4000    0.2000    0.0667
  band No.  band energies     occupation 
      1     -46.4986      2.00000
      2     -46.4877      2.00000
      3     -46.4647      2.00000
      4     -46.4617      2.00000
      5      -1.7592      2.00000
      6      -0.5919      2.00000
      7       1.8097      0.00000
      8       2.5805      0.00000
      9       3.5986      0.00000
     10       4.1525      0.00000

 k-point    82 :      -0.2000    0.4000    0.0667
  band No.  band energies     occupation 
      1     -46.4986      2.00000
      2     -46.4877      2.00000
      3     -46.4647      2.00000
      4     -46.4617      2.00000
      5      -1.7591      2.00000
      6      -0.5918      2.00000
      7       1.8083      0.00000
      8       2.5799      0.00000
      9       3.6012      0.00000
     10       4.1579      0.00000

 k-point    83 :       0.4667    0.2000    0.0667
  band No.  band energies     occupation 
      1     -46.4951      2.00000
      2     -46.4914      2.00000
      3     -46.4637      2.00000
      4     -46.4626      2.00000
      5      -1.4215      2.00000
      6      -1.0319      2.00000
      7       2.0776      0.00000
      8       2.3501      0.00000
      9       3.7515      0.00000
     10       3.9533      0.00000

 k-point    84 :      -0.2000    0.4667    0.0667
  band No.  band energies     occupation 
      1     -46.4951      2.00000
      2     -46.4914      2.00000
      3     -46.4637      2.00000
      4     -46.4626      2.00000
      5      -1.4214      2.00000
      6      -1.0319      2.00000
      7       2.0760      0.00000
      8       2.3487      0.00000
      9       3.7560      0.00000
     10       3.9589      0.00000

 k-point    85 :       0.2667    0.2667    0.0667
  band No.  band energies     occupation 
      1     -46.5026      2.00000
      2     -46.4826      2.00000
      3     -46.4666      2.00000
      4     -46.4610      2.00000
      5      -2.0976      2.00000
      6       0.3588      2.00000
      7       1.0317      0.00000
      8       2.6592      0.00000
      9       3.5369      0.00000
     10       4.3836      0.00000

 k-point    86 :       0.3333    0.2667    0.0667
  band No.  band energies     occupation 
      1     -46.5000      2.00000
      2     -46.4848      2.00000
      3     -46.4664      2.00000
      4     -46.4616      2.00000
      5      -1.8660      2.00000
      6       0.0028      2.00000
      7       1.0666      0.00000
      8       2.5007      0.00000
      9       3.5520      0.00000
     10       4.3271      0.00000

 k-point    87 :      -0.2667    0.3333    0.0667
  band No.  band energies     occupation 
      1     -46.5000      2.00000
      2     -46.4848      2.00000
      3     -46.4664      2.00000
      4     -46.4616      2.00000
      5      -1.8660      2.00000
      6       0.0030      2.00000
      7       1.0661      0.00000
      8       2.5005      0.00000
      9       3.5528      0.00000
     10       4.3298      0.00000

 k-point    88 :       0.4000    0.2667    0.0667
  band No.  band energies     occupation 
      1     -46.4970      2.00000
      2     -46.4875      2.00000
      3     -46.4657      2.00000
      4     -46.4626      2.00000
      5      -1.5831      2.00000
      6      -0.4429      2.00000
      7       1.2838      0.00000
      8       2.2172      0.00000
      9       3.6777      0.00000
     10       4.2325      0.00000

 k-point    89 :      -0.2667    0.4000    0.0667
  band No.  band energies     occupation 
      1     -46.4970      2.00000
      2     -46.4875      2.00000
      3     -46.4657      2.00000
      4     -46.4626      2.00000
      5      -1.5831      2.00000
      6      -0.4428      2.00000
      7       1.2830      0.00000
      8       2.2165      0.00000
      9       3.6801      0.00000
     10       4.2374      0.00000

 k-point    90 :       0.4667    0.2667    0.0667
  band No.  band energies     occupation 
      1     -46.4938      2.00000
      2     -46.4906      2.00000
      3     -46.4647      2.00000
      4     -46.4636      2.00000
      5      -1.2497      2.00000
      6      -0.8677      2.00000
      7       1.5686      0.00000
      8       1.8893      0.00000
      9       3.8674      0.00000
     10       4.0689      0.00000

 k-point    91 :      -0.2667    0.4667    0.0667
  band No.  band energies     occupation 
      1     -46.4938      2.00000
      2     -46.4906      2.00000
      3     -46.4647      2.00000
      4     -46.4636      2.00000
      5      -1.2496      2.00000
      6      -0.8676      2.00000
      7       1.5676      0.00000
      8       1.8883      0.00000
      9       3.8715      0.00000
     10       4.0742      0.00000

 k-point    92 :       0.3333    0.3333    0.0667
  band No.  band energies     occupation 
      1     -46.4977      2.00000
      2     -46.4859      2.00000
      3     -46.4666      2.00000
      4     -46.4625      2.00000
      5      -1.6370      2.00000
      6      -0.0093      2.00000
      7       0.7693      0.06617
      8       2.1718      0.00000
      9       3.6573      0.00000
     10       4.3741      0.00000

 k-point    93 :       0.4000    0.3333    0.0667
  band No.  band energies     occupation 
      1     -46.4951      2.00000
      2     -46.4876      2.00000
      3     -46.4664      2.00000
      4     -46.4636      2.00000
      5      -1.3587      2.00000
      6      -0.2912      2.00000
      7       0.8356      0.00000
      8       1.7939      0.00000
      9       3.8360      0.00000
     10       4.3638      0.00000

 k-point    94 :      -0.3333    0.4000    0.0667
  band No.  band energies     occupation 
      1     -46.4951      2.00000
      2     -46.4876      2.00000
      3     -46.4664      2.00000
      4     -46.4636      2.00000
      5      -1.3587      2.00000
      6      -0.2910      2.00000
      7       0.8352      0.00000
      8       1.7935      0.00000
      9       3.8375      0.00000
     10       4.3668      0.00000

 k-point    95 :       0.4667    0.3333    0.0667
  band No.  band energies     occupation 
      1     -46.4925      2.00000
      2     -46.4899      2.00000
      3     -46.4657      2.00000
      4     -46.4647      2.00000
      5      -1.0337      2.00000
      6      -0.6693      2.00000
      7       1.0917      0.00000
      8       1.4233      0.00000
      9       4.0470      0.00000
     10       4.2435      0.00000

 k-point    96 :      -0.3333    0.4667    0.0667
  band No.  band energies     occupation 
      1     -46.4925      2.00000
      2     -46.4899      2.00000
      3     -46.4657      2.00000
      4     -46.4647      2.00000
      5      -1.0337      2.00000
      6      -0.6692      2.00000
      7       1.0912      0.00000
      8       1.4228      0.00000
      9       4.0500      0.00000
     10       4.2475      0.00000

 k-point    97 :       0.4000    0.4000    0.0667
  band No.  band energies     occupation 
      1     -46.4931      2.00000
      2     -46.4883      2.00000
      3     -46.4666      2.00000
      4     -46.4647      2.00000
      5      -1.0891      2.00000
      6      -0.2552      2.00000
      7       0.5946      2.00000
      8       1.3747      0.00000
      9       4.0424      0.00000
     10       4.4635      0.00000

 k-point    98 :       0.4667    0.4000    0.0667
  band No.  band energies     occupation 
      1     -46.4912      2.00000
      2     -46.4895      2.00000
      3     -46.4664      2.00000
      4     -46.4657      2.00000
      5      -0.7829      2.00000
      6      -0.4685      2.00000
      7       0.6978      1.99872
      8       0.9959      0.00000
      9       4.2596      0.00000
     10       4.4285      0.00000

 k-point    99 :      -0.4000    0.4667    0.0667
  band No.  band energies     occupation 
      1     -46.4912      2.00000
      2     -46.4895      2.00000
      3     -46.4664      2.00000
      4     -46.4657      2.00000
      5      -0.7828      2.00000
      6      -0.4685      2.00000
      7       0.6975      1.99878
      8       0.9957      0.00000
      9       4.2611      0.00000
     10       4.4306      0.00000

 k-point   100 :       0.4667    0.4667    0.0667
  band No.  band energies     occupation 
      1     -46.4901      2.00000
      2     -46.4895      2.00000
      3     -46.4667      2.00000
      4     -46.4664      2.00000
      5      -0.5277      2.00000
      6      -0.3782      2.00000
      7       0.5074      2.00000
      8       0.6520      2.00000
      9       4.4560      0.00000
     10       4.5332      0.00000

 k-point   101 :       0.1333    0.1333    0.1333
  band No.  band energies     occupation 
      1     -46.5097      2.00000
      2     -46.4758      2.00000
      3     -46.4668      2.00000
      4     -46.4607      2.00000
      5      -2.6400      2.00000
      6       1.4391      0.00000
      7       1.6812      0.00000
      8       2.0632      0.00000
      9       3.7533      0.00000
     10       4.5666      0.00000

 k-point   102 :       0.2000    0.1333    0.1333
  band No.  band energies     occupation 
      1     -46.5078      2.00000
      2     -46.4778      2.00000
      3     -46.4668      2.00000
      4     -46.4604      2.00000
      5      -2.5104      2.00000
      6       0.9729      0.00000
      7       1.7114      0.00000
      8       2.0774      0.00000
      9       3.7765      0.00000
     10       4.6672      0.00000

 k-point   103 :       0.2667    0.1333    0.1333
  band No.  band energies     occupation 
      1     -46.5054      2.00000
      2     -46.4806      2.00000
      3     -46.4663      2.00000
      4     -46.4605      2.00000
      5      -2.3291      2.00000
      6       0.4008      2.00000
      7       1.8699      0.00000
      8       2.1859      0.00000
      9       3.7212      0.00000
     10       4.5975      0.00000

 k-point   104 :       0.3333    0.1333    0.1333
  band No.  band energies     occupation 
      1     -46.5025      2.00000
      2     -46.4840      2.00000
      3     -46.4655      2.00000
      4     -46.4609      2.00000
      5      -2.0956      2.00000
      6      -0.1404      2.00000
      7       2.0661      0.00000
      8       2.3276      0.00000
      9       3.6174      0.00000
     10       4.3631      0.00000

 k-point   105 :       0.4000    0.1333    0.1333
  band No.  band energies     occupation 
      1     -46.4991      2.00000
      2     -46.4877      2.00000
      3     -46.4645      2.00000
      4     -46.4615      2.00000
      5      -1.8095      2.00000
      6      -0.6350      2.00000
      7       2.2716      0.00000
      8       2.4671      0.00000
      9       3.5197      0.00000
     10       4.0342      0.00000

 k-point   106 :       0.4667    0.1333    0.1333
  band No.  band energies     occupation 
      1     -46.4954      2.00000
      2     -46.4916      2.00000
      3     -46.4634      2.00000
      4     -46.4624      2.00000
      5      -1.4706      2.00000
      6      -1.0790      2.00000
      7       2.4467      0.00000
      8       2.5275      0.00000
      9       3.5306      0.00000
     10       3.7223      0.00000

 k-point   107 :       0.2000    0.2000    0.1333
  band No.  band energies     occupation 
      1     -46.5061      2.00000
      2     -46.4791      2.00000
      3     -46.4671      2.00000
      4     -46.4605      2.00000
      5      -2.3815      2.00000
      6       0.9110      0.00000
      7       1.3797      0.00000
      8       2.0598      0.00000
      9       3.7913      0.00000
     10       4.7248      0.00000

 k-point   108 :       0.2667    0.2000    0.1333
  band No.  band energies     occupation 
      1     -46.5038      2.00000
      2     -46.4813      2.00000
      3     -46.4670      2.00000
      4     -46.4607      2.00000
      5      -2.2006      2.00000
      6       0.4767      2.00000
      7       1.4122      0.00000
      8       2.1597      0.00000
      9       3.6979      0.00000
     10       4.5670      0.00000

 k-point   109 :      -0.2000    0.2667    0.1333
  band No.  band energies     occupation 
      1     -46.5038      2.00000
      2     -46.4813      2.00000
      3     -46.4670      2.00000
      4     -46.4607      2.00000
      5      -2.2006      2.00000
      6       0.4768      2.00000
      7       1.4118      0.00000
      8       2.1601      0.00000
      9       3.6977      0.00000
     10       4.5682      0.00000

 k-point   110 :       0.3333    0.2000    0.1333
  band No.  band energies     occupation 
      1     -46.5010      2.00000
      2     -46.4841      2.00000
      3     -46.4663      2.00000
      4     -46.4613      2.00000
      5      -1.9679      2.00000
      6      -0.0362      2.00000
      7       1.5975      0.00000
      8       2.2745      0.00000
      9       3.5383      0.00000
     10       4.2749      0.00000

 k-point   111 :      -0.2000    0.3333    0.1333
  band No.  band energies     occupation 
      1     -46.5010      2.00000
      2     -46.4841      2.00000
      3     -46.4663      2.00000
      4     -46.4613      2.00000
      5      -1.9678      2.00000
      6      -0.0361      2.00000
      7       1.5967      0.00000
      8       2.2752      0.00000
      9       3.5377      0.00000
     10       4.2778      0.00000

 k-point   112 :       0.4000    0.2000    0.1333
  band No.  band energies     occupation 
      1     -46.4979      2.00000
      2     -46.4873      2.00000
      3     -46.4654      2.00000
      4     -46.4622      2.00000
      5      -1.6831      2.00000
      6      -0.5198      2.00000
      7       1.8284      0.00000
      8       2.3385      0.00000
      9       3.4110      0.00000
     10       3.9416      0.00000

 k-point   113 :      -0.2000    0.4000    0.1333
  band No.  band energies     occupation 
      1     -46.4979      2.00000
      2     -46.4873      2.00000
      3     -46.4654      2.00000
      4     -46.4622      2.00000
      5      -1.6831      2.00000
      6      -0.5197      2.00000
      7       1.8274      0.00000
      8       2.3388      0.00000
      9       3.4110      0.00000
     10       3.9450      0.00000

 k-point   114 :       0.4667    0.2000    0.1333
  band No.  band energies     occupation 
      1     -46.4944      2.00000
      2     -46.4908      2.00000
      3     -46.4643      2.00000
      4     -46.4632      2.00000
      5      -1.3462      2.00000
      6      -0.9579      2.00000
      7       2.0693      0.00000
      8       2.2665      0.00000
      9       3.4405      0.00000
     10       3.6416      0.00000

 k-point   115 :      -0.2000    0.4667    0.1333
  band No.  band energies     occupation 
      1     -46.4944      2.00000
      2     -46.4908      2.00000
      3     -46.4643      2.00000
      4     -46.4632      2.00000
      5      -1.3462      2.00000
      6      -0.9579      2.00000
      7       2.0682      0.00000
      8       2.2660      0.00000
      9       3.4420      0.00000
     10       3.6445      0.00000

 k-point   116 :       0.2667    0.2667    0.1333
  band No.  band energies     occupation 
      1     -46.5017      2.00000
      2     -46.4825      2.00000
      3     -46.4673      2.00000
      4     -46.4613      2.00000
      5      -2.0206      2.00000
      6       0.4328      2.00000
      7       1.0637      0.00000
      8       2.2260      0.00000
      9       3.5457      0.00000
     10       4.4604      0.00000

 k-point   117 :       0.3333    0.2667    0.1333
  band No.  band energies     occupation 
      1     -46.4991      2.00000
      2     -46.4845      2.00000
      3     -46.4671      2.00000
      4     -46.4621      2.00000
      5      -1.7894      2.00000
      6       0.0760      2.00000
      7       1.1065      0.00000
      8       2.2462      0.00000
      9       3.3731      0.00000
     10       4.2862      0.00000

 k-point   118 :      -0.2667    0.3333    0.1333
  band No.  band energies     occupation 
      1     -46.4991      2.00000
      2     -46.4845      2.00000
      3     -46.4671      2.00000
      4     -46.4621      2.00000
      5      -1.7894      2.00000
      6       0.0762      2.00000
      7       1.1061      0.00000
      8       2.2464      0.00000
      9       3.3730      0.00000
     10       4.2890      0.00000

 k-point   119 :       0.4000    0.2667    0.1333
  band No.  band energies     occupation 
      1     -46.4962      2.00000
      2     -46.4871      2.00000
      3     -46.4664      2.00000
      4     -46.4631      2.00000
      5      -1.5069      2.00000
      6      -0.3694      2.00000
      7       1.3230      0.00000
      8       2.1293      0.00000
      9       3.3433      0.00000
     10       4.0235      0.00000

 k-point   120 :      -0.2667    0.4000    0.1333
  band No.  band energies     occupation 
      1     -46.4962      2.00000
      2     -46.4871      2.00000
      3     -46.4664      2.00000
      4     -46.4631      2.00000
      5      -1.5069      2.00000
      6      -0.3693      2.00000
      7       1.3223      0.00000
      8       2.1290      0.00000
      9       3.3441      0.00000
     10       4.0272      0.00000

 k-point   121 :       0.4667    0.2667    0.1333
  band No.  band energies     occupation 
      1     -46.4931      2.00000
      2     -46.4900      2.00000
      3     -46.4653      2.00000
      4     -46.4642      2.00000
      5      -1.1741      2.00000
      6      -0.7930      2.00000
      7       1.5962      0.00000
      8       1.8841      0.00000
      9       3.4886      0.00000
     10       3.7365      0.00000

 k-point   122 :      -0.2667    0.4667    0.1333
  band No.  band energies     occupation 
      1     -46.4931      2.00000
      2     -46.4900      2.00000
      3     -46.4653      2.00000
      4     -46.4642      2.00000
      5      -1.1741      2.00000
      6      -0.7930      2.00000
      7       1.5954      0.00000
      8       1.8834      0.00000
      9       3.4907      0.00000
     10       3.7396      0.00000

 k-point   123 :       0.3333    0.3333    0.1333
  band No.  band energies     occupation 
      1     -46.4968      2.00000
      2     -46.4854      2.00000
      3     -46.4673      2.00000
      4     -46.4630      2.00000
      5      -1.5605      2.00000
      6       0.0687      2.00000
      7       0.8122      0.00000
      8       2.0823      0.00000
      9       3.3146      0.00000
     10       4.3101      0.00000

 k-point   124 :       0.4000    0.3333    0.1333
  band No.  band energies     occupation 
      1     -46.4943      2.00000
      2     -46.4871      2.00000
      3     -46.4671      2.00000
      4     -46.4642      2.00000
      5      -1.2824      2.00000
      6      -0.2147      2.00000
      7       0.8819      0.00000
      8       1.7884      0.00000
      9       3.4269      0.00000
     10       4.1766      0.00000

 k-point   125 :      -0.3333    0.4000    0.1333
  band No.  band energies     occupation 
      1     -46.4943      2.00000
      2     -46.4871      2.00000
      3     -46.4671      2.00000
      4     -46.4642      2.00000
      5      -1.2824      2.00000
      6      -0.2145      2.00000
      7       0.8816      0.00000
      8       1.7881      0.00000
      9       3.4277      0.00000
     10       4.1791      0.00000

 k-point   126 :       0.4667    0.3333    0.1333
  band No.  band energies     occupation 
      1     -46.4918      2.00000
      2     -46.4892      2.00000
      3     -46.4664      2.00000
      4     -46.4653      2.00000
      5      -0.9578      2.00000
      6      -0.5935      2.00000
      7       1.1348      0.00000
      8       1.4525      0.00000
      9       3.6471      0.00000
     10       3.9178      0.00000

 k-point   127 :      -0.3333    0.4667    0.1333
  band No.  band energies     occupation 
      1     -46.4918      2.00000
      2     -46.4892      2.00000
      3     -46.4664      2.00000
      4     -46.4653      2.00000
      5      -0.9578      2.00000
      6      -0.5935      2.00000
      7       1.1343      0.00000
      8       1.4521      0.00000
      9       3.6488      0.00000
     10       3.9204      0.00000

 k-point   128 :       0.4000    0.4000    0.1333
  band No.  band energies     occupation 
      1     -46.4924      2.00000
      2     -46.4876      2.00000
      3     -46.4674      2.00000
      4     -46.4653      2.00000
      5      -1.0128      2.00000
      6      -0.1754      2.00000
      7       0.6417      2.00000
      8       1.4041      0.00000
      9       3.6200      0.00000
     10       4.2711      0.00000

 k-point   129 :       0.4667    0.4000    0.1333
  band No.  band energies     occupation 
      1     -46.4904      2.00000
      2     -46.4888      2.00000
      3     -46.4672      2.00000
      4     -46.4664      2.00000
      5      -0.7062      2.00000
      6      -0.3905      2.00000
      7       0.7464      0.82777
      8       1.0400      0.00000
      9       3.8723      0.00000
     10       4.1330      0.00000

 k-point   130 :      -0.4000    0.4667    0.1333
  band No.  band energies     occupation 
      1     -46.4904      2.00000
      2     -46.4888      2.00000
      3     -46.4672      2.00000
      4     -46.4664      2.00000
      5      -0.7062      2.00000
      6      -0.3904      2.00000
      7       0.7462      0.83829
      8       1.0398      0.00000
      9       3.8732      0.00000
     10       4.1345      0.00000

 k-point   131 :       0.4667    0.4667    0.1333
  band No.  band energies     occupation 
      1     -46.4894      2.00000
      2     -46.4888      2.00000
      3     -46.4674      2.00000
      4     -46.4671      2.00000
      5      -0.4493      2.00000
      6      -0.2977      2.00000
      7       0.5561      2.00000
      8       0.7011      1.99713
      9       4.1205      0.00000
     10       4.2624      0.00000

 k-point   132 :       0.2000    0.2000    0.2000
  band No.  band energies     occupation 
      1     -46.5045      2.00000
      2     -46.4800      2.00000
      3     -46.4677      2.00000
      4     -46.4607      2.00000
      5      -2.2527      2.00000
      6       0.9258      0.00000
      7       1.2669      0.00000
      8       1.7662      0.00000
      9       3.8185      0.00000
     10       4.7511      0.00000

 k-point   133 :       0.2667    0.2000    0.2000
  band No.  band energies     occupation 
      1     -46.5023      2.00000
      2     -46.4816      2.00000
      3     -46.4677      2.00000
      4     -46.4612      2.00000
      5      -2.0723      2.00000
      6       0.5649      2.00000
      7       1.3205      0.00000
      8       1.7912      0.00000
      9       3.7205      0.00000
     10       4.5045      0.00000

 k-point   134 :       0.3333    0.2000    0.2000
  band No.  band energies     occupation 
      1     -46.4996      2.00000
      2     -46.4840      2.00000
      3     -46.4672      2.00000
      4     -46.4619      2.00000
      5      -1.8403      2.00000
      6       0.0719      2.00000
      7       1.5184      0.00000
      8       1.9046      0.00000
      9       3.5318      0.00000
     10       4.0776      0.00000

 k-point   135 :       0.4000    0.2000    0.2000
  band No.  band energies     occupation 
      1     -46.4966      2.00000
      2     -46.4869      2.00000
      3     -46.4664      2.00000
      4     -46.4629      2.00000
      5      -1.5566      2.00000
      6      -0.4030      2.00000
      7       1.7501      0.00000
      8       2.0225      0.00000
      9       3.3352      0.00000
     10       3.6657      0.00000

 k-point   136 :       0.4667    0.2000    0.2000
  band No.  band energies     occupation 
      1     -46.4934      2.00000
      2     -46.4901      2.00000
      3     -46.4652      2.00000
      4     -46.4640      2.00000
      5      -1.2216      2.00000
      6      -0.8362      2.00000
      7       1.9605      0.00000
      8       2.0655      0.00000
      9       3.2443      0.00000
     10       3.3610      0.00000

 k-point   137 :       0.2667    0.2667    0.2000
  band No.  band energies     occupation 
      1     -46.5003      2.00000
      2     -46.4825      2.00000
      3     -46.4681      2.00000
      4     -46.4619      2.00000
      5      -1.8927      2.00000
      6       0.5423      2.00000
      7       1.0799      0.00000
      8       1.7757      0.00000
      9       3.5989      0.00000
     10       4.3454      0.00000

 k-point   138 :       0.3333    0.2667    0.2000
  band No.  band energies     occupation 
      1     -46.4978      2.00000
      2     -46.4841      2.00000
      3     -46.4680      2.00000
      4     -46.4628      2.00000
      5      -1.6620      2.00000
      6       0.1913      2.00000
      7       1.1478      0.00000
      8       1.8605      0.00000
      9       3.3639      0.00000
     10       4.0234      0.00000

 k-point   139 :      -0.2667    0.3333    0.2000
  band No.  band energies     occupation 
      1     -46.4978      2.00000
      2     -46.4841      2.00000
      3     -46.4680      2.00000
      4     -46.4628      2.00000
      5      -1.6620      2.00000
      6       0.1914      2.00000
      7       1.1475      0.00000
      8       1.8607      0.00000
      9       3.3635      0.00000
     10       4.0250      0.00000

 k-point   140 :       0.4000    0.2667    0.2000
  band No.  band energies     occupation 
      1     -46.4950      2.00000
      2     -46.4864      2.00000
      3     -46.4674      2.00000
      4     -46.4639      2.00000
      5      -1.3804      2.00000
      6      -0.2500      2.00000
      7       1.3646      0.00000
      8       1.9060      0.00000
      9       3.1699      0.00000
     10       3.6536      0.00000

 k-point   141 :      -0.2667    0.4000    0.2000
  band No.  band energies     occupation 
      1     -46.4950      2.00000
      2     -46.4864      2.00000
      3     -46.4674      2.00000
      4     -46.4639      2.00000
      5      -1.3804      2.00000
      6      -0.2499      2.00000
      7       1.3641      0.00000
      8       1.9061      0.00000
      9       3.1697      0.00000
     10       3.6555      0.00000

 k-point   142 :       0.4667    0.2667    0.2000
  band No.  band energies     occupation 
      1     -46.4921      2.00000
      2     -46.4891      2.00000
      3     -46.4663      2.00000
      4     -46.4651      2.00000
      5      -1.0491      2.00000
      6      -0.6702      2.00000
      7       1.6114      0.00000
      8       1.8202      0.00000
      9       3.1578      0.00000
     10       3.3435      0.00000

 k-point   143 :      -0.2667    0.4667    0.2000
  band No.  band energies     occupation 
      1     -46.4921      2.00000
      2     -46.4891      2.00000
      3     -46.4663      2.00000
      4     -46.4651      2.00000
      5      -1.0491      2.00000
      6      -0.6702      2.00000
      7       1.6109      0.00000
      8       1.8200      0.00000
      9       3.1584      0.00000
     10       3.3449      0.00000

 k-point   144 :       0.3333    0.3333    0.2000
  band No.  band energies     occupation 
      1     -46.4956      2.00000
      2     -46.4849      2.00000
      3     -46.4684      2.00000
      4     -46.4639      2.00000
      5      -1.4335      2.00000
      6       0.1937      2.00000
      7       0.8721      0.00000
      8       1.8538      0.00000
      9       3.1442      0.00000
     10       4.0470      0.00000

 k-point   145 :       0.4000    0.3333    0.2000
  band No.  band energies     occupation 
      1     -46.4931      2.00000
      2     -46.4862      2.00000
      3     -46.4682      2.00000
      4     -46.4651      2.00000
      5      -1.1560      2.00000
      6      -0.0904      2.00000
      7       0.9496      0.00000
      8       1.7250      0.00000
      9       3.0899      0.00000
     10       3.8151      0.00000

 k-point   146 :      -0.3333    0.4000    0.2000
  band No.  band energies     occupation 
      1     -46.4931      2.00000
      2     -46.4862      2.00000
      3     -46.4682      2.00000
      4     -46.4651      2.00000
      5      -1.1560      2.00000
      6      -0.0903      2.00000
      7       0.9493      0.00000
      8       1.7249      0.00000
      9       3.0901      0.00000
     10       3.8166      0.00000

 k-point   147 :       0.4667    0.3333    0.2000
  band No.  band energies     occupation 
      1     -46.4906      2.00000
      2     -46.4882      2.00000
      3     -46.4675      2.00000
      4     -46.4664      2.00000
      5      -0.8322      2.00000
      6      -0.4691      2.00000
      7       1.1938      0.00000
      8       1.4766      0.00000
      9       3.2314      0.00000
     10       3.4959      0.00000

 k-point   148 :      -0.3333    0.4667    0.2000
  band No.  band energies     occupation 
      1     -46.4906      2.00000
      2     -46.4882      2.00000
      3     -46.4675      2.00000
      4     -46.4664      2.00000
      5      -0.8322      2.00000
      6      -0.4690      2.00000
      7       1.1934      0.00000
      8       1.4764      0.00000
      9       3.2322      0.00000
     10       3.4972      0.00000

 k-point   149 :       0.4000    0.4000    0.2000
  band No.  band energies     occupation 
      1     -46.4911      2.00000
      2     -46.4866      2.00000
      3     -46.4686      2.00000
      4     -46.4664      2.00000
      5      -0.8864      2.00000
      6      -0.0452      2.00000
      7       0.7148      1.95612
      8       1.4294      0.00000
      9       3.1974      0.00000
     10       3.9388      0.00000

 k-point   150 :       0.4667    0.4000    0.2000
  band No.  band energies     occupation 
      1     -46.4892      2.00000
      2     -46.4876      2.00000
      3     -46.4683      2.00000
      4     -46.4675      2.00000
      5      -0.5797      2.00000
      6      -0.2626      2.00000
      7       0.8212      0.00000
      8       1.1027      0.00000
      9       3.4286      0.00000
     10       3.7230      0.00000

 k-point   151 :      -0.4000    0.4667    0.2000
  band No.  band energies     occupation 
      1     -46.4892      2.00000
      2     -46.4876      2.00000
      3     -46.4683      2.00000
      4     -46.4675      2.00000
      5      -0.5797      2.00000
      6      -0.2625      2.00000
      7       0.8211      0.00000
      8       1.1026      0.00000
      9       3.4291      0.00000
     10       3.7240      0.00000

 k-point   152 :       0.4667    0.4667    0.2000
  band No.  band energies     occupation 
      1     -46.4881      2.00000
      2     -46.4876      2.00000
      3     -46.4687      2.00000
      4     -46.4684      2.00000
      5      -0.3203      2.00000
      6      -0.1657      2.00000
      7       0.6333      2.00000
      8       0.7776      0.01514
      9       3.6944      0.00000
     10       3.8967      0.00000

 k-point   153 :       0.2667    0.2667    0.2667
  band No.  band energies     occupation 
      1     -46.4983      2.00000
      2     -46.4829      2.00000
      3     -46.4688      2.00000
      4     -46.4627      2.00000
      5      -1.7138      2.00000
      6       0.5980      2.00000
      7       1.0026      0.00000
      8       1.5479      0.00000
      9       3.5797      0.00000
     10       4.2011      0.00000

 k-point   154 :       0.3333    0.2667    0.2667
  band No.  band energies     occupation 
      1     -46.4960      2.00000
      2     -46.4840      2.00000
      3     -46.4690      2.00000
      4     -46.4638      2.00000
      5      -1.4841      2.00000
      6       0.3248      2.00000
      7       1.0831      0.00000
      8       1.5747      0.00000
      9       3.3852      0.00000
     10       3.7454      0.00000

 k-point   155 :       0.4000    0.2667    0.2667
  band No.  band energies     occupation 
      1     -46.4934      2.00000
      2     -46.4857      2.00000
      3     -46.4685      2.00000
      4     -46.4650      2.00000
      5      -1.2044      2.00000
      6      -0.0929      2.00000
      7       1.3017      0.00000
      8       1.6521      0.00000
      9       3.1397      0.00000
     10       3.3309      0.00000

 k-point   156 :       0.4667    0.2667    0.2667
  band No.  band energies     occupation 
      1     -46.4907      2.00000
      2     -46.4880      2.00000
      3     -46.4676      2.00000
      4     -46.4663      2.00000
      5      -0.8762      2.00000
      6      -0.5029      2.00000
      7       1.5239      0.00000
      8       1.6578      0.00000
      9       2.9962      0.00000
     10       3.0625      0.00000

 k-point   157 :       0.3333    0.3333    0.2667
  band No.  band energies     occupation 
      1     -46.4939      2.00000
      2     -46.4843      2.00000
      3     -46.4696      2.00000
      4     -46.4650      2.00000
      5      -1.2564      2.00000
      6       0.3502      2.00000
      7       0.9127      0.00000
      8       1.5468      0.00000
      9       3.1685      0.00000
     10       3.7055      0.00000

 k-point   158 :       0.4000    0.3333    0.2667
  band No.  band energies     occupation 
      1     -46.4915      2.00000
      2     -46.4852      2.00000
      3     -46.4695      2.00000
      4     -46.4664      2.00000
      5      -0.9803      2.00000
      6       0.0741      2.00000
      7       1.0112      0.00000
      8       1.5525      0.00000
      9       2.9485      0.00000
     10       3.4039      0.00000

 k-point   159 :      -0.3333    0.4000    0.2667
  band No.  band energies     occupation 
      1     -46.4915      2.00000
      2     -46.4852      2.00000
      3     -46.4695      2.00000
      4     -46.4664      2.00000
      5      -0.9803      2.00000
      6       0.0741      2.00000
      7       1.0110      0.00000
      8       1.5525      0.00000
      9       2.9484      0.00000
     10       3.4046      0.00000

 k-point   160 :       0.4667    0.3333    0.2667
  band No.  band energies     occupation 
      1     -46.4892      2.00000
      2     -46.4870      2.00000
      3     -46.4689      2.00000
      4     -46.4677      2.00000
      5      -0.6590      2.00000
      6      -0.2997      2.00000
      7       1.2369      0.00000
      8       1.4474      0.00000
      9       2.9221      0.00000
     10       3.0983      0.00000

 k-point   161 :      -0.3333    0.4667    0.2667
  band No.  band energies     occupation 
      1     -46.4892      2.00000
      2     -46.4870      2.00000
      3     -46.4689      2.00000
      4     -46.4677      2.00000
      5      -0.6590      2.00000
      6      -0.2997      2.00000
      7       1.2367      0.00000
      8       1.4473      0.00000
      9       2.9223      0.00000
     10       3.0988      0.00000

 k-point   162 :       0.4000    0.4000    0.2667
  band No.  band energies     occupation 
      1     -46.4895      2.00000
      2     -46.4853      2.00000
      3     -46.4701      2.00000
      4     -46.4678      2.00000
      5      -0.7115      2.00000
      6       0.1293      2.00000
      7       0.8000      0.00006
      8       1.4037      0.00000
      9       2.8869      0.00000
     10       3.5586      0.00000

 k-point   163 :       0.4667    0.4000    0.2667
  band No.  band energies     occupation 
      1     -46.4877      2.00000
      2     -46.4862      2.00000
      3     -46.4699      2.00000
      4     -46.4690      2.00000
      5      -0.4059      2.00000
      6      -0.0889      2.00000
      7       0.9086      0.00000
      8       1.1600      0.00000
      9       3.0249      0.00000
     10       3.2933      0.00000

 k-point   164 :      -0.4000    0.4667    0.2667
  band No.  band energies     occupation 
      1     -46.4877      2.00000
      2     -46.4862      2.00000
      3     -46.4699      2.00000
      4     -46.4690      2.00000
      5      -0.4059      2.00000
      6      -0.0889      2.00000
      7       0.9085      0.00000
      8       1.1599      0.00000
      9       3.0251      0.00000
     10       3.2938      0.00000

 k-point   165 :       0.4667    0.4667    0.2667
  band No.  band energies     occupation 
      1     -46.4865      2.00000
      2     -46.4859      2.00000
      3     -46.4703      2.00000
      4     -46.4700      2.00000
      5      -0.1444      2.00000
      6       0.0137      2.00000
      7       0.7297      1.66384
      8       0.8696      0.00000
      9       3.2590      0.00000
     10       3.5072      0.00000

 k-point   166 :       0.3333    0.3333    0.3333
  band No.  band energies     occupation 
      1     -46.4919      2.00000
      2     -46.4840      2.00000
      3     -46.4705      2.00000
      4     -46.4664      2.00000
      5      -1.0303      2.00000
      6       0.4518      2.00000
      7       0.8743      0.00000
      8       1.3763      0.00000
      9       3.2179      0.00000
     10       3.4713      0.00000

 k-point   167 :       0.4000    0.3333    0.3333
  band No.  band energies     occupation 
      1     -46.4897      2.00000
      2     -46.4844      2.00000
      3     -46.4708      2.00000
      4     -46.4679      2.00000
      5      -0.7574      2.00000
      6       0.2538      2.00000
      7       0.9755      0.00000
      8       1.3702      0.00000
      9       2.9720      0.00000
     10       3.0722      0.00000

 k-point   168 :       0.4667    0.3333    0.3333
  band No.  band energies     occupation 
      1     -46.4875      2.00000
      2     -46.4856      2.00000
      3     -46.4703      2.00000
      4     -46.4693      2.00000
      5      -0.4419      2.00000
      6      -0.0940      2.00000
      7       1.1822      0.00000
      8       1.3336      0.00000
      9       2.7985      0.00000
     10       2.8412      0.00000

 k-point   169 :       0.4000    0.4000    0.3333
  band No.  band energies     occupation 
      1     -46.4877      2.00000
      2     -46.4840      2.00000
      3     -46.4717      2.00000
      4     -46.4694      2.00000
      5      -0.4910      2.00000
      6       0.3307      2.00000
      7       0.8607      0.00000
      8       1.2929      0.00000
      9       2.7781      0.00000
     10       3.1882      0.00000

 k-point   170 :       0.4667    0.4000    0.3333
  band No.  band energies     occupation 
      1     -46.4859      2.00000
      2     -46.4845      2.00000
      3     -46.4716      2.00000
      4     -46.4707      2.00000
      5      -0.1896      2.00000
      6       0.1214      2.00000
      7       0.9751      0.00000
      8       1.1683      0.00000
      9       2.7487      0.00000
     10       2.9196      0.00000

 k-point   171 :      -0.4000    0.4667    0.3333
  band No.  band energies     occupation 
      1     -46.4859      2.00000
      2     -46.4845      2.00000
      3     -46.4716      2.00000
      4     -46.4707      2.00000
      5      -0.1895      2.00000
      6       0.1214      2.00000
      7       0.9751      0.00000
      8       1.1683      0.00000
      9       2.7487      0.00000
     10       2.9198      0.00000

 k-point   172 :       0.4667    0.4667    0.3333
  band No.  band energies     occupation 
      1     -46.4846      2.00000
      2     -46.4840      2.00000
      3     -46.4722      2.00000
      4     -46.4719      2.00000
      5       0.0719      2.00000
      6       0.2318      2.00000
      7       0.8255      0.00000
      8       0.9515      0.00000
      9       2.8837      0.00000
     10       3.1363      0.00000

 k-point   173 :       0.4000    0.4000    0.4000
  band No.  band energies     occupation 
      1     -46.4857      2.00000
      2     -46.4830      2.00000
      3     -46.4729      2.00000
      4     -46.4711      2.00000
      5      -0.2300      2.00000
      6       0.4777      2.00000
      7       0.8498      0.00000
      8       1.1856      0.00000
      9       2.8346      0.00000
     10       2.8840      0.00000

 k-point   174 :       0.4667    0.4000    0.4000
  band No.  band energies     occupation 
      1     -46.4840      2.00000
      2     -46.4829      2.00000
      3     -46.4733      2.00000
      4     -46.4725      2.00000
      5       0.0595      2.00000
      6       0.3433      2.00000
      7       0.9526      0.00000
      8       1.1012      0.00000
      9       2.6594      0.00000
     10       2.6988      0.00000

 k-point   175 :       0.4667    0.4667    0.4000
  band No.  band energies     occupation 
      1     -46.4824      2.00000
      2     -46.4820      2.00000
      3     -46.4743      2.00000
      4     -46.4740      2.00000
      5       0.3148      2.00000
      6       0.4684      2.00000
      7       0.8783      0.00000
      8       0.9798      0.00000
      9       2.6447      0.00000
     10       2.7964      0.00000

 k-point   176 :       0.4667    0.4667    0.4667
  band No.  band energies     occupation 
      1     -46.4804      2.00000
      2     -46.4801      2.00000
      3     -46.4762      2.00000
      4     -46.4759      2.00000
      5       0.5518      2.00000
      6       0.6533      2.00000
      7       0.8517      0.00000
      8       0.9235      0.00000
      9       2.5889      0.00000
     10       2.6322      0.00000


--------------------------------------------------------------------------------------------------------


 soft charge-density along one line, spin component            1
         0         1         2         3         4         5         6         7         8         9
 total charge-density along one line
 
 pseudopotential strength for first ion, spin component:            1
-41.140   2.772   0.000   0.000  -0.000
  2.772  -9.119   0.000   0.000  -0.000
  0.000   0.000   0.128   0.000  -0.000
  0.000   0.000   0.000   0.128  -0.000
 -0.000  -0.000  -0.000  -0.000   0.128
 total augmentation occupancy for first ion, spin component:            1
  2.001   0.004  -0.000  -0.000   0.000
  0.004   0.954  -0.000  -0.000   0.000
 -0.000  -0.000   0.021  -0.001   0.001
 -0.000  -0.000  -0.001   0.021   0.001
  0.000   0.000   0.001   0.001   0.021


------------------------ aborting loop because EDIFF is reached ----------------------------------------


    CHARGE:  cpu time      0.1868: real time      0.1872
    FORLOC:  cpu time      0.0008: real time      0.0008
    FORNL :  cpu time      0.3890: real time      0.3897
    STRESS:  cpu time      3.5356: real time      3.5434
    FORHAR:  cpu time      0.0014: real time      0.0014
    MIXING:  cpu time      0.0050: real time      0.0050
    OFIELD:  cpu time      0.0000: real time      0.0000

  FORCE on cell =-STRESS in cart. coord.  units (eV):
  Direction    XX          YY          ZZ          XY          YZ          ZX
  --------------------------------------------------------------------------------------
  Alpha Z     4.36073     4.36073     4.36073
  Ewald     -87.22168   -87.22168   -87.22168    -0.00000     0.00000    -0.00000
  Hartree    57.18712    57.18712    57.18712    -0.00000    -0.00000    -0.00000
  E(xc)     -53.03370   -53.03370   -53.03370    -0.00000    -0.00000    -0.00000
  Local     -83.61400   -83.61400   -83.61400     0.00000     0.00000     0.00000
  n-local   -76.45793   -76.76618   -77.99771    -0.02869     0.18621    -0.04295
  augment    68.48733    68.48733    68.48733     0.00000    -0.00000    -0.00000
  Kinetic   174.18518   172.79969   166.37180    -0.65064     0.66695    -0.51359
  Fock        0.00000     0.00000     0.00000     0.00000     0.00000     0.00000
  -------------------------------------------------------------------------------------
  Total       0.21075     0.21075     0.21075     0.00000     0.00000     0.00000
  in kB       3.99781     3.99781     3.99781     0.00000     0.00000     0.00000
  external pressure =        4.00 kB  Pullay stress =        0.00 kB


 VOLUME and BASIS-vectors are now :
 -----------------------------------------------------------------------------
  energy-cutoff  :      600.00
  volume of cell :       84.46
      direct lattice vectors                 reciprocal lattice vectors
     4.387542537 -0.000000000  0.000000000     0.227918018  0.000000000  0.000000000
    -0.000000000  4.387542537 -0.000000000     0.000000000  0.227918018  0.000000000
    -0.000000000 -0.000000000  4.387542537     0.000000000  0.000000000  0.227918018

  length of vectors
     4.387542537  4.387542537  4.387542537     0.227918018  0.227918018  0.227918018


 FORCES acting on ions
    electron-ion (+dipol)            ewald-force                    non-local-force                 convergence-correction
 -----------------------------------------------------------------------------------------------
   0.368E-01 -.368E-01 -.368E-01   -.419E-01 0.419E-01 0.419E-01   0.804E-03 -.804E-03 -.804E-03   -.235E-03 0.235E-03 0.235E-03
   0.368E-01 0.368E-01 0.368E-01   -.419E-01 -.419E-01 -.419E-01   0.804E-03 0.804E-03 0.804E-03   -.235E-03 -.235E-03 -.235E-03
   -.368E-01 -.368E-01 0.368E-01   0.419E-01 0.419E-01 -.419E-01   -.804E-03 -.804E-03 0.804E-03   0.235E-03 0.235E-03 -.235E-03
   -.368E-01 0.368E-01 -.368E-01   0.419E-01 -.419E-01 0.419E-01   -.804E-03 0.804E-03 -.804E-03   0.235E-03 -.235E-03 0.235E-03
 -----------------------------------------------------------------------------------------------
   -.166E-07 -.159E-07 -.116E-09   0.116E-14 0.271E-15 -.167E-15   0.108E-17 0.000E+00 -.867E-18   0.967E-14 -.304E-14 0.469E-13
 
 
 POSITION                                       TOTAL-FORCE (eV/Angst)
 -----------------------------------------------------------------------------------
      3.83580      0.55174      2.74551        -0.004588      0.004588      0.004588
      1.64203      1.64203      1.64203        -0.004588     -0.004588     -0.004588
      0.55174      2.74551      3.83580         0.004588      0.004588     -0.004588
      2.74551      3.83580      0.55174         0.004588     -0.004588      0.004588
 -----------------------------------------------------------------------------------
    total drift:                               -0.000000     -0.000000     -0.000000


--------------------------------------------------------------------------------------------------------



  FREE ENERGIE OF THE ION-ELECTRON SYSTEM (eV)
  ---------------------------------------------------
  free  energy   TOTEN  =        -6.57059912 eV

  energy  without entropy=       -6.57033034  energy(sigma->0) =       -6.57046473
 d Force = 0.7368699E-04[ 0.103E-03, 0.443E-04]  d Energy =-0.2692225E-02 0.277E-02
 d Force = 0.6665074E-03[ 0.942E-03, 0.391E-03]  d Ewald  = 0.5496810E+01-0.550E+01
 


--------------------------------------------------------------------------------------------------------


    POTLOK:  cpu time      0.0099: real time      0.0099


--------------------------------------------------------------------------------------------------------


 Quasi-Newton relaxation of ions (Broydens 2nd method)
  g(Force)  = 0.122E-04   g(Stress)= 0.161E-02

 retain information from N=  1 steps
 eigenvalues of (default step * inverse Hessian matrix)
  average eigenvalue of G=   5.0290
 eigenvalue spectrum of G is  5.0290


--------------------------------------------------------------------------------------------------------


      MLFF:  cpu time      0.0116: real time      0.0117
    WAVPRE:  cpu time      0.0244: real time      0.0244
    FEWALD:  cpu time      0.0014: real time      0.0014
    GENKIN:  cpu time      0.0420: real time      0.0421
    ORTHCH:  cpu time      0.2047: real time      0.2051
     LOOP+:  cpu time     17.2160: real time     17.2606


--------------------------------------- Ionic step        5  -------------------------------------------




--------------------------------------- Iteration      5(   1)  ---------------------------------------


    POTLOK:  cpu time      0.0050: real time      0.0050
    SETDIJ:  cpu time      0.0024: real time      0.0024
     EDDAV:  cpu time      2.2063: real time      2.2129
       DOS:  cpu time      0.0006: real time      0.0006
    CHARGE:  cpu time      0.1680: real time      0.1684
    MIXING:  cpu time      0.0040: real time      0.0040
    --------------------------------------------
      LOOP:  cpu time      2.3864: real time      2.3933

 eigenvalue-minimisations  :  5568
 total energy-change (2. order) :-0.1431883E-01  (-0.4396151E-01)
 number of electron      12.0000020 magnetization 
 augmentation part        3.6874749 magnetization 

 Broyden mixing:
  rms(total) = 0.13606E+00    rms(broyden)= 0.13567E+00
  rms(prec ) = 0.18111E+00
  weight for this iteration     100.00

 Free energy of the ion-electron system (eV)
  ---------------------------------------------------
  alpha Z        PSCENC =         4.19763091
  Ewald energy   TEWEN  =      -258.36070603
  -Hartree energ DENC   =      -169.40324843
  -exchange      EXHF   =         0.00000000
  -V(xc)+E(xc)   XCENC  =        47.61839080
  PAW double counting   =       326.27848988     -388.09106379
  entropy T*S    EENTRO =        -0.00031518
  eigenvalues    EBANDS =      -379.92705952
  atomic energy  EATOM  =       811.10301397
  Solvation  Ediel_sol  =         0.00000000
  ---------------------------------------------------
  free energy    TOTEN  =        -6.58486739 eV

  energy without entropy =       -6.58455220  energy(sigma->0) =       -6.58470979


--------------------------------------------------------------------------------------------------------




--------------------------------------- Iteration      5(   2)  ---------------------------------------


    POTLOK:  cpu time      0.0050: real time      0.0050
    SETDIJ:  cpu time      0.0024: real time      0.0024
     EDDAV:  cpu time      1.8459: real time      1.8514
       DOS:  cpu time      0.0006: real time      0.0006
    CHARGE:  cpu time      0.1685: real time      0.1689
    MIXING:  cpu time      0.0040: real time      0.0040
    --------------------------------------------
      LOOP:  cpu time      2.0263: real time      2.0323

 eigenvalue-minimisations  :  4264
 total energy-change (2. order) : 0.3227936E-02  (-0.7884374E-02)
 number of electron      12.0000019 magnetization 
 augmentation part        3.6598669 magnetization 

 Broyden mixing:
  rms(total) = 0.93788E-01    rms(broyden)= 0.93717E-01
  rms(prec ) = 0.12549E+00
  weight for this iteration     100.00

 eigenvalues of (default mixing * dielectric matrix)
  average eigenvalue GAMMA=   3.2180
  3.2180

 Free energy of the ion-electron system (eV)
  ---------------------------------------------------
  alpha Z        PSCENC =         4.19763091
  Ewald energy   TEWEN  =      -258.36070603
  -Hartree energ DENC   =      -170.79166466
  -exchange      EXHF   =         0.00000000
  -V(xc)+E(xc)   XCENC  =        47.80581888
  PAW double counting   =       325.68859099     -387.51757741
  entropy T*S    EENTRO =        -0.00031116
  eigenvalues    EBANDS =      -378.70643494
  atomic energy  EATOM  =       811.10301397
  Solvation  Ediel_sol  =         0.00000000
  ---------------------------------------------------
  free energy    TOTEN  =        -6.58163945 eV

  energy without entropy =       -6.58132829  energy(sigma->0) =       -6.58148387


--------------------------------------------------------------------------------------------------------




--------------------------------------- Iteration      5(   3)  ---------------------------------------


    POTLOK:  cpu time      0.0051: real time      0.0051
    SETDIJ:  cpu time      0.0024: real time      0.0024
     EDDAV:  cpu time      2.3640: real time      2.3711
       DOS:  cpu time      0.0006: real time      0.0006
    CHARGE:  cpu time      0.1670: real time      0.1674
    MIXING:  cpu time      0.0041: real time      0.0041
    --------------------------------------------
      LOOP:  cpu time      2.5431: real time      2.5506

 eigenvalue-minimisations  :  6062
 total energy-change (2. order) : 0.6159950E-02  (-0.2100986E-02)
 number of electron      12.0000020 magnetization 
 augmentation part        3.6898396 magnetization 

 Broyden mixing:
  rms(total) = 0.39084E-01    rms(broyden)= 0.39059E-01
  rms(prec ) = 0.51620E-01
  weight for this iteration     100.00

 eigenvalues of (default mixing * dielectric matrix)
  average eigenvalue GAMMA=   1.6359
  0.7795  2.4924

 Free energy of the ion-electron system (eV)
  ---------------------------------------------------
  alpha Z        PSCENC =         4.19763091
  Ewald energy   TEWEN  =      -258.36070603
  -Hartree energ DENC   =      -174.00091677
  -exchange      EXHF   =         0.00000000
  -V(xc)+E(xc)   XCENC  =        48.22681283
  PAW double counting   =       326.57981390     -388.47830900
  entropy T*S    EENTRO =        -0.00029760
  eigenvalues    EBANDS =      -375.84252171
  atomic energy  EATOM  =       811.10301397
  Solvation  Ediel_sol  =         0.00000000
  ---------------------------------------------------
  free energy    TOTEN  =        -6.57547950 eV

  energy without entropy =       -6.57518190  energy(sigma->0) =       -6.57533070


--------------------------------------------------------------------------------------------------------




--------------------------------------- Iteration      5(   4)  ---------------------------------------


    POTLOK:  cpu time      0.0049: real time      0.0049
    SETDIJ:  cpu time      0.0024: real time      0.0024
     EDDAV:  cpu time      1.7394: real time      1.7446
       DOS:  cpu time      0.0006: real time      0.0006
    CHARGE:  cpu time      0.1670: real time      0.1673
    MIXING:  cpu time      0.0041: real time      0.0041
    --------------------------------------------
      LOOP:  cpu time      1.9183: real time      1.9239

 eigenvalue-minimisations  :  3886
 total energy-change (2. order) : 0.8365943E-03  (-0.3022644E-03)
 number of electron      12.0000020 magnetization 
 augmentation part        3.6904542 magnetization 

 Broyden mixing:
  rms(total) = 0.63898E-02    rms(broyden)= 0.63822E-02
  rms(prec ) = 0.81821E-02
  weight for this iteration     100.00

 eigenvalues of (default mixing * dielectric matrix)
  average eigenvalue GAMMA=   1.5903
  2.4927  1.1391  1.1391

 Free energy of the ion-electron system (eV)
  ---------------------------------------------------
  alpha Z        PSCENC =         4.19763091
  Ewald energy   TEWEN  =      -258.36070603
  -Hartree energ DENC   =      -173.12057634
  -exchange      EXHF   =         0.00000000
  -V(xc)+E(xc)   XCENC  =        48.11094415
  PAW double counting   =       325.70935932     -387.57331261
  entropy T*S    EENTRO =        -0.00030026
  eigenvalues    EBANDS =      -376.64069603
  atomic energy  EATOM  =       811.10301397
  Solvation  Ediel_sol  =         0.00000000
  ---------------------------------------------------
  free energy    TOTEN  =        -6.57464291 eV

  energy without entropy =       -6.57434265  energy(sigma->0) =       -6.57449278


--------------------------------------------------------------------------------------------------------




--------------------------------------- Iteration      5(   5)  ---------------------------------------


    POTLOK:  cpu time      0.0052: real time      0.0053
    SETDIJ:  cpu time      0.0025: real time      0.0025
     EDDAV:  cpu time      1.6587: real time      1.6639
       DOS:  cpu time      0.0006: real time      0.0006
    --------------------------------------------
      LOOP:  cpu time      1.6670: real time      1.6722

 eigenvalue-minimisations  :  3928
 total energy-change (2. order) :-0.6160409E-04  (-0.5047281E-04)
 number of electron      12.0000020 magnetization 
 augmentation part        3.6904542 magnetization 

 Free energy of the ion-electron system (eV)
  ---------------------------------------------------
  alpha Z        PSCENC =         4.19763091
  Ewald energy   TEWEN  =      -258.36070603
  -Hartree energ DENC   =      -173.05184577
  -exchange      EXHF   =         0.00000000
  -V(xc)+E(xc)   XCENC  =        48.10363792
  PAW double counting   =       324.90509975     -386.76128963
  entropy T*S    EENTRO =        -0.00030020
  eigenvalues    EBANDS =      -376.70994544
  atomic energy  EATOM  =       811.10301397
  Solvation  Ediel_sol  =         0.00000000
  ---------------------------------------------------
  free energy    TOTEN  =        -6.57470451 eV

  energy without entropy =       -6.57440431  energy(sigma->0) =       -6.57455441


--------------------------------------------------------------------------------------------------------




 average (electrostatic) potential at core
  the test charge radii are     0.7079
  (the norm of the test charge is              1.0000)
       1 -65.7313       2 -65.7313       3 -65.7313       4 -65.7313
 
 
 
 E-fermi :   0.6053     XC(G=0):  -6.8453     alpha+bet : -6.8189

 val. band max:        0.5954472520   @ k =   0.4667   0.4667   0.2667
 cond. band min:       0.6091937237   @ k =  -0.4000   0.4667   0.1333
 fundamental gap:      0.0137464716
 Fermi energy:         0.6053396979

 k-point     1 :       0.0000    0.0000    0.0000
  band No.  band energies     occupation 
      1     -46.6577      2.00000
      2     -46.6156      2.00000
      3     -46.6156      2.00000
      4     -46.6156      2.00000
      5      -3.0050      2.00000
      6       2.7109      0.00000
      7       2.7109      0.00000
      8       2.7110      0.00000
      9       2.8933      0.00000
     10       2.8933      0.00000

 k-point     2 :       0.0667    0.0000    0.0000
  band No.  band energies     occupation 
      1     -46.6574      2.00000
      2     -46.6180      2.00000
      3     -46.6155      2.00000
      4     -46.6137      2.00000
      5      -2.9796      2.00000
      6       2.0814      0.00000
      7       2.7200      0.00000
      8       2.7244      0.00000
      9       2.8580      0.00000
     10       2.9230      0.00000

 k-point     3 :       0.1333    0.0000    0.0000
  band No.  band energies     occupation 
      1     -46.6564      2.00000
      2     -46.6208      2.00000
      3     -46.6152      2.00000
      4     -46.6122      2.00000
      5      -2.9030      2.00000
      6       1.3856      0.00000
      7       2.7240      0.00000
      8       2.7462      0.00000
      9       2.9689      0.00000
     10       3.0113      0.00000

 k-point     4 :       0.2000    0.0000    0.0000
  band No.  band energies     occupation 
      1     -46.6547      2.00000
      2     -46.6240      2.00000
      3     -46.6147      2.00000
      4     -46.6113      2.00000
      5      -2.7752      2.00000
      6       0.7340      0.00000
      7       2.7489      0.00000
      8       2.7858      0.00000
      9       3.1230      0.00000
     10       3.1559      0.00000

 k-point     5 :       0.2667    0.0000    0.0000
  band No.  band energies     occupation 
      1     -46.6523      2.00000
      2     -46.6275      2.00000
      3     -46.6141      2.00000
      4     -46.6107      2.00000
      5      -2.5956      2.00000
      6       0.1323      2.00000
      7       2.7926      0.00000
      8       2.8330      0.00000
      9       3.3148      0.00000
     10       3.3509      0.00000

 k-point     6 :       0.3333    0.0000    0.0000
  band No.  band energies     occupation 
      1     -46.6495      2.00000
      2     -46.6312      2.00000
      3     -46.6133      2.00000
      4     -46.6105      2.00000
      5      -2.3644      2.00000
      6      -0.4170      2.00000
      7       2.8446      0.00000
      8       2.8797      0.00000
      9       3.5357      0.00000
     10       3.5832      0.00000

 k-point     7 :       0.4000    0.0000    0.0000
  band No.  band energies     occupation 
      1     -46.6462      2.00000
      2     -46.6351      2.00000
      3     -46.6125      2.00000
      4     -46.6106      2.00000
      5      -2.0809      2.00000
      6      -0.9131      2.00000
      7       2.8926      0.00000
      8       2.9160      0.00000
      9       3.7645      0.00000
     10       3.8190      0.00000

 k-point     8 :       0.4667    0.0000    0.0000
  band No.  band energies     occupation 
      1     -46.6427      2.00000
      2     -46.6389      2.00000
      3     -46.6117      2.00000
      4     -46.6111      2.00000
      5      -1.7449      2.00000
      6      -1.3557      2.00000
      7       2.9246      0.00000
      8       2.9327      0.00000
      9       3.9461      0.00000
     10       3.9754      0.00000

 k-point     9 :       0.0667    0.0667    0.0000
  band No.  band energies     occupation 
      1     -46.6571      2.00000
      2     -46.6190      2.00000
      3     -46.6156      2.00000
      4     -46.6130      2.00000
      5      -2.9541      2.00000
      6       2.0277      0.00000
      7       2.1778      0.00000
      8       2.7776      0.00000
      9       2.8230      0.00000
     10       3.4238      0.00000

 k-point    10 :       0.1333    0.0667    0.0000
  band No.  band energies     occupation 
      1     -46.6560      2.00000
      2     -46.6213      2.00000
      3     -46.6154      2.00000
      4     -46.6119      2.00000
      5      -2.8775      2.00000
      6       1.3967      0.00000
      7       2.1817      0.00000
      8       2.8103      0.00000
      9       2.8854      0.00000
     10       3.5780      0.00000

 k-point    11 :      -0.0667    0.1333    0.0000
  band No.  band energies     occupation 
      1     -46.6560      2.00000
      2     -46.6213      2.00000
      3     -46.6154      2.00000
      4     -46.6119      2.00000
      5      -2.8775      2.00000
      6       1.3967      0.00000
      7       2.1814      0.00000
      8       2.8117      0.00000
      9       2.8846      0.00000
     10       3.5775      0.00000

 k-point    12 :       0.2000    0.0667    0.0000
  band No.  band energies     occupation 
      1     -46.6543      2.00000
      2     -46.6242      2.00000
      3     -46.6150      2.00000
      4     -46.6111      2.00000
      5      -2.7496      2.00000
      6       0.7519      0.00000
      7       2.2736      0.00000
      8       2.8552      0.00000
      9       2.9916      0.00000
     10       3.6853      0.00000

 k-point    13 :      -0.0667    0.2000    0.0000
  band No.  band energies     occupation 
      1     -46.6543      2.00000
      2     -46.6242      2.00000
      3     -46.6150      2.00000
      4     -46.6111      2.00000
      5      -2.7496      2.00000
      6       0.7519      0.00000
      7       2.2729      0.00000
      8       2.8571      0.00000
      9       2.9913      0.00000
     10       3.6842      0.00000

 k-point    14 :       0.2667    0.0667    0.0000
  band No.  band energies     occupation 
      1     -46.6520      2.00000
      2     -46.6276      2.00000
      3     -46.6143      2.00000
      4     -46.6106      2.00000
      5      -2.5704      2.00000
      6       0.1533      2.00000
      7       2.3940      0.00000
      8       2.8997      0.00000
      9       3.1410      0.00000
     10       3.8101      0.00000

 k-point    15 :      -0.0667    0.2667    0.0000
  band No.  band energies     occupation 
      1     -46.6520      2.00000
      2     -46.6276      2.00000
      3     -46.6143      2.00000
      4     -46.6106      2.00000
      5      -2.5704      2.00000
      6       0.1533      2.00000
      7       2.3928      0.00000
      8       2.9015      0.00000
      9       3.1417      0.00000
     10       3.8084      0.00000

 k-point    16 :       0.3333    0.0667    0.0000
  band No.  band energies     occupation 
      1     -46.6492      2.00000
      2     -46.6312      2.00000
      3     -46.6136      2.00000
      4     -46.6105      2.00000
      5      -2.3392      2.00000
      6      -0.3944      2.00000
      7       2.5295      0.00000
      8       2.9272      0.00000
      9       3.3314      0.00000
     10       3.9359      0.00000

 k-point    17 :      -0.0667    0.3333    0.0000
  band No.  band energies     occupation 
      1     -46.6492      2.00000
      2     -46.6312      2.00000
      3     -46.6136      2.00000
      4     -46.6105      2.00000
      5      -2.3392      2.00000
      6      -0.3944      2.00000
      7       2.5281      0.00000
      8       2.9284      0.00000
      9       3.3334      0.00000
     10       3.9340      0.00000

 k-point    18 :       0.4000    0.0667    0.0000
  band No.  band energies     occupation 
      1     -46.6460      2.00000
      2     -46.6350      2.00000
      3     -46.6127      2.00000
      4     -46.6107      2.00000
      5      -2.0560      2.00000
      6      -0.8895      2.00000
      7       2.6652      0.00000
      8       2.9217      0.00000
      9       3.5541      0.00000
     10       4.0107      0.00000

 k-point    19 :      -0.0667    0.4000    0.0000
  band No.  band energies     occupation 
      1     -46.6460      2.00000
      2     -46.6350      2.00000
      3     -46.6127      2.00000
      4     -46.6107      2.00000
      5      -2.0560      2.00000
      6      -0.8895      2.00000
      7       2.6638      0.00000
      8       2.9221      0.00000
      9       3.5569      0.00000
     10       4.0098      0.00000

 k-point    20 :       0.4667    0.0667    0.0000
  band No.  band energies     occupation 
      1     -46.6425      2.00000
      2     -46.6388      2.00000
      3     -46.6119      2.00000
      4     -46.6112      2.00000
      5      -1.7202      2.00000
      6      -1.3314      2.00000
      7       2.7850      0.00000
      8       2.8739      0.00000
      9       3.7833      0.00000
     10       3.9607      0.00000

 k-point    21 :      -0.0667    0.4667    0.0000
  band No.  band energies     occupation 
      1     -46.6425      2.00000
      2     -46.6388      2.00000
      3     -46.6119      2.00000
      4     -46.6112      2.00000
      5      -1.7202      2.00000
      6      -1.3314      2.00000
      7       2.7840      0.00000
      8       2.8736      0.00000
      9       3.7860      0.00000
     10       3.9619      0.00000

 k-point    22 :       0.1333    0.1333    0.0000
  band No.  band energies     occupation 
      1     -46.6550      2.00000
      2     -46.6227      2.00000
      3     -46.6157      2.00000
      4     -46.6112      2.00000
      5      -2.8010      2.00000
      6       1.3174      0.00000
      7       1.6592      0.00000
      8       2.8434      0.00000
      9       2.9392      0.00000
     10       3.9933      0.00000

 k-point    23 :       0.2000    0.1333    0.0000
  band No.  band energies     occupation 
      1     -46.6534      2.00000
      2     -46.6250      2.00000
      3     -46.6155      2.00000
      4     -46.6107      2.00000
      5      -2.6733      2.00000
      6       0.7920      0.00000
      7       1.6589      0.00000
      8       2.8791      0.00000
      9       3.0369      0.00000
     10       4.1171      0.00000

 k-point    24 :      -0.1333    0.2000    0.0000
  band No.  band energies     occupation 
      1     -46.6534      2.00000
      2     -46.6250      2.00000
      3     -46.6155      2.00000
      4     -46.6107      2.00000
      5      -2.6733      2.00000
      6       0.7921      0.00000
      7       1.6584      0.00000
      8       2.8801      0.00000
      9       3.0369      0.00000
     10       4.1158      0.00000

 k-point    25 :       0.2667    0.1333    0.0000
  band No.  band energies     occupation 
      1     -46.6512      2.00000
      2     -46.6280      2.00000
      3     -46.6149      2.00000
      4     -46.6105      2.00000
      5      -2.4944      2.00000
      6       0.2120      2.00000
      7       1.7986      0.00000
      8       2.9005      0.00000
      9       3.1700      0.00000
     10       4.1290      0.00000

 k-point    26 :      -0.1333    0.2667    0.0000
  band No.  band energies     occupation 
      1     -46.6512      2.00000
      2     -46.6280      2.00000
      3     -46.6149      2.00000
      4     -46.6105      2.00000
      5      -2.4944      2.00000
      6       0.2121      2.00000
      7       1.7978      0.00000
      8       2.9016      0.00000
      9       3.1709      0.00000
     10       4.1272      0.00000

 k-point    27 :       0.3333    0.1333    0.0000
  band No.  band energies     occupation 
      1     -46.6484      2.00000
      2     -46.6312      2.00000
      3     -46.6142      2.00000
      4     -46.6106      2.00000
      5      -2.2636      2.00000
      6      -0.3282      2.00000
      7       1.9829      0.00000
      8       2.8778      0.00000
      9       3.3324      0.00000
     10       4.0832      0.00000

 k-point    28 :      -0.1333    0.3333    0.0000
  band No.  band energies     occupation 
      1     -46.6484      2.00000
      2     -46.6312      2.00000
      3     -46.6142      2.00000
      4     -46.6106      2.00000
      5      -2.2636      2.00000
      6      -0.3281      2.00000
      7       1.9818      0.00000
      8       2.8784      0.00000
      9       3.3347      0.00000
     10       4.0823      0.00000

 k-point    29 :       0.4000    0.1333    0.0000
  band No.  band energies     occupation 
      1     -46.6453      2.00000
      2     -46.6348      2.00000
      3     -46.6133      2.00000
      4     -46.6110      2.00000
      5      -1.9810      2.00000
      6      -0.8194      2.00000
      7       2.1943      0.00000
      8       2.7855      0.00000
      9       3.5142      0.00000
     10       3.9946      0.00000

 k-point    30 :      -0.1333    0.4000    0.0000
  band No.  band energies     occupation 
      1     -46.6453      2.00000
      2     -46.6348      2.00000
      3     -46.6133      2.00000
      4     -46.6110      2.00000
      5      -1.9810      2.00000
      6      -0.8193      2.00000
      7       2.1929      0.00000
      8       2.7851      0.00000
      9       3.5179      0.00000
     10       3.9962      0.00000

 k-point    31 :       0.4667    0.1333    0.0000
  band No.  band energies     occupation 
      1     -46.6419      2.00000
      2     -46.6384      2.00000
      3     -46.6124      2.00000
      4     -46.6116      2.00000
      5      -1.6461      2.00000
      6      -1.2589      2.00000
      7       2.4158      0.00000
      8       2.6231      0.00000
      9       3.6992      0.00000
     10       3.8655      0.00000

 k-point    32 :      -0.1333    0.4667    0.0000
  band No.  band energies     occupation 
      1     -46.6419      2.00000
      2     -46.6384      2.00000
      3     -46.6124      2.00000
      4     -46.6116      2.00000
      5      -1.6461      2.00000
      6      -1.2589      2.00000
      7       2.4143      0.00000
      8       2.6219      0.00000
      9       3.7037      0.00000
     10       3.8693      0.00000

 k-point    33 :       0.2000    0.2000    0.0000
  band No.  band energies     occupation 
      1     -46.6518      2.00000
      2     -46.6265      2.00000
      3     -46.6157      2.00000
      4     -46.6105      2.00000
      5      -2.5460      2.00000
      6       0.7206      0.00000
      7       1.2218      0.00000
      8       2.8859      0.00000
      9       3.1330      0.00000
     10       4.2213      0.00000

 k-point    34 :       0.2667    0.2000    0.0000
  band No.  band energies     occupation 
      1     -46.6497      2.00000
      2     -46.6287      2.00000
      3     -46.6155      2.00000
      4     -46.6106      2.00000
      5      -2.3675      2.00000
      6       0.2856      2.00000
      7       1.2352      0.00000
      8       2.8433      0.00000
      9       3.2645      0.00000
     10       4.1373      0.00000

 k-point    35 :      -0.2000    0.2667    0.0000
  band No.  band energies     occupation 
      1     -46.6497      2.00000
      2     -46.6287      2.00000
      3     -46.6155      2.00000
      4     -46.6106      2.00000
      5      -2.3675      2.00000
      6       0.2857      2.00000
      7       1.2347      0.00000
      8       2.8436      0.00000
      9       3.2652      0.00000
     10       4.1370      0.00000

 k-point    36 :       0.3333    0.2000    0.0000
  band No.  band energies     occupation 
      1     -46.6472      2.00000
      2     -46.6315      2.00000
      3     -46.6149      2.00000
      4     -46.6110      2.00000
      5      -2.1376      2.00000
      6      -0.2254      2.00000
      7       1.4148      0.00000
      8       2.7119      0.00000
      9       3.4219      0.00000
     10       4.0336      0.00000

 k-point    37 :      -0.2000    0.3333    0.0000
  band No.  band energies     occupation 
      1     -46.6472      2.00000
      2     -46.6315      2.00000
      3     -46.6149      2.00000
      4     -46.6110      2.00000
      5      -2.1376      2.00000
      6      -0.2253      2.00000
      7       1.4141      0.00000
      8       2.7117      0.00000
      9       3.4240      0.00000
     10       4.0347      0.00000

 k-point    38 :       0.4000    0.2000    0.0000
  band No.  band energies     occupation 
      1     -46.6443      2.00000
      2     -46.6346      2.00000
      3     -46.6141      2.00000
      4     -46.6115      2.00000
      5      -1.8563      2.00000
      6      -0.7055      2.00000
      7       1.6516      0.00000
      8       2.4880      0.00000
      9       3.5913      0.00000
     10       3.9587      0.00000

 k-point    39 :      -0.2000    0.4000    0.0000
  band No.  band energies     occupation 
      1     -46.6443      2.00000
      2     -46.6346      2.00000
      3     -46.6141      2.00000
      4     -46.6115      2.00000
      5      -1.8563      2.00000
      6      -0.7054      2.00000
      7       1.6506      0.00000
      8       2.4872      0.00000
      9       3.5947      0.00000
     10       3.9617      0.00000

 k-point    40 :       0.4667    0.2000    0.0000
  band No.  band energies     occupation 
      1     -46.6411      2.00000
      2     -46.6378      2.00000
      3     -46.6132      2.00000
      4     -46.6123      2.00000
      5      -1.5234      2.00000
      6      -1.1394      2.00000
      7       1.9231      0.00000
      8       2.2110      0.00000
      9       3.7509      0.00000
     10       3.8756      0.00000

 k-point    41 :      -0.2000    0.4667    0.0000
  band No.  band energies     occupation 
      1     -46.6411      2.00000
      2     -46.6378      2.00000
      3     -46.6132      2.00000
      4     -46.6123      2.00000
      5      -1.5234      2.00000
      6      -1.1394      2.00000
      7       1.9219      0.00000
      8       2.2099      0.00000
      9       3.7554      0.00000
     10       3.8801      0.00000

 k-point    42 :       0.2667    0.2667    0.0000
  band No.  band energies     occupation 
      1     -46.6478      2.00000
      2     -46.6301      2.00000
      3     -46.6157      2.00000
      4     -46.6109      2.00000
      5      -2.1898      2.00000
      6       0.2413      2.00000
      7       0.8714      0.00000
      8       2.6841      0.00000
      9       3.3988      0.00000
     10       4.0510      0.00000

 k-point    43 :       0.3333    0.2667    0.0000
  band No.  band energies     occupation 
      1     -46.6455      2.00000
      2     -46.6320      2.00000
      3     -46.6155      2.00000
      4     -46.6115      2.00000
      5      -1.9615      2.00000
      6      -0.1138      2.00000
      7       0.9096      0.00000
      8       2.4141      0.00000
      9       3.5589      0.00000
     10       4.0173      0.00000

 k-point    44 :      -0.2667    0.3333    0.0000
  band No.  band energies     occupation 
      1     -46.6455      2.00000
      2     -46.6320      2.00000
      3     -46.6155      2.00000
      4     -46.6115      2.00000
      5      -1.9615      2.00000
      6      -0.1136      2.00000
      7       0.9092      0.00000
      8       2.4138      0.00000
      9       3.5602      0.00000
     10       4.0185      0.00000

 k-point    45 :       0.4000    0.2667    0.0000
  band No.  band energies     occupation 
      1     -46.6429      2.00000
      2     -46.6344      2.00000
      3     -46.6149      2.00000
      4     -46.6123      2.00000
      5      -1.6824      2.00000
      6      -0.5563      2.00000
      7       1.1278      0.00000
      8       2.0818      0.00000
      9       3.7288      0.00000
     10       4.0166      0.00000

 k-point    46 :      -0.2667    0.4000    0.0000
  band No.  band energies     occupation 
      1     -46.6429      2.00000
      2     -46.6344      2.00000
      3     -46.6149      2.00000
      4     -46.6123      2.00000
      5      -1.6824      2.00000
      6      -0.5562      2.00000
      7       1.1272      0.00000
      8       2.0812      0.00000
      9       3.7314      0.00000
     10       4.0195      0.00000

 k-point    47 :       0.4667    0.2667    0.0000
  band No.  band energies     occupation 
      1     -46.6400      2.00000
      2     -46.6372      2.00000
      3     -46.6141      2.00000
      4     -46.6132      2.00000
      5      -1.3534      2.00000
      6      -0.9763      2.00000
      7       1.4130      0.00000
      8       1.7378      0.00000
      9       3.8814      0.00000
     10       3.9827      0.00000

 k-point    48 :      -0.2667    0.4667    0.0000
  band No.  band energies     occupation 
      1     -46.6400      2.00000
      2     -46.6372      2.00000
      3     -46.6141      2.00000
      4     -46.6132      2.00000
      5      -1.3534      2.00000
      6      -0.9762      2.00000
      7       1.4123      0.00000
      8       1.7370      0.00000
      9       3.8853      0.00000
     10       3.9868      0.00000

 k-point    49 :       0.3333    0.3333    0.0000
  band No.  band energies     occupation 
      1     -46.6435      2.00000
      2     -46.6330      2.00000
      3     -46.6158      2.00000
      4     -46.6122      2.00000
      5      -1.7354      2.00000
      6      -0.1191      2.00000
      7       0.6095      0.76927
      8       2.0378      0.00000
      9       3.7262      0.00000
     10       4.0720      0.00000

 k-point    50 :       0.4000    0.3333    0.0000
  band No.  band energies     occupation 
      1     -46.6412      2.00000
      2     -46.6346      2.00000
      3     -46.6155      2.00000
      4     -46.6131      2.00000
      5      -1.4605      2.00000
      6      -0.4014      2.00000
      7       0.6794      0.00000
      8       1.6441      0.00000
      9       3.9024      0.00000
     10       4.1370      0.00000

 k-point    51 :      -0.3333    0.4000    0.0000
  band No.  band energies     occupation 
      1     -46.6412      2.00000
      2     -46.6346      2.00000
      3     -46.6155      2.00000
      4     -46.6131      2.00000
      5      -1.4605      2.00000
      6      -0.4013      2.00000
      7       0.6792      0.00000
      8       1.6439      0.00000
      9       3.9039      0.00000
     10       4.1387      0.00000

 k-point    52 :       0.4667    0.3333    0.0000
  band No.  band energies     occupation 
      1     -46.6389      2.00000
      2     -46.6366      2.00000
      3     -46.6149      2.00000
      4     -46.6141      2.00000
      5      -1.1392      2.00000
      6      -0.7781      2.00000
      7       0.9372      0.00000
      8       1.2695      0.00000
      9       4.0565      0.00000
     10       4.1434      0.00000

 k-point    53 :      -0.3333    0.4667    0.0000
  band No.  band energies     occupation 
      1     -46.6389      2.00000
      2     -46.6366      2.00000
      3     -46.6149      2.00000
      4     -46.6141      2.00000
      5      -1.1391      2.00000
      6      -0.7780      2.00000
      7       0.9369      0.00000
      8       1.2691      0.00000
      9       4.0592      0.00000
     10       4.1463      0.00000

 k-point    54 :       0.4000    0.4000    0.0000
  band No.  band energies     occupation 
      1     -46.6394      2.00000
      2     -46.6352      2.00000
      3     -46.6158      2.00000
      4     -46.6141      2.00000
      5      -1.1935      2.00000
      6      -0.3597      2.00000
      7       0.4353      2.00000
      8       1.2215      0.00000
      9       4.0881      0.00000
     10       4.2613      0.00000

 k-point    55 :       0.4667    0.4000    0.0000
  band No.  band energies     occupation 
      1     -46.6377      2.00000
      2     -46.6362      2.00000
      3     -46.6156      2.00000
      4     -46.6149      2.00000
      5      -0.8894      2.00000
      6      -0.5748      2.00000
      7       0.5423      1.99999
      8       0.8423      0.00000
      9       4.2445      0.00000
     10       4.3129      0.00000

 k-point    56 :      -0.4000    0.4667    0.0000
  band No.  band energies     occupation 
      1     -46.6377      2.00000
      2     -46.6362      2.00000
      3     -46.6156      2.00000
      4     -46.6149      2.00000
      5      -0.8893      2.00000
      6      -0.5748      2.00000
      7       0.5421      1.99999
      8       0.8421      0.00000
      9       4.2458      0.00000
     10       4.3143      0.00000

 k-point    57 :       0.4667    0.4667    0.0000
  band No.  band energies     occupation 
      1     -46.6368      2.00000
      2     -46.6363      2.00000
      3     -46.6159      2.00000
      4     -46.6156      2.00000
      5      -0.6327      2.00000
      6      -0.4802      2.00000
      7       0.3486      2.00000
      8       0.4967      2.00000
      9       4.3924      0.00000
     10       4.4214      0.00000

 k-point    58 :       0.0667    0.0667    0.0667
  band No.  band energies     occupation 
      1     -46.6567      2.00000
      2     -46.6197      2.00000
      3     -46.6157      2.00000
      4     -46.6125      2.00000
      5      -2.9286      2.00000
      6       2.0117      0.00000
      7       2.0956      0.00000
      8       2.2668      0.00000
      9       3.2047      0.00000
     10       3.6142      0.00000

 k-point    59 :       0.1333    0.0667    0.0667
  band No.  band energies     occupation 
      1     -46.6557      2.00000
      2     -46.6217      2.00000
      3     -46.6156      2.00000
      4     -46.6116      2.00000
      5      -2.8520      2.00000
      6       1.4094      0.00000
      7       2.1220      0.00000
      8       2.2852      0.00000
      9       3.2774      0.00000
     10       3.7731      0.00000

 k-point    60 :       0.2000    0.0667    0.0667
  band No.  band energies     occupation 
      1     -46.6540      2.00000
      2     -46.6245      2.00000
      3     -46.6152      2.00000
      4     -46.6109      2.00000
      5      -2.7242      2.00000
      6       0.7702      0.00000
      7       2.2181      0.00000
      8       2.3809      0.00000
      9       3.3129      0.00000
     10       3.8836      0.00000

 k-point    61 :       0.2667    0.0667    0.0667
  band No.  band energies     occupation 
      1     -46.6517      2.00000
      2     -46.6277      2.00000
      3     -46.6146      2.00000
      4     -46.6106      2.00000
      5      -2.5450      2.00000
      6       0.1744      2.00000
      7       2.3370      0.00000
      8       2.5160      0.00000
      9       3.3455      0.00000
     10       3.9977      0.00000

 k-point    62 :       0.3333    0.0667    0.0667
  band No.  band energies     occupation 
      1     -46.6489      2.00000
      2     -46.6312      2.00000
      3     -46.6138      2.00000
      4     -46.6106      2.00000
      5      -2.3140      2.00000
      6      -0.3717      2.00000
      7       2.4671      0.00000
      8       2.6663      0.00000
      9       3.3885      0.00000
     10       4.0781      0.00000

 k-point    63 :       0.4000    0.0667    0.0667
  band No.  band energies     occupation 
      1     -46.6458      2.00000
      2     -46.6349      2.00000
      3     -46.6129      2.00000
      4     -46.6108      2.00000
      5      -2.0310      2.00000
      6      -0.8658      2.00000
      7       2.5981      0.00000
      8       2.7752      0.00000
      9       3.4811      0.00000
     10       4.0505      0.00000

 k-point    64 :       0.4667    0.0667    0.0667
  band No.  band energies     occupation 
      1     -46.6423      2.00000
      2     -46.6387      2.00000
      3     -46.6121      2.00000
      4     -46.6114      2.00000
      5      -1.6955      2.00000
      6      -1.3071      2.00000
      7       2.7140      0.00000
      8       2.7868      0.00000
      9       3.6606      0.00000
     10       3.8844      0.00000

 k-point    65 :       0.1333    0.1333    0.0667
  band No.  band energies     occupation 
      1     -46.6547      2.00000
      2     -46.6230      2.00000
      3     -46.6158      2.00000
      4     -46.6111      2.00000
      5      -2.7756      2.00000
      6       1.3374      0.00000
      7       1.6574      0.00000
      8       2.2818      0.00000
      9       3.3784      0.00000
     10       4.1115      0.00000

 k-point    66 :       0.2000    0.1333    0.0667
  band No.  band energies     occupation 
      1     -46.6530      2.00000
      2     -46.6252      2.00000
      3     -46.6157      2.00000
      4     -46.6107      2.00000
      5      -2.6479      2.00000
      6       0.8121      0.00000
      7       1.6652      0.00000
      8       2.3672      0.00000
      9       3.4103      0.00000
     10       4.2319      0.00000

 k-point    67 :      -0.1333    0.2000    0.0667
  band No.  band energies     occupation 
      1     -46.6530      2.00000
      2     -46.6252      2.00000
      3     -46.6157      2.00000
      4     -46.6107      2.00000
      5      -2.6479      2.00000
      6       0.8122      0.00000
      7       1.6648      0.00000
      8       2.3676      0.00000
      9       3.4105      0.00000
     10       4.2311      0.00000

 k-point    68 :       0.2667    0.1333    0.0667
  band No.  band energies     occupation 
      1     -46.6508      2.00000
      2     -46.6280      2.00000
      3     -46.6152      2.00000
      4     -46.6105      2.00000
      5      -2.4690      2.00000
      6       0.2337      2.00000
      7       1.8071      0.00000
      8       2.4789      0.00000
      9       3.4148      0.00000
     10       4.2422      0.00000

 k-point    69 :      -0.1333    0.2667    0.0667
  band No.  band energies     occupation 
      1     -46.6508      2.00000
      2     -46.6280      2.00000
      3     -46.6152      2.00000
      4     -46.6105      2.00000
      5      -2.4690      2.00000
      6       0.2338      2.00000
      7       1.8064      0.00000
      8       2.4797      0.00000
      9       3.4152      0.00000
     10       4.2415      0.00000

 k-point    70 :       0.3333    0.1333    0.0667
  band No.  band energies     occupation 
      1     -46.6482      2.00000
      2     -46.6312      2.00000
      3     -46.6144      2.00000
      4     -46.6107      2.00000
      5      -2.2384      2.00000
      6      -0.3052      2.00000
      7       1.9903      0.00000
      8       2.5893      0.00000
      9       3.4015      0.00000
     10       4.1610      0.00000

 k-point    71 :      -0.1333    0.3333    0.0667
  band No.  band energies     occupation 
      1     -46.6482      2.00000
      2     -46.6312      2.00000
      3     -46.6144      2.00000
      4     -46.6107      2.00000
      5      -2.2384      2.00000
      6      -0.3052      2.00000
      7       1.9893      0.00000
      8       2.5903      0.00000
      9       3.4021      0.00000
     10       4.1615      0.00000

 k-point    72 :       0.4000    0.1333    0.0667
  band No.  band energies     occupation 
      1     -46.6451      2.00000
      2     -46.6347      2.00000
      3     -46.6135      2.00000
      4     -46.6111      2.00000
      5      -1.9560      2.00000
      6      -0.7955      2.00000
      7       2.1957      0.00000
      8       2.6390      0.00000
      9       3.4225      0.00000
     10       3.9846      0.00000

 k-point    73 :      -0.1333    0.4000    0.0667
  band No.  band energies     occupation 
      1     -46.6451      2.00000
      2     -46.6347      2.00000
      3     -46.6135      2.00000
      4     -46.6111      2.00000
      5      -1.9560      2.00000
      6      -0.7955      2.00000
      7       2.1944      0.00000
      8       2.6394      0.00000
      9       3.4237      0.00000
     10       3.9867      0.00000

 k-point    74 :       0.4667    0.1333    0.0667
  band No.  band energies     occupation 
      1     -46.6418      2.00000
      2     -46.6383      2.00000
      3     -46.6126      2.00000
      4     -46.6118      2.00000
      5      -1.6214      2.00000
      6      -1.2345      2.00000
      7       2.4007      0.00000
      8       2.5677      0.00000
      9       3.5463      0.00000
     10       3.7562      0.00000

 k-point    75 :      -0.1333    0.4667    0.0667
  band No.  band energies     occupation 
      1     -46.6418      2.00000
      2     -46.6383      2.00000
      3     -46.6126      2.00000
      4     -46.6118      2.00000
      5      -1.6214      2.00000
      6      -1.2345      2.00000
      7       2.3994      0.00000
      8       2.5671      0.00000
      9       3.5486      0.00000
     10       3.7591      0.00000

 k-point    76 :       0.2000    0.2000    0.0667
  band No.  band energies     occupation 
      1     -46.6515      2.00000
      2     -46.6266      2.00000
      3     -46.6159      2.00000
      4     -46.6106      2.00000
      5      -2.5207      2.00000
      6       0.7443      0.00000
      7       1.2313      0.00000
      8       2.4391      0.00000
      9       3.4307      0.00000
     10       4.3280      0.00000

 k-point    77 :       0.2667    0.2000    0.0667
  band No.  band energies     occupation 
      1     -46.6494      2.00000
      2     -46.6287      2.00000
      3     -46.6157      2.00000
      4     -46.6107      2.00000
      5      -2.3422      2.00000
      6       0.3087      2.00000
      7       1.2482      0.00000
      8       2.5150      0.00000
      9       3.4043      0.00000
     10       4.2461      0.00000

 k-point    78 :      -0.2000    0.2667    0.0667
  band No.  band energies     occupation 
      1     -46.6494      2.00000
      2     -46.6287      2.00000
      3     -46.6157      2.00000
      4     -46.6107      2.00000
      5      -2.3422      2.00000
      6       0.3088      2.00000
      7       1.2478      0.00000
      8       2.5154      0.00000
      9       3.4045      0.00000
     10       4.2465      0.00000

 k-point    79 :       0.3333    0.2000    0.0667
  band No.  band energies     occupation 
      1     -46.6469      2.00000
      2     -46.6314      2.00000
      3     -46.6151      2.00000
      4     -46.6110      2.00000
      5      -2.1124      2.00000
      6      -0.2019      2.00000
      7       1.4284      0.00000
      8       2.5355      0.00000
      9       3.3661      0.00000
     10       4.1151      0.00000

 k-point    80 :      -0.2000    0.3333    0.0667
  band No.  band energies     occupation 
      1     -46.6469      2.00000
      2     -46.6314      2.00000
      3     -46.6151      2.00000
      4     -46.6110      2.00000
      5      -2.1124      2.00000
      6      -0.2019      2.00000
      7       1.4278      0.00000
      8       2.5358      0.00000
      9       3.3666      0.00000
     10       4.1172      0.00000

 k-point    81 :       0.4000    0.2000    0.0667
  band No.  band energies     occupation 
      1     -46.6440      2.00000
      2     -46.6345      2.00000
      3     -46.6143      2.00000
      4     -46.6117      2.00000
      5      -1.8312      2.00000
      6      -0.6814      2.00000
      7       1.6629      0.00000
      8       2.4236      0.00000
      9       3.4119      0.00000
     10       3.9543      0.00000

 k-point    82 :      -0.2000    0.4000    0.0667
  band No.  band energies     occupation 
      1     -46.6440      2.00000
      2     -46.6345      2.00000
      3     -46.6143      2.00000
      4     -46.6117      2.00000
      5      -1.8312      2.00000
      6      -0.6814      2.00000
      7       1.6620      0.00000
      8       2.4232      0.00000
      9       3.4136      0.00000
     10       3.9580      0.00000

 k-point    83 :       0.4667    0.2000    0.0667
  band No.  band energies     occupation 
      1     -46.6409      2.00000
      2     -46.6377      2.00000
      3     -46.6134      2.00000
      4     -46.6125      2.00000
      5      -1.4986      2.00000
      6      -1.1149      2.00000
      7       1.9272      0.00000
      8       2.1963      0.00000
      9       3.5622      0.00000
     10       3.7602      0.00000

 k-point    84 :      -0.2000    0.4667    0.0667
  band No.  band energies     occupation 
      1     -46.6409      2.00000
      2     -46.6377      2.00000
      3     -46.6134      2.00000
      4     -46.6125      2.00000
      5      -1.4986      2.00000
      6      -1.1149      2.00000
      7       1.9261      0.00000
      8       2.1953      0.00000
      9       3.5651      0.00000
     10       3.7640      0.00000

 k-point    85 :       0.2667    0.2667    0.0667
  band No.  band energies     occupation 
      1     -46.6475      2.00000
      2     -46.6300      2.00000
      3     -46.6160      2.00000
      4     -46.6110      2.00000
      5      -2.1646      2.00000
      6       0.2665      2.00000
      7       0.8852      0.00000
      8       2.4994      0.00000
      9       3.3527      0.00000
     10       4.1770      0.00000

 k-point    86 :       0.3333    0.2667    0.0667
  band No.  band energies     occupation 
      1     -46.6452      2.00000
      2     -46.6319      2.00000
      3     -46.6157      2.00000
      4     -46.6116      2.00000
      5      -1.9362      2.00000
      6      -0.0892      2.00000
      7       0.9252      0.00000
      8       2.3453      0.00000
      9       3.3648      0.00000
     10       4.1240      0.00000

 k-point    87 :      -0.2667    0.3333    0.0667
  band No.  band energies     occupation 
      1     -46.6452      2.00000
      2     -46.6319      2.00000
      3     -46.6157      2.00000
      4     -46.6116      2.00000
      5      -1.9362      2.00000
      6      -0.0890      2.00000
      7       0.9248      0.00000
      8       2.3451      0.00000
      9       3.3653      0.00000
     10       4.1258      0.00000

 k-point    88 :       0.4000    0.2667    0.0667
  band No.  band energies     occupation 
      1     -46.6426      2.00000
      2     -46.6343      2.00000
      3     -46.6151      2.00000
      4     -46.6124      2.00000
      5      -1.6573      2.00000
      6      -0.5318      2.00000
      7       1.1431      0.00000
      8       2.0656      0.00000
      9       3.4886      0.00000
     10       4.0336      0.00000

 k-point    89 :      -0.2667    0.4000    0.0667
  band No.  band energies     occupation 
      1     -46.6426      2.00000
      2     -46.6343      2.00000
      3     -46.6151      2.00000
      4     -46.6124      2.00000
      5      -1.6573      2.00000
      6      -0.5317      2.00000
      7       1.1425      0.00000
      8       2.0651      0.00000
      9       3.4902      0.00000
     10       4.0370      0.00000

 k-point    90 :       0.4667    0.2667    0.0667
  band No.  band energies     occupation 
      1     -46.6398      2.00000
      2     -46.6370      2.00000
      3     -46.6143      2.00000
      4     -46.6133      2.00000
      5      -1.3285      2.00000
      6      -0.9515      2.00000
      7       1.4251      0.00000
      8       1.7418      0.00000
      9       3.6758      0.00000
     10       3.8741      0.00000

 k-point    91 :      -0.2667    0.4667    0.0667
  band No.  band energies     occupation 
      1     -46.6398      2.00000
      2     -46.6370      2.00000
      3     -46.6143      2.00000
      4     -46.6133      2.00000
      5      -1.3284      2.00000
      6      -0.9515      2.00000
      7       1.4245      0.00000
      8       1.7412      0.00000
      9       3.6786      0.00000
     10       3.8776      0.00000

 k-point    92 :       0.3333    0.3333    0.0667
  band No.  band energies     occupation 
      1     -46.6432      2.00000
      2     -46.6329      2.00000
      3     -46.6160      2.00000
      4     -46.6124      2.00000
      5      -1.7102      2.00000
      6      -0.0931      2.00000
      7       0.6252      0.16048
      8       2.0210      0.00000
      9       3.4676      0.00000
     10       4.1710      0.00000

 k-point    93 :       0.4000    0.3333    0.0667
  band No.  band energies     occupation 
      1     -46.6410      2.00000
      2     -46.6344      2.00000
      3     -46.6158      2.00000
      4     -46.6133      2.00000
      5      -1.4354      2.00000
      6      -0.3760      2.00000
      7       0.6961      0.00000
      8       1.6479      0.00000
      9       3.6440      0.00000
     10       4.1624      0.00000

 k-point    94 :      -0.3333    0.4000    0.0667
  band No.  band energies     occupation 
      1     -46.6410      2.00000
      2     -46.6344      2.00000
      3     -46.6158      2.00000
      4     -46.6133      2.00000
      5      -1.4354      2.00000
      6      -0.3759      2.00000
      7       0.6958      0.00000
      8       1.6477      0.00000
      9       3.6449      0.00000
     10       4.1644      0.00000

 k-point    95 :       0.4667    0.3333    0.0667
  band No.  band energies     occupation 
      1     -46.6387      2.00000
      2     -46.6364      2.00000
      3     -46.6152      2.00000
      4     -46.6143      2.00000
      5      -1.1141      2.00000
      6      -0.7531      2.00000
      7       0.9531      0.00000
      8       1.2818      0.00000
      9       3.8519      0.00000
     10       4.0450      0.00000

 k-point    96 :      -0.3333    0.4667    0.0667
  band No.  band energies     occupation 
      1     -46.6387      2.00000
      2     -46.6364      2.00000
      3     -46.6152      2.00000
      4     -46.6143      2.00000
      5      -1.1141      2.00000
      6      -0.7530      2.00000
      7       0.9527      0.00000
      8       1.2815      0.00000
      9       3.8539      0.00000
     10       4.0477      0.00000

 k-point    97 :       0.4000    0.4000    0.0667
  band No.  band energies     occupation 
      1     -46.6392      2.00000
      2     -46.6350      2.00000
      3     -46.6160      2.00000
      4     -46.6143      2.00000
      5      -1.1684      2.00000
      6      -0.3333      2.00000
      7       0.4520      2.00000
      8       1.2339      0.00000
      9       3.8465      0.00000
     10       4.2595      0.00000

 k-point    98 :       0.4667    0.4000    0.0667
  band No.  band energies     occupation 
      1     -46.6375      2.00000
      2     -46.6360      2.00000
      3     -46.6158      2.00000
      4     -46.6152      2.00000
      5      -0.8641      2.00000
      6      -0.5490      2.00000
      7       0.5594      1.99885
      8       0.8583      0.00000
      9       4.0600      0.00000
     10       4.2257      0.00000

 k-point    99 :      -0.4000    0.4667    0.0667
  band No.  band energies     occupation 
      1     -46.6375      2.00000
      2     -46.6360      2.00000
      3     -46.6158      2.00000
      4     -46.6152      2.00000
      5      -0.8640      2.00000
      6      -0.5490      2.00000
      7       0.5592      1.99889
      8       0.8582      0.00000
      9       4.0610      0.00000
     10       4.2270      0.00000

 k-point   100 :       0.4667    0.4667    0.0667
  band No.  band energies     occupation 
      1     -46.6366      2.00000
      2     -46.6361      2.00000
      3     -46.6160      2.00000
      4     -46.6158      2.00000
      5      -0.6068      2.00000
      6      -0.4536      2.00000
      7       0.3656      2.00000
      8       0.5139      2.00000
      9       4.2519      0.00000
     10       4.3275      0.00000

 k-point   101 :       0.1333    0.1333    0.1333
  band No.  band energies     occupation 
      1     -46.6537      2.00000
      2     -46.6240      2.00000
      3     -46.6161      2.00000
      4     -46.6108      2.00000
      5      -2.6992      2.00000
      6       1.3299      0.00000
      7       1.5408      0.00000
      8       1.8850      0.00000
      9       3.5676      0.00000
     10       4.3651      0.00000

 k-point   102 :       0.2000    0.1333    0.1333
  band No.  band energies     occupation 
      1     -46.6521      2.00000
      2     -46.6258      2.00000
      3     -46.6161      2.00000
      4     -46.6106      2.00000
      5      -2.5716      2.00000
      6       0.8609      0.00000
      7       1.5784      0.00000
      8       1.9039      0.00000
      9       3.5914      0.00000
     10       4.4618      0.00000

 k-point   103 :       0.2667    0.1333    0.1333
  band No.  band energies     occupation 
      1     -46.6500      2.00000
      2     -46.6282      2.00000
      3     -46.6157      2.00000
      4     -46.6106      2.00000
      5      -2.3929      2.00000
      6       0.2952      2.00000
      7       1.7353      0.00000
      8       2.0150      0.00000
      9       3.5373      0.00000
     10       4.3907      0.00000

 k-point   104 :       0.3333    0.1333    0.1333
  band No.  band energies     occupation 
      1     -46.6474      2.00000
      2     -46.6312      2.00000
      3     -46.6150      2.00000
      4     -46.6109      2.00000
      5      -2.1628      2.00000
      6      -0.2379      2.00000
      7       1.9272      0.00000
      8       2.1595      0.00000
      9       3.4337      0.00000
     10       4.1588      0.00000

 k-point   105 :       0.4000    0.1333    0.1333
  band No.  band energies     occupation 
      1     -46.6444      2.00000
      2     -46.6344      2.00000
      3     -46.6141      2.00000
      4     -46.6115      2.00000
      5      -1.8809      2.00000
      6      -0.7248      2.00000
      7       2.1270      0.00000
      8       2.3039      0.00000
      9       3.3340      0.00000
     10       3.8351      0.00000

 k-point   106 :       0.4667    0.1333    0.1333
  band No.  band energies     occupation 
      1     -46.6412      2.00000
      2     -46.6378      2.00000
      3     -46.6131      2.00000
      4     -46.6122      2.00000
      5      -1.5472      2.00000
      6      -1.1617      2.00000
      7       2.2962      0.00000
      8       2.3712      0.00000
      9       3.3407      0.00000
     10       3.5282      0.00000

 k-point   107 :       0.2000    0.2000    0.1333
  band No.  band energies     occupation 
      1     -46.6506      2.00000
      2     -46.6270      2.00000
      3     -46.6164      2.00000
      4     -46.6106      2.00000
      5      -2.4445      2.00000
      6       0.8086      0.00000
      7       1.2383      0.00000
      8       1.8940      0.00000
      9       3.6055      0.00000
     10       4.5149      0.00000

 k-point   108 :       0.2667    0.2000    0.1333
  band No.  band energies     occupation 
      1     -46.6486      2.00000
      2     -46.6288      2.00000
      3     -46.6163      2.00000
      4     -46.6108      2.00000
      5      -2.2662      2.00000
      6       0.3748      2.00000
      7       1.2742      0.00000
      8       1.9977      0.00000
      9       3.5120      0.00000
     10       4.3583      0.00000

 k-point   109 :      -0.2000    0.2667    0.1333
  band No.  band energies     occupation 
      1     -46.6486      2.00000
      2     -46.6288      2.00000
      3     -46.6163      2.00000
      4     -46.6108      2.00000
      5      -2.2662      2.00000
      6       0.3749      2.00000
      7       1.2739      0.00000
      8       1.9980      0.00000
      9       3.5118      0.00000
     10       4.3591      0.00000

 k-point   110 :       0.3333    0.2000    0.1333
  band No.  band energies     occupation 
      1     -46.6461      2.00000
      2     -46.6313      2.00000
      3     -46.6157      2.00000
      4     -46.6113      2.00000
      5      -2.0368      2.00000
      6      -0.1329      2.00000
      7       1.4584      0.00000
      8       2.1159      0.00000
      9       3.3515      0.00000
     10       4.0720      0.00000

 k-point   111 :      -0.2000    0.3333    0.1333
  band No.  band energies     occupation 
      1     -46.6461      2.00000
      2     -46.6313      2.00000
      3     -46.6157      2.00000
      4     -46.6113      2.00000
      5      -2.0368      2.00000
      6      -0.1329      2.00000
      7       1.4579      0.00000
      8       2.1164      0.00000
      9       3.3511      0.00000
     10       4.0740      0.00000

 k-point   112 :       0.4000    0.2000    0.1333
  band No.  band energies     occupation 
      1     -46.6434      2.00000
      2     -46.6341      2.00000
      3     -46.6149      2.00000
      4     -46.6121      2.00000
      5      -1.7561      2.00000
      6      -0.6100      2.00000
      7       1.6859      0.00000
      8       2.1845      0.00000
      9       3.2221      0.00000
     10       3.7448      0.00000

 k-point   113 :      -0.2000    0.4000    0.1333
  band No.  band energies     occupation 
      1     -46.6434      2.00000
      2     -46.6341      2.00000
      3     -46.6149      2.00000
      4     -46.6121      2.00000
      5      -1.7561      2.00000
      6      -0.6099      2.00000
      7       1.6852      0.00000
      8       2.1847      0.00000
      9       3.2221      0.00000
     10       3.7471      0.00000

 k-point   114 :       0.4667    0.2000    0.1333
  band No.  band energies     occupation 
      1     -46.6403      2.00000
      2     -46.6372      2.00000
      3     -46.6139      2.00000
      4     -46.6129      2.00000
      5      -1.4243      2.00000
      6      -1.0417      2.00000
      7       1.9231      0.00000
      8       2.1169      0.00000
      9       3.2496      0.00000
     10       3.4488      0.00000

 k-point   115 :      -0.2000    0.4667    0.1333
  band No.  band energies     occupation 
      1     -46.6403      2.00000
      2     -46.6372      2.00000
      3     -46.6139      2.00000
      4     -46.6129      2.00000
      5      -1.4243      2.00000
      6      -1.0417      2.00000
      7       1.9223      0.00000
      8       2.1165      0.00000
      9       3.2506      0.00000
     10       3.4508      0.00000

 k-point   116 :       0.2667    0.2667    0.1333
  band No.  band energies     occupation 
      1     -46.6467      2.00000
      2     -46.6299      2.00000
      3     -46.6165      2.00000
      4     -46.6113      2.00000
      5      -2.0887      2.00000
      6       0.3401      2.00000
      7       0.9209      0.00000
      8       2.0687      0.00000
      9       3.3579      0.00000
     10       4.2536      0.00000

 k-point   117 :       0.3333    0.2667    0.1333
  band No.  band energies     occupation 
      1     -46.6445      2.00000
      2     -46.6316      2.00000
      3     -46.6164      2.00000
      4     -46.6120      2.00000
      5      -1.8607      2.00000
      6      -0.0167      2.00000
      7       0.9680      0.00000
      8       2.0941      0.00000
      9       3.1832      0.00000
     10       4.0840      0.00000

 k-point   118 :      -0.2667    0.3333    0.1333
  band No.  band energies     occupation 
      1     -46.6445      2.00000
      2     -46.6316      2.00000
      3     -46.6164      2.00000
      4     -46.6120      2.00000
      5      -1.8607      2.00000
      6      -0.0166      2.00000
      7       0.9677      0.00000
      8       2.0942      0.00000
      9       3.1831      0.00000
     10       4.0859      0.00000

 k-point   119 :       0.4000    0.2667    0.1333
  band No.  band energies     occupation 
      1     -46.6419      2.00000
      2     -46.6339      2.00000
      3     -46.6157      2.00000
      4     -46.6129      2.00000
      5      -1.5821      2.00000
      6      -0.4591      2.00000
      7       1.1847      0.00000
      8       1.9817      0.00000
      9       3.1522      0.00000
     10       3.8260      0.00000

 k-point   120 :      -0.2667    0.4000    0.1333
  band No.  band energies     occupation 
      1     -46.6419      2.00000
      2     -46.6339      2.00000
      3     -46.6158      2.00000
      4     -46.6129      2.00000
      5      -1.5821      2.00000
      6      -0.4590      2.00000
      7       1.1842      0.00000
      8       1.9815      0.00000
      9       3.1527      0.00000
     10       3.8285      0.00000

 k-point   121 :       0.4667    0.2667    0.1333
  band No.  band energies     occupation 
      1     -46.6392      2.00000
      2     -46.6365      2.00000
      3     -46.6149      2.00000
      4     -46.6138      2.00000
      5      -1.2539      2.00000
      6      -0.8778      2.00000
      7       1.4552      0.00000
      8       1.7398      0.00000
      9       3.2969      0.00000
     10       3.5427      0.00000

 k-point   122 :      -0.2667    0.4667    0.1333
  band No.  band energies     occupation 
      1     -46.6392      2.00000
      2     -46.6365      2.00000
      3     -46.6149      2.00000
      4     -46.6138      2.00000
      5      -1.2538      2.00000
      6      -0.8778      2.00000
      7       1.4547      0.00000
      8       1.7393      0.00000
      9       3.2983      0.00000
     10       3.5448      0.00000

 k-point   123 :       0.3333    0.3333    0.1333
  band No.  band energies     occupation 
      1     -46.6425      2.00000
      2     -46.6325      2.00000
      3     -46.6166      2.00000
      4     -46.6128      2.00000
      5      -1.6348      2.00000
      6      -0.0161      2.00000
      7       0.6701      0.00000
      8       1.9354      0.00000
      9       3.1231      0.00000
     10       4.1071      0.00000

 k-point   124 :       0.4000    0.3333    0.1333
  band No.  band energies     occupation 
      1     -46.6403      2.00000
      2     -46.6339      2.00000
      3     -46.6164      2.00000
      4     -46.6138      2.00000
      5      -1.3602      2.00000
      6      -0.3006      2.00000
      7       0.7442      0.00000
      8       1.6453      0.00000
      9       3.2349      0.00000
     10       3.9759      0.00000

 k-point   125 :      -0.3333    0.4000    0.1333
  band No.  band energies     occupation 
      1     -46.6403      2.00000
      2     -46.6339      2.00000
      3     -46.6164      2.00000
      4     -46.6138      2.00000
      5      -1.3602      2.00000
      6      -0.3005      2.00000
      7       0.7439      0.00000
      8       1.6452      0.00000
      9       3.2354      0.00000
     10       3.9776      0.00000

 k-point   126 :       0.4667    0.3333    0.1333
  band No.  band energies     occupation 
      1     -46.6380      2.00000
      2     -46.6358      2.00000
      3     -46.6158      2.00000
      4     -46.6149      2.00000
      5      -1.0393      2.00000
      6      -0.6784      2.00000
      7       0.9978      0.00000
      8       1.3130      0.00000
      9       3.4533      0.00000
     10       3.7209      0.00000

 k-point   127 :      -0.3333    0.4667    0.1333
  band No.  band energies     occupation 
      1     -46.6380      2.00000
      2     -46.6358      2.00000
      3     -46.6158      2.00000
      4     -46.6149      2.00000
      5      -1.0392      2.00000
      6      -0.6783      2.00000
      7       0.9975      0.00000
      8       1.3128      0.00000
      9       3.4545      0.00000
     10       3.7226      0.00000

 k-point   128 :       0.4000    0.4000    0.1333
  band No.  band energies     occupation 
      1     -46.6385      2.00000
      2     -46.6344      2.00000
      3     -46.6167      2.00000
      4     -46.6149      2.00000
      5      -1.0932      2.00000
      6      -0.2548      2.00000
      7       0.5006      2.00000
      8       1.2653      0.00000
      9       3.4258      0.00000
     10       4.0674      0.00000

 k-point   129 :       0.4667    0.4000    0.1333
  band No.  band energies     occupation 
      1     -46.6369      2.00000
      2     -46.6354      2.00000
      3     -46.6164      2.00000
      4     -46.6158      2.00000
      5      -0.7886      2.00000
      6      -0.4723      2.00000
      7       0.6093      0.77825
      8       0.9039      0.00000
      9       3.6748      0.00000
     10       3.9315      0.00000

 k-point   130 :      -0.4000    0.4667    0.1333
  band No.  band energies     occupation 
      1     -46.6369      2.00000
      2     -46.6354      2.00000
      3     -46.6164      2.00000
      4     -46.6158      2.00000
      5      -0.7885      2.00000
      6      -0.4722      2.00000
      7       0.6092      0.78522
      8       0.9038      0.00000
      9       3.6754      0.00000
     10       3.9325      0.00000

 k-point   131 :       0.4667    0.4667    0.1333
  band No.  band energies     occupation 
      1     -46.6359      2.00000
      2     -46.6354      2.00000
      3     -46.6167      2.00000
      4     -46.6164      2.00000
      5      -0.5297      2.00000
      6      -0.3743      2.00000
      7       0.4155      2.00000
      8       0.5643      1.99626
      9       3.9182      0.00000
     10       4.0574      0.00000

 k-point   132 :       0.2000    0.2000    0.2000
  band No.  band energies     occupation 
      1     -46.6492      2.00000
      2     -46.6277      2.00000
      3     -46.6169      2.00000
      4     -46.6108      2.00000
      5      -2.3175      2.00000
      6       0.8302      0.00000
      7       1.1358      0.00000
      8       1.5916      0.00000
      9       3.6303      0.00000
     10       4.5377      0.00000

 k-point   133 :       0.2667    0.2000    0.2000
  band No.  band energies     occupation 
      1     -46.6473      2.00000
      2     -46.6291      2.00000
      3     -46.6169      2.00000
      4     -46.6112      2.00000
      5      -2.1397      2.00000
      6       0.4653      2.00000
      7       1.1956      0.00000
      8       1.6218      0.00000
      9       3.5317      0.00000
     10       4.2947      0.00000

 k-point   134 :       0.3333    0.2000    0.2000
  band No.  band energies     occupation 
      1     -46.6449      2.00000
      2     -46.6312      2.00000
      3     -46.6165      2.00000
      4     -46.6119      2.00000
      5      -1.9109      2.00000
      6      -0.0247      2.00000
      7       1.3925      0.00000
      8       1.7402      0.00000
      9       3.3432      0.00000
     10       3.8759      0.00000

 k-point   135 :       0.4000    0.2000    0.2000
  band No.  band energies     occupation 
      1     -46.6423      2.00000
      2     -46.6337      2.00000
      3     -46.6157      2.00000
      4     -46.6127      2.00000
      5      -1.6313      2.00000
      6      -0.4939      2.00000
      7       1.6198      0.00000
      8       1.8648      0.00000
      9       3.1461      0.00000
     10       3.4694      0.00000

 k-point   136 :       0.4667    0.2000    0.2000
  band No.  band energies     occupation 
      1     -46.6394      2.00000
      2     -46.6365      2.00000
      3     -46.6148      2.00000
      4     -46.6137      2.00000
      5      -1.3011      2.00000
      6      -0.9212      2.00000
      7       1.8234      0.00000
      8       1.9183      0.00000
      9       3.0526      0.00000
     10       3.1671      0.00000

 k-point   137 :       0.2667    0.2667    0.2000
  band No.  band energies     occupation 
      1     -46.6455      2.00000
      2     -46.6299      2.00000
      3     -46.6173      2.00000
      4     -46.6118      2.00000
      5      -1.9625      2.00000
      6       0.4504      2.00000
      7       0.9469      0.00000
      8       1.6143      0.00000
      9       3.4085      0.00000
     10       4.1380      0.00000

 k-point   138 :       0.3333    0.2667    0.2000
  band No.  band energies     occupation 
      1     -46.6433      2.00000
      2     -46.6313      2.00000
      3     -46.6172      2.00000
      4     -46.6126      2.00000
      5      -1.7349      2.00000
      6       0.0980      2.00000
      7       1.0170      0.00000
      8       1.7064      0.00000
      9       3.1729      0.00000
     10       3.8231      0.00000

 k-point   139 :      -0.2667    0.3333    0.2000
  band No.  band energies     occupation 
      1     -46.6433      2.00000
      2     -46.6313      2.00000
      3     -46.6172      2.00000
      4     -46.6126      2.00000
      5      -1.7349      2.00000
      6       0.0980      2.00000
      7       1.0168      0.00000
      8       1.7065      0.00000
      9       3.1726      0.00000
     10       3.8242      0.00000

 k-point   140 :       0.4000    0.2667    0.2000
  band No.  band energies     occupation 
      1     -46.6409      2.00000
      2     -46.6333      2.00000
      3     -46.6166      2.00000
      4     -46.6136      2.00000
      5      -1.4573      2.00000
      6      -0.3408      2.00000
      7       1.2326      0.00000
      8       1.7596      0.00000
      9       2.9779      0.00000
     10       3.4583      0.00000

 k-point   141 :      -0.2667    0.4000    0.2000
  band No.  band energies     occupation 
      1     -46.6409      2.00000
      2     -46.6333      2.00000
      3     -46.6167      2.00000
      4     -46.6136      2.00000
      5      -1.4573      2.00000
      6      -0.3407      2.00000
      7       1.2323      0.00000
      8       1.7597      0.00000
      9       2.9777      0.00000
     10       3.4595      0.00000

 k-point   142 :       0.4667    0.2667    0.2000
  band No.  band energies     occupation 
      1     -46.6383      2.00000
      2     -46.6357      2.00000
      3     -46.6157      2.00000
      4     -46.6147      2.00000
      5      -1.1304      2.00000
      6      -0.7564      2.00000
      7       1.4761      0.00000
      8       1.6805      0.00000
      9       2.9650      0.00000
     10       3.1504      0.00000

 k-point   143 :      -0.2667    0.4667    0.2000
  band No.  band energies     occupation 
      1     -46.6383      2.00000
      2     -46.6357      2.00000
      3     -46.6157      2.00000
      4     -46.6147      2.00000
      5      -1.1304      2.00000
      6      -0.7564      2.00000
      7       1.4758      0.00000
      8       1.6804      0.00000
      9       2.9654      0.00000
     10       3.1513      0.00000

 k-point   144 :       0.3333    0.3333    0.2000
  band No.  band energies     occupation 
      1     -46.6414      2.00000
      2     -46.6320      2.00000
      3     -46.6176      2.00000
      4     -46.6136      2.00000
      5      -1.5094      2.00000
      6       0.1078      2.00000
      7       0.7348      0.00000
      8       1.7086      0.00000
      9       2.9517      0.00000
     10       3.8453      0.00000

 k-point   145 :       0.4000    0.3333    0.2000
  band No.  band energies     occupation 
      1     -46.6392      2.00000
      2     -46.6332      2.00000
      3     -46.6174      2.00000
      4     -46.6147      2.00000
      5      -1.2354      2.00000
      6      -0.1779      2.00000
      7       0.8158      0.00000
      8       1.5860      0.00000
      9       2.8968      0.00000
     10       3.6168      0.00000

 k-point   146 :      -0.3333    0.4000    0.2000
  band No.  band energies     occupation 
      1     -46.6392      2.00000
      2     -46.6332      2.00000
      3     -46.6174      2.00000
      4     -46.6147      2.00000
      5      -1.2354      2.00000
      6      -0.1779      2.00000
      7       0.8156      0.00000
      8       1.5859      0.00000
      9       2.8969      0.00000
     10       3.6178      0.00000

 k-point   147 :       0.4667    0.3333    0.2000
  band No.  band energies     occupation 
      1     -46.6370      2.00000
      2     -46.6349      2.00000
      3     -46.6167      2.00000
      4     -46.6158      2.00000
      5      -0.9154      2.00000
      6      -0.5556      2.00000
      7       1.0604      0.00000
      8       1.3410      0.00000
      9       3.0383      0.00000
     10       3.3011      0.00000

 k-point   148 :      -0.3333    0.4667    0.2000
  band No.  band energies     occupation 
      1     -46.6370      2.00000
      2     -46.6349      2.00000
      3     -46.6167      2.00000
      4     -46.6158      2.00000
      5      -0.9154      2.00000
      6      -0.5556      2.00000
      7       1.0601      0.00000
      8       1.3409      0.00000
      9       3.0388      0.00000
     10       3.3020      0.00000

 k-point   149 :       0.4000    0.4000    0.2000
  band No.  band energies     occupation 
      1     -46.6375      2.00000
      2     -46.6335      2.00000
      3     -46.6177      2.00000
      4     -46.6158      2.00000
      5      -0.9685      2.00000
      6      -0.1263      2.00000
      7       0.5765      1.95851
      8       1.2941      0.00000
      9       3.0041      0.00000
     10       3.7365      0.00000

 k-point   150 :       0.4667    0.4000    0.2000
  band No.  band energies     occupation 
      1     -46.6358      2.00000
      2     -46.6344      2.00000
      3     -46.6175      2.00000
      4     -46.6168      2.00000
      5      -0.6640      2.00000
      6      -0.3464      2.00000
      7       0.6869      0.00000
      8       0.9694      0.00000
      9       3.2336      0.00000
     10       3.5244      0.00000

 k-point   151 :      -0.4000    0.4667    0.2000
  band No.  band energies     occupation 
      1     -46.6358      2.00000
      2     -46.6344      2.00000
      3     -46.6175      2.00000
      4     -46.6168      2.00000
      5      -0.6639      2.00000
      6      -0.3463      2.00000
      7       0.6868      0.00000
      8       0.9693      0.00000
      9       3.2339      0.00000
     10       3.5250      0.00000

 k-point   152 :       0.4667    0.4667    0.2000
  band No.  band energies     occupation 
      1     -46.6348      2.00000
      2     -46.6343      2.00000
      3     -46.6178      2.00000
      4     -46.6175      2.00000
      5      -0.4029      2.00000
      6      -0.2443      2.00000
      7       0.4949      2.00000
      8       0.6433      0.00731
      9       3.4954      0.00000
     10       3.6933      0.00000

 k-point   153 :       0.2667    0.2667    0.2667
  band No.  band energies     occupation 
      1     -46.6438      2.00000
      2     -46.6303      2.00000
      3     -46.6179      2.00000
      4     -46.6126      2.00000
      5      -1.7860      2.00000
      6       0.5114      2.00000
      7       0.8783      0.00000
      8       1.3794      0.00000
      9       3.3869      0.00000
     10       3.9883      0.00000

 k-point   154 :       0.3333    0.2667    0.2667
  band No.  band energies     occupation 
      1     -46.6418      2.00000
      2     -46.6312      2.00000
      3     -46.6180      2.00000
      4     -46.6135      2.00000
      5      -1.5594      2.00000
      6       0.2332      2.00000
      7       0.9637      0.00000
      8       1.4136      0.00000
      9       3.1923      0.00000
     10       3.5483      0.00000

 k-point   155 :       0.4000    0.2667    0.2667
  band No.  band energies     occupation 
      1     -46.6395      2.00000
      2     -46.6327      2.00000
      3     -46.6177      2.00000
      4     -46.6146      2.00000
      5      -1.2834      2.00000
      6      -0.1842      2.00000
      7       1.1813      0.00000
      8       1.5013      0.00000
      9       2.9482      0.00000
     10       3.1365      0.00000

 k-point   156 :       0.4667    0.2667    0.2667
  band No.  band energies     occupation 
      1     -46.6371      2.00000
      2     -46.6348      2.00000
      3     -46.6168      2.00000
      4     -46.6157      2.00000
      5      -0.9595      2.00000
      6      -0.5906      2.00000
      7       1.3976      0.00000
      8       1.5203      0.00000
      9       2.8032      0.00000
     10       2.8676      0.00000

 k-point   157 :       0.3333    0.3333    0.2667
  band No.  band energies     occupation 
      1     -46.6399      2.00000
      2     -46.6314      2.00000
      3     -46.6186      2.00000
      4     -46.6146      2.00000
      5      -1.3347      2.00000
      6       0.2644      2.00000
      7       0.7857      0.00000
      8       1.3955      0.00000
      9       2.9755      0.00000
     10       3.5076      0.00000

 k-point   158 :       0.4000    0.3333    0.2667
  band No.  band energies     occupation 
      1     -46.6378      2.00000
      2     -46.6323      2.00000
      3     -46.6185      2.00000
      4     -46.6158      2.00000
      5      -1.0620      2.00000
      6      -0.0150      2.00000
      7       0.8857      0.00000
      8       1.4129      0.00000
      9       2.7550      0.00000
     10       3.2089      0.00000

 k-point   159 :      -0.3333    0.4000    0.2667
  band No.  band energies     occupation 
      1     -46.6378      2.00000
      2     -46.6323      2.00000
      3     -46.6185      2.00000
      4     -46.6158      2.00000
      5      -1.0620      2.00000
      6      -0.0149      2.00000
      7       0.8856      0.00000
      8       1.4129      0.00000
      9       2.7550      0.00000
     10       3.2094      0.00000

 k-point   160 :       0.4667    0.3333    0.2667
  band No.  band energies     occupation 
      1     -46.6358      2.00000
      2     -46.6338      2.00000
      3     -46.6179      2.00000
      4     -46.6169      2.00000
      5      -0.7443      2.00000
      6      -0.3881      2.00000
      7       1.1104      0.00000
      8       1.3165      0.00000
      9       2.7278      0.00000
     10       2.9043      0.00000

 k-point   161 :      -0.3333    0.4667    0.2667
  band No.  band energies     occupation 
      1     -46.6358      2.00000
      2     -46.6338      2.00000
      3     -46.6179      2.00000
      4     -46.6169      2.00000
      5      -0.7443      2.00000
      6      -0.3881      2.00000
      7       1.1102      0.00000
      8       1.3164      0.00000
      9       2.7279      0.00000
     10       2.9047      0.00000

 k-point   162 :       0.4000    0.4000    0.2667
  band No.  band energies     occupation 
      1     -46.6361      2.00000
      2     -46.6324      2.00000
      3     -46.6190      2.00000
      4     -46.6170      2.00000
      5      -0.7960      2.00000
      6       0.0461      2.00000
      7       0.6675      0.00001
      8       1.2722      0.00000
      9       2.6925      0.00000
     10       3.3591      0.00000

 k-point   163 :       0.4667    0.4000    0.2667
  band No.  band energies     occupation 
      1     -46.6344      2.00000
      2     -46.6331      2.00000
      3     -46.6188      2.00000
      4     -46.6181      2.00000
      5      -0.4926      2.00000
      6      -0.1752      2.00000
      7       0.7792      0.00000
      8       1.0314      0.00000
      9       2.8308      0.00000
     10       3.0977      0.00000

 k-point   164 :      -0.4000    0.4667    0.2667
  band No.  band energies     occupation 
      1     -46.6344      2.00000
      2     -46.6331      2.00000
      3     -46.6188      2.00000
      4     -46.6181      2.00000
      5      -0.4926      2.00000
      6      -0.1752      2.00000
      7       0.7792      0.00000
      8       1.0314      0.00000
      9       2.8309      0.00000
     10       3.0980      0.00000

 k-point   165 :       0.4667    0.4667    0.2667
  band No.  band energies     occupation 
      1     -46.6334      2.00000
      2     -46.6329      2.00000
      3     -46.6192      2.00000
      4     -46.6189      2.00000
      5      -0.2297      2.00000
      6      -0.0676      2.00000
      7       0.5954      1.51576
      8       0.7395      0.00000
      9       3.0632      0.00000
     10       3.3055      0.00000

 k-point   166 :       0.3333    0.3333    0.3333
  band No.  band energies     occupation 
      1     -46.6381      2.00000
      2     -46.6312      2.00000
      3     -46.6193      2.00000
      4     -46.6158      2.00000
      5      -1.1114      2.00000
      6       0.3693      2.00000
      7       0.7550      0.00000
      8       1.2202      0.00000
      9       3.0207      0.00000
     10       3.2662      0.00000

 k-point   167 :       0.4000    0.3333    0.3333
  band No.  band energies     occupation 
      1     -46.6362      2.00000
      2     -46.6316      2.00000
      3     -46.6197      2.00000
      4     -46.6171      2.00000
      5      -0.8418      2.00000
      6       0.1654      2.00000
      7       0.8601      0.00000
      8       1.2261      0.00000
      9       2.7799      0.00000
     10       2.8781      0.00000

 k-point   168 :       0.4667    0.3333    0.3333
  band No.  band energies     occupation 
      1     -46.6343      2.00000
      2     -46.6327      2.00000
      3     -46.6192      2.00000
      4     -46.6183      2.00000
      5      -0.5295      2.00000
      6      -0.1838      2.00000
      7       1.0641      0.00000
      8       1.2049      0.00000
      9       2.6049      0.00000
     10       2.6447      0.00000

 k-point   169 :       0.4000    0.4000    0.3333
  band No.  band energies     occupation 
      1     -46.6345      2.00000
      2     -46.6313      2.00000
      3     -46.6204      2.00000
      4     -46.6184      2.00000
      5      -0.5781      2.00000
      6       0.2462      2.00000
      7       0.7388      0.00000
      8       1.1598      0.00000
      9       2.5840      0.00000
     10       2.9898      0.00000

 k-point   170 :       0.4667    0.4000    0.3333
  band No.  band energies     occupation 
      1     -46.6328      2.00000
      2     -46.6317      2.00000
      3     -46.6204      2.00000
      4     -46.6196      2.00000
      5      -0.2788      2.00000
      6       0.0327      2.00000
      7       0.8543      0.00000
      8       1.0448      0.00000
      9       2.5535      0.00000
     10       2.7250      0.00000

 k-point   171 :      -0.4000    0.4667    0.3333
  band No.  band energies     occupation 
      1     -46.6328      2.00000
      2     -46.6317      2.00000
      3     -46.6204      2.00000
      4     -46.6196      2.00000
      5      -0.2788      2.00000
      6       0.0327      2.00000
      7       0.8543      0.00000
      8       1.0448      0.00000
      9       2.5535      0.00000
     10       2.7251      0.00000

 k-point   172 :       0.4667    0.4667    0.3333
  band No.  band energies     occupation 
      1     -46.6317      2.00000
      2     -46.6313      2.00000
      3     -46.6209      2.00000
      4     -46.6206      2.00000
      5      -0.0165      2.00000
      6       0.1473      2.00000
      7       0.6987      0.00000
      8       0.8281      0.00000
      9       2.6888      0.00000
     10       2.9384      0.00000

 k-point   173 :       0.4000    0.4000    0.4000
  band No.  band energies     occupation 
      1     -46.6327      2.00000
      2     -46.6304      2.00000
      3     -46.6215      2.00000
      4     -46.6199      2.00000
      5      -0.3197      2.00000
      6       0.3943      2.00000
      7       0.7355      0.00000
      8       1.0525      0.00000
      9       2.6422      0.00000
     10       2.6800      0.00000

 k-point   174 :       0.4667    0.4000    0.4000
  band No.  band energies     occupation 
      1     -46.6312      2.00000
      2     -46.6303      2.00000
      3     -46.6219      2.00000
      4     -46.6212      2.00000
      5      -0.0319      2.00000
      6       0.2536      2.00000
      7       0.8403      0.00000
      8       0.9811      0.00000
      9       2.4655      0.00000
     10       2.5009      0.00000

 k-point   175 :       0.4667    0.4667    0.4000
  band No.  band energies     occupation 
      1     -46.6298      2.00000
      2     -46.6294      2.00000
      3     -46.6227      2.00000
      4     -46.6224      2.00000
      5       0.2235      2.00000
      6       0.3807      2.00000
      7       0.7632      0.00000
      8       0.8647      0.00000
      9       2.4481      0.00000
     10       2.6029      0.00000

 k-point   176 :       0.4667    0.4667    0.4667
  band No.  band energies     occupation 
      1     -46.6281      2.00000
      2     -46.6278      2.00000
      3     -46.6244      2.00000
      4     -46.6242      2.00000
      5       0.4586      2.00000
      6       0.5626      1.99747
      7       0.7459      0.00000
      8       0.8164      0.00000
      9       2.3912      0.00000
     10       2.4311      0.00000


--------------------------------------------------------------------------------------------------------


 soft charge-density along one line, spin component            1
         0         1         2         3         4         5         6         7         8         9
 total charge-density along one line
 
 pseudopotential strength for first ion, spin component:            1
-41.219   2.746   0.000   0.000  -0.000
  2.746  -9.091   0.000   0.000  -0.000
  0.000   0.000   0.128   0.000  -0.000
  0.000   0.000   0.000   0.128  -0.000
 -0.000  -0.000  -0.000  -0.000   0.128
 total augmentation occupancy for first ion, spin component:            1
  2.001   0.007  -0.000  -0.000   0.000
  0.007   0.933  -0.000  -0.000   0.000
 -0.000  -0.000   0.020  -0.001   0.001
 -0.000  -0.000  -0.001   0.020   0.001
  0.000   0.000   0.001   0.001   0.020


------------------------ aborting loop because EDIFF is reached ----------------------------------------


    CHARGE:  cpu time      0.1831: real time      0.1835
    FORLOC:  cpu time      0.0008: real time      0.0008
    FORNL :  cpu time      0.3856: real time      0.3863
    STRESS:  cpu time      3.5618: real time      3.5694
    FORHAR:  cpu time      0.0015: real time      0.0015
    MIXING:  cpu time      0.0050: real time      0.0050
    OFIELD:  cpu time      0.0000: real time      0.0000

  FORCE on cell =-STRESS in cart. coord.  units (eV):
  Direction    XX          YY          ZZ          XY          YZ          ZX
  --------------------------------------------------------------------------------------
  Alpha Z     4.19763     4.19763     4.19763
  Ewald     -86.12030   -86.12030   -86.12030     0.00000     0.00000     0.00000
  Hartree    57.67253    57.67253    57.67253    -0.00000    -0.00000    -0.00000
  E(xc)     -52.93608   -52.93608   -52.93608     0.00000    -0.00000    -0.00000
  Local     -85.06329   -85.06329   -85.06329     0.00000    -0.00000     0.00000
  n-local   -75.54452   -75.83852   -77.00877    -0.02797     0.17795    -0.04310
  augment    68.77937    68.77937    68.77937     0.00000     0.00000     0.00000
  Kinetic   172.62420   171.24944   164.91691    -0.64356     0.67428    -0.50960
  Fock        0.00000     0.00000     0.00000     0.00000     0.00000     0.00000
  -------------------------------------------------------------------------------------
  Total      -0.00389    -0.00389    -0.00389     0.00000     0.00000     0.00000
  in kB      -0.07112    -0.07112    -0.07112     0.00000     0.00000     0.00000
  external pressure =       -0.07 kB  Pullay stress =        0.00 kB


 VOLUME and BASIS-vectors are now :
 -----------------------------------------------------------------------------
  energy-cutoff  :      600.00
  volume of cell :       87.74
      direct lattice vectors                 reciprocal lattice vectors
     4.443647044 -0.000000000  0.000000000     0.225040376 -0.000000000  0.000000000
     0.000000000  4.443647044 -0.000000000     0.000000000  0.225040376 -0.000000000
    -0.000000000  0.000000000  4.443647044    -0.000000000  0.000000000  0.225040376

  length of vectors
     4.443647044  4.443647044  4.443647044     0.225040376  0.225040376  0.225040376


 FORCES acting on ions
    electron-ion (+dipol)            ewald-force                    non-local-force                 convergence-correction
 -----------------------------------------------------------------------------------------------
   0.254E-01 -.254E-01 -.254E-01   -.289E-01 0.289E-01 0.289E-01   -.160E-02 0.160E-02 0.160E-02   0.186E-02 -.186E-02 -.186E-02
   0.254E-01 0.254E-01 0.254E-01   -.289E-01 -.289E-01 -.289E-01   -.160E-02 -.160E-02 -.160E-02   0.186E-02 0.186E-02 0.186E-02
   -.254E-01 -.254E-01 0.254E-01   0.289E-01 0.289E-01 -.289E-01   0.160E-02 0.160E-02 -.160E-02   -.186E-02 -.186E-02 0.186E-02
   -.254E-01 0.254E-01 -.254E-01   0.289E-01 -.289E-01 0.289E-01   0.160E-02 -.160E-02 0.160E-02   -.186E-02 0.186E-02 -.186E-02
 -----------------------------------------------------------------------------------------------
   -.741E-08 -.952E-08 0.101E-09   0.128E-15 0.111E-15 0.347E-17   -.152E-17 0.434E-18 -.434E-18   -.195E-14 -.180E-13 0.271E-13
 
 
 POSITION                                       TOTAL-FORCE (eV/Angst)
 -----------------------------------------------------------------------------------
      3.88583      0.55781      2.77964        -0.003210      0.003210      0.003210
      1.66401      1.66401      1.66401        -0.003210     -0.003210     -0.003210
      0.55781      2.77964      3.88583         0.003210      0.003210     -0.003210
      2.77964      3.88583      0.55781         0.003210     -0.003210      0.003210
 -----------------------------------------------------------------------------------
    total drift:                               -0.000000     -0.000000      0.000000


--------------------------------------------------------------------------------------------------------



  FREE ENERGIE OF THE ION-ELECTRON SYSTEM (eV)
  ---------------------------------------------------
  free  energy   TOTEN  =        -6.57470451 eV

  energy  without entropy=       -6.57440431  energy(sigma->0) =       -6.57455441
 d Force =-0.4600974E-04[-0.379E-04,-0.541E-04]  d Energy = 0.4105393E-02-0.415E-02
 d Force =-0.4177914E-03[-0.341E-03,-0.495E-03]  d Ewald  =-0.3304134E+01 0.330E+01
 


--------------------------------------------------------------------------------------------------------


    POTLOK:  cpu time      0.0100: real time      0.0101


--------------------------------------------------------------------------------------------------------


 Quasi-Newton relaxation of ions (Broydens 2nd method)
  g(Force)  = 0.596E-05   g(Stress)= 0.549E-06

 retain information from N=  1 steps
 eigenvalues of (default step * inverse Hessian matrix)
  average eigenvalue of G=   4.9381
 eigenvalue spectrum of G is  4.9381


--------------------------------------------------------------------------------------------------------


  
 reached required accuracy - stopping structural energy minimisation
     LOOP+:  cpu time     14.7246: real time     14.7654
    4ORBIT:  cpu time      0.0000: real time      0.0000

 total amount of memory used by VASP MPI-rank0   168636. kBytes
=======================================================================

   base                                    :      30000. kBytes
   nonl-proj                               :      21127. kBytes
   fftplans                                :      13060. kBytes
   grid                                    :      20134. kBytes
   one-center                              :          4. kBytes
   wavefun                                 :      84311. kBytes
 
  
  
 General timing and accounting informations for this job:
 ========================================================
  
                  Total CPU time used (sec):       77.818
                            User time (sec):       76.738
                          System time (sec):        1.080
                         Elapsed time (sec):       87.112
  
                   Maximum memory used (kb):     1563760.
                   Average memory used (kb):          N/A
  
                          Minor page faults:       371397
                          Major page faults:          523
                 Voluntary context switches:        19992
