       N       E                     dE             d eps       ncg     rms          rms(c)
DAV:   1     0.298077247271E+02    0.29808E+02   -0.66581E+03  2380   0.120E+03
DAV:   2     0.580783514818E+01   -0.24000E+02   -0.23628E+02  2494   0.182E+02
DAV:   3    -0.564773391041E+01   -0.11456E+02   -0.11344E+02  4666   0.643E+01
DAV:   4    -0.632455570204E+01   -0.67682E+00   -0.67558E+00  2794   0.280E+01
DAV:   5    -0.640894373982E+01   -0.84388E-01   -0.84359E-01  4302   0.628E+00    0.670E-01
DAV:   6    -0.640594543125E+01    0.29983E-02   -0.11218E-02  3032   0.120E+00    0.395E-01
DAV:   7    -0.640390370955E+01    0.20417E-02   -0.75284E-03  4524   0.504E-01    0.100E-01
DAV:   8    -0.640405228536E+01   -0.14858E-03   -0.55492E-04  2674   0.310E-01    0.145E-01
DAV:   9    -0.640392804767E+01    0.12424E-03   -0.15036E-04  2580   0.159E-01    0.291E-03
DAV:  10    -0.640393313034E+01   -0.50827E-05   -0.44322E-05  3784   0.528E-02    0.929E-03
DAV:  11    -0.640393042819E+01    0.27021E-05   -0.17545E-06  2478   0.147E-02    0.513E-03
DAV:  12    -0.640392945512E+01    0.97308E-06   -0.10527E-07  1350   0.412E-03
   1 F= -.64039295E+01 E0= -.64037098E+01  d E =-.439255E-03
