Cu2                                     
   1.00000000000000     
     2.5593836693118139   -0.0000000272884242   -0.0000000000000000
    -1.2796933746099144    2.2164918364298134    0.0000000000000000
     0.0000000000000000    0.0000000000000000    4.2343160138698517
   Cu
     2
Direct
     0.3333349999999982    0.6666689999999988    0.2500000000000000
     0.6666669999999968    0.3333340000000007    0.7500009999999975
 
  0.00000000E+00  0.00000000E+00  0.00000000E+00
  0.00000000E+00  0.00000000E+00  0.00000000E+00
