4000
Lattice="48.88011748507086 0.0 0.0 0.0 48.88011748507086 0.0 0.0 0.0 48.88011748507086" Properties=species:S:1:pos:R:3 pbc="T T T"
Li       4.27441744       0.61359430       3.05760018
Li       1.83041157       1.83041157       1.83041157
Li       0.61359430       3.05760018       4.27441744
Li       3.05760018       4.27441744       0.61359430
Li       4.27441744       0.61359430       7.94561193
Li       1.83041157       1.83041157       6.71842332
Li       0.61359430       3.05760018       9.16242919
Li       3.05760018       4.27441744       5.50160605
Li       4.27441744       0.61359430      12.83362367
Li       1.83041157       1.83041157      11.60643507
Li       0.61359430       3.05760018      14.05044094
Li       3.05760018       4.27441744      10.38961780
Li       4.27441744       0.61359430      17.72163542
Li       1.83041157       1.83041157      16.49444682
Li       0.61359430       3.05760018      18.93845269
Li       3.05760018       4.27441744      15.27762955
Li       4.27441744       0.61359430      22.60964717
Li       1.83041157       1.83041157      21.38245856
Li       0.61359430       3.05760018      23.82646444
Li       3.05760018       4.27441744      20.16564130
Li       4.27441744       0.61359430      27.49765892
Li       1.83041157       1.83041157      26.27047031
Li       0.61359430       3.05760018      28.71447619
Li       3.05760018       4.27441744      25.05365305
Li       4.27441744       0.61359430      32.38567067
Li       1.83041157       1.83041157      31.15848206
Li       0.61359430       3.05760018      33.60248794
Li       3.05760018       4.27441744      29.94166479
Li       4.27441744       0.61359430      37.27368242
Li       1.83041157       1.83041157      36.04649381
Li       0.61359430       3.05760018      38.49049968
Li       3.05760018       4.27441744      34.82967654
Li       4.27441744       0.61359430      42.16169417
Li       1.83041157       1.83041157      40.93450556
Li       0.61359430       3.05760018      43.37851143
Li       3.05760018       4.27441744      39.71768829
Li       4.27441744       0.61359430      47.04970591
Li       1.83041157       1.83041157      45.82251731
Li       0.61359430       3.05760018      48.26652318
Li       3.05760018       4.27441744      44.60570004
Li       4.27441744       5.50160605       3.05760018
Li       1.83041157       6.71842332       1.83041157
Li       0.61359430       7.94561193       4.27441744
Li       3.05760018       9.16242919       0.61359430
Li       4.27441744       5.50160605       7.94561193
Li       1.83041157       6.71842332       6.71842332
Li       0.61359430       7.94561193       9.16242919
Li       3.05760018       9.16242919       5.50160605
Li       4.27441744       5.50160605      12.83362367
Li       1.83041157       6.71842332      11.60643507
Li       0.61359430       7.94561193      14.05044094
Li       3.05760018       9.16242919      10.38961780
Li       4.27441744       5.50160605      17.72163542
Li       1.83041157       6.71842332      16.49444682
Li       0.61359430       7.94561193      18.93845269
Li       3.05760018       9.16242919      15.27762955
Li       4.27441744       5.50160605      22.60964717
Li       1.83041157       6.71842332      21.38245856
Li       0.61359430       7.94561193      23.82646444
Li       3.05760018       9.16242919      20.16564130
Li       4.27441744       5.50160605      27.49765892
Li       1.83041157       6.71842332      26.27047031
Li       0.61359430       7.94561193      28.71447619
Li       3.05760018       9.16242919      25.05365305
Li       4.27441744       5.50160605      32.38567067
Li       1.83041157       6.71842332      31.15848206
Li       0.61359430       7.94561193      33.60248794
Li       3.05760018       9.16242919      29.94166479
Li       4.27441744       5.50160605      37.27368242
Li       1.83041157       6.71842332      36.04649381
Li       0.61359430       7.94561193      38.49049968
Li       3.05760018       9.16242919      34.82967654
Li       4.27441744       5.50160605      42.16169417
Li       1.83041157       6.71842332      40.93450556
Li       0.61359430       7.94561193      43.37851143
Li       3.05760018       9.16242919      39.71768829
Li       4.27441744       5.50160605      47.04970591
Li       1.83041157       6.71842332      45.82251731
Li       0.61359430       7.94561193      48.26652318
Li       3.05760018       9.16242919      44.60570004
Li       4.27441744      10.38961780       3.05760018
Li       1.83041157      11.60643507       1.83041157
Li       0.61359430      12.83362367       4.27441744
Li       3.05760018      14.05044094       0.61359430
Li       4.27441744      10.38961780       7.94561193
Li       1.83041157      11.60643507       6.71842332
Li       0.61359430      12.83362367       9.16242919
Li       3.05760018      14.05044094       5.50160605
Li       4.27441744      10.38961780      12.83362367
Li       1.83041157      11.60643507      11.60643507
Li       0.61359430      12.83362367      14.05044094
Li       3.05760018      14.05044094      10.38961780
Li       4.27441744      10.38961780      17.72163542
Li       1.83041157      11.60643507      16.49444682
Li       0.61359430      12.83362367      18.93845269
Li       3.05760018      14.05044094      15.27762955
Li       4.27441744      10.38961780      22.60964717
Li       1.83041157      11.60643507      21.38245856
Li       0.61359430      12.83362367      23.82646444
Li       3.05760018      14.05044094      20.16564130
Li       4.27441744      10.38961780      27.49765892
Li       1.83041157      11.60643507      26.27047031
Li       0.61359430      12.83362367      28.71447619
Li       3.05760018      14.05044094      25.05365305
Li       4.27441744      10.38961780      32.38567067
Li       1.83041157      11.60643507      31.15848206
Li       0.61359430      12.83362367      33.60248794
Li       3.05760018      14.05044094      29.94166479
Li       4.27441744      10.38961780      37.27368242
Li       1.83041157      11.60643507      36.04649381
Li       0.61359430      12.83362367      38.49049968
Li       3.05760018      14.05044094      34.82967654
Li       4.27441744      10.38961780      42.16169417
Li       1.83041157      11.60643507      40.93450556
Li       0.61359430      12.83362367      43.37851143
Li       3.05760018      14.05044094      39.71768829
Li       4.27441744      10.38961780      47.04970591
Li       1.83041157      11.60643507      45.82251731
Li       0.61359430      12.83362367      48.26652318
Li       3.05760018      14.05044094      44.60570004
Li       4.27441744      15.27762955       3.05760018
Li       1.83041157      16.49444682       1.83041157
Li       0.61359430      17.72163542       4.27441744
Li       3.05760018      18.93845269       0.61359430
Li       4.27441744      15.27762955       7.94561193
Li       1.83041157      16.49444682       6.71842332
Li       0.61359430      17.72163542       9.16242919
Li       3.05760018      18.93845269       5.50160605
Li       4.27441744      15.27762955      12.83362367
Li       1.83041157      16.49444682      11.60643507
Li       0.61359430      17.72163542      14.05044094
Li       3.05760018      18.93845269      10.38961780
Li       4.27441744      15.27762955      17.72163542
Li       1.83041157      16.49444682      16.49444682
Li       0.61359430      17.72163542      18.93845269
Li       3.05760018      18.93845269      15.27762955
Li       4.27441744      15.27762955      22.60964717
Li       1.83041157      16.49444682      21.38245856
Li       0.61359430      17.72163542      23.82646444
Li       3.05760018      18.93845269      20.16564130
Li       4.27441744      15.27762955      27.49765892
Li       1.83041157      16.49444682      26.27047031
Li       0.61359430      17.72163542      28.71447619
Li       3.05760018      18.93845269      25.05365305
Li       4.27441744      15.27762955      32.38567067
Li       1.83041157      16.49444682      31.15848206
Li       0.61359430      17.72163542      33.60248794
Li       3.05760018      18.93845269      29.94166479
Li       4.27441744      15.27762955      37.27368242
Li       1.83041157      16.49444682      36.04649381
Li       0.61359430      17.72163542      38.49049968
Li       3.05760018      18.93845269      34.82967654
Li       4.27441744      15.27762955      42.16169417
Li       1.83041157      16.49444682      40.93450556
Li       0.61359430      17.72163542      43.37851143
Li       3.05760018      18.93845269      39.71768829
Li       4.27441744      15.27762955      47.04970591
Li       1.83041157      16.49444682      45.82251731
Li       0.61359430      17.72163542      48.26652318
Li       3.05760018      18.93845269      44.60570004
Li       4.27441744      20.16564130       3.05760018
Li       1.83041157      21.38245856       1.83041157
Li       0.61359430      22.60964717       4.27441744
Li       3.05760018      23.82646444       0.61359430
Li       4.27441744      20.16564130       7.94561193
Li       1.83041157      21.38245856       6.71842332
Li       0.61359430      22.60964717       9.16242919
Li       3.05760018      23.82646444       5.50160605
Li       4.27441744      20.16564130      12.83362367
Li       1.83041157      21.38245856      11.60643507
Li       0.61359430      22.60964717      14.05044094
Li       3.05760018      23.82646444      10.38961780
Li       4.27441744      20.16564130      17.72163542
Li       1.83041157      21.38245856      16.49444682
Li       0.61359430      22.60964717      18.93845269
Li       3.05760018      23.82646444      15.27762955
Li       4.27441744      20.16564130      22.60964717
Li       1.83041157      21.38245856      21.38245856
Li       0.61359430      22.60964717      23.82646444
Li       3.05760018      23.82646444      20.16564130
Li       4.27441744      20.16564130      27.49765892
Li       1.83041157      21.38245856      26.27047031
Li       0.61359430      22.60964717      28.71447619
Li       3.05760018      23.82646444      25.05365305
Li       4.27441744      20.16564130      32.38567067
Li       1.83041157      21.38245856      31.15848206
Li       0.61359430      22.60964717      33.60248794
Li       3.05760018      23.82646444      29.94166479
Li       4.27441744      20.16564130      37.27368242
Li       1.83041157      21.38245856      36.04649381
Li       0.61359430      22.60964717      38.49049968
Li       3.05760018      23.82646444      34.82967654
Li       4.27441744      20.16564130      42.16169417
Li       1.83041157      21.38245856      40.93450556
Li       0.61359430      22.60964717      43.37851143
Li       3.05760018      23.82646444      39.71768829
Li       4.27441744      20.16564130      47.04970591
Li       1.83041157      21.38245856      45.82251731
Li       0.61359430      22.60964717      48.26652318
Li       3.05760018      23.82646444      44.60570004
Li       4.27441744      25.05365305       3.05760018
Li       1.83041157      26.27047031       1.83041157
Li       0.61359430      27.49765892       4.27441744
Li       3.05760018      28.71447619       0.61359430
Li       4.27441744      25.05365305       7.94561193
Li       1.83041157      26.27047031       6.71842332
Li       0.61359430      27.49765892       9.16242919
Li       3.05760018      28.71447619       5.50160605
Li       4.27441744      25.05365305      12.83362367
Li       1.83041157      26.27047031      11.60643507
Li       0.61359430      27.49765892      14.05044094
Li       3.05760018      28.71447619      10.38961780
Li       4.27441744      25.05365305      17.72163542
Li       1.83041157      26.27047031      16.49444682
Li       0.61359430      27.49765892      18.93845269
Li       3.05760018      28.71447619      15.27762955
Li       4.27441744      25.05365305      22.60964717
Li       1.83041157      26.27047031      21.38245856
Li       0.61359430      27.49765892      23.82646444
Li       3.05760018      28.71447619      20.16564130
Li       4.27441744      25.05365305      27.49765892
Li       1.83041157      26.27047031      26.27047031
Li       0.61359430      27.49765892      28.71447619
Li       3.05760018      28.71447619      25.05365305
Li       4.27441744      25.05365305      32.38567067
Li       1.83041157      26.27047031      31.15848206
Li       0.61359430      27.49765892      33.60248794
Li       3.05760018      28.71447619      29.94166479
Li       4.27441744      25.05365305      37.27368242
Li       1.83041157      26.27047031      36.04649381
Li       0.61359430      27.49765892      38.49049968
Li       3.05760018      28.71447619      34.82967654
Li       4.27441744      25.05365305      42.16169417
Li       1.83041157      26.27047031      40.93450556
Li       0.61359430      27.49765892      43.37851143
Li       3.05760018      28.71447619      39.71768829
Li       4.27441744      25.05365305      47.04970591
Li       1.83041157      26.27047031      45.82251731
Li       0.61359430      27.49765892      48.26652318
Li       3.05760018      28.71447619      44.60570004
Li       4.27441744      29.94166479       3.05760018
Li       1.83041157      31.15848206       1.83041157
Li       0.61359430      32.38567067       4.27441744
Li       3.05760018      33.60248794       0.61359430
Li       4.27441744      29.94166479       7.94561193
Li       1.83041157      31.15848206       6.71842332
Li       0.61359430      32.38567067       9.16242919
Li       3.05760018      33.60248794       5.50160605
Li       4.27441744      29.94166479      12.83362367
Li       1.83041157      31.15848206      11.60643507
Li       0.61359430      32.38567067      14.05044094
Li       3.05760018      33.60248794      10.38961780
Li       4.27441744      29.94166479      17.72163542
Li       1.83041157      31.15848206      16.49444682
Li       0.61359430      32.38567067      18.93845269
Li       3.05760018      33.60248794      15.27762955
Li       4.27441744      29.94166479      22.60964717
Li       1.83041157      31.15848206      21.38245856
Li       0.61359430      32.38567067      23.82646444
Li       3.05760018      33.60248794      20.16564130
Li       4.27441744      29.94166479      27.49765892
Li       1.83041157      31.15848206      26.27047031
Li       0.61359430      32.38567067      28.71447619
Li       3.05760018      33.60248794      25.05365305
Li       4.27441744      29.94166479      32.38567067
Li       1.83041157      31.15848206      31.15848206
Li       0.61359430      32.38567067      33.60248794
Li       3.05760018      33.60248794      29.94166479
Li       4.27441744      29.94166479      37.27368242
Li       1.83041157      31.15848206      36.04649381
Li       0.61359430      32.38567067      38.49049968
Li       3.05760018      33.60248794      34.82967654
Li       4.27441744      29.94166479      42.16169417
Li       1.83041157      31.15848206      40.93450556
Li       0.61359430      32.38567067      43.37851143
Li       3.05760018      33.60248794      39.71768829
Li       4.27441744      29.94166479      47.04970591
Li       1.83041157      31.15848206      45.82251731
Li       0.61359430      32.38567067      48.26652318
Li       3.05760018      33.60248794      44.60570004
Li       4.27441744      34.82967654       3.05760018
Li       1.83041157      36.04649381       1.83041157
Li       0.61359430      37.27368242       4.27441744
Li       3.05760018      38.49049968       0.61359430
Li       4.27441744      34.82967654       7.94561193
Li       1.83041157      36.04649381       6.71842332
Li       0.61359430      37.27368242       9.16242919
Li       3.05760018      38.49049968       5.50160605
Li       4.27441744      34.82967654      12.83362367
Li       1.83041157      36.04649381      11.60643507
Li       0.61359430      37.27368242      14.05044094
Li       3.05760018      38.49049968      10.38961780
Li       4.27441744      34.82967654      17.72163542
Li       1.83041157      36.04649381      16.49444682
Li       0.61359430      37.27368242      18.93845269
Li       3.05760018      38.49049968      15.27762955
Li       4.27441744      34.82967654      22.60964717
Li       1.83041157      36.04649381      21.38245856
Li       0.61359430      37.27368242      23.82646444
Li       3.05760018      38.49049968      20.16564130
Li       4.27441744      34.82967654      27.49765892
Li       1.83041157      36.04649381      26.27047031
Li       0.61359430      37.27368242      28.71447619
Li       3.05760018      38.49049968      25.05365305
Li       4.27441744      34.82967654      32.38567067
Li       1.83041157      36.04649381      31.15848206
Li       0.61359430      37.27368242      33.60248794
Li       3.05760018      38.49049968      29.94166479
Li       4.27441744      34.82967654      37.27368242
Li       1.83041157      36.04649381      36.04649381
Li       0.61359430      37.27368242      38.49049968
Li       3.05760018      38.49049968      34.82967654
Li       4.27441744      34.82967654      42.16169417
Li       1.83041157      36.04649381      40.93450556
Li       0.61359430      37.27368242      43.37851143
Li       3.05760018      38.49049968      39.71768829
Li       4.27441744      34.82967654      47.04970591
Li       1.83041157      36.04649381      45.82251731
Li       0.61359430      37.27368242      48.26652318
Li       3.05760018      38.49049968      44.60570004
Li       4.27441744      39.71768829       3.05760018
Li       1.83041157      40.93450556       1.83041157
Li       0.61359430      42.16169417       4.27441744
Li       3.05760018      43.37851143       0.61359430
Li       4.27441744      39.71768829       7.94561193
Li       1.83041157      40.93450556       6.71842332
Li       0.61359430      42.16169417       9.16242919
Li       3.05760018      43.37851143       5.50160605
Li       4.27441744      39.71768829      12.83362367
Li       1.83041157      40.93450556      11.60643507
Li       0.61359430      42.16169417      14.05044094
Li       3.05760018      43.37851143      10.38961780
Li       4.27441744      39.71768829      17.72163542
Li       1.83041157      40.93450556      16.49444682
Li       0.61359430      42.16169417      18.93845269
Li       3.05760018      43.37851143      15.27762955
Li       4.27441744      39.71768829      22.60964717
Li       1.83041157      40.93450556      21.38245856
Li       0.61359430      42.16169417      23.82646444
Li       3.05760018      43.37851143      20.16564130
Li       4.27441744      39.71768829      27.49765892
Li       1.83041157      40.93450556      26.27047031
Li       0.61359430      42.16169417      28.71447619
Li       3.05760018      43.37851143      25.05365305
Li       4.27441744      39.71768829      32.38567067
Li       1.83041157      40.93450556      31.15848206
Li       0.61359430      42.16169417      33.60248794
Li       3.05760018      43.37851143      29.94166479
Li       4.27441744      39.71768829      37.27368242
Li       1.83041157      40.93450556      36.04649381
Li       0.61359430      42.16169417      38.49049968
Li       3.05760018      43.37851143      34.82967654
Li       4.27441744      39.71768829      42.16169417
Li       1.83041157      40.93450556      40.93450556
Li       0.61359430      42.16169417      43.37851143
Li       3.05760018      43.37851143      39.71768829
Li       4.27441744      39.71768829      47.04970591
Li       1.83041157      40.93450556      45.82251731
Li       0.61359430      42.16169417      48.26652318
Li       3.05760018      43.37851143      44.60570004
Li       4.27441744      44.60570004       3.05760018
Li       1.83041157      45.82251731       1.83041157
Li       0.61359430      47.04970591       4.27441744
Li       3.05760018      48.26652318       0.61359430
Li       4.27441744      44.60570004       7.94561193
Li       1.83041157      45.82251731       6.71842332
Li       0.61359430      47.04970591       9.16242919
Li       3.05760018      48.26652318       5.50160605
Li       4.27441744      44.60570004      12.83362367
Li       1.83041157      45.82251731      11.60643507
Li       0.61359430      47.04970591      14.05044094
Li       3.05760018      48.26652318      10.38961780
Li       4.27441744      44.60570004      17.72163542
Li       1.83041157      45.82251731      16.49444682
Li       0.61359430      47.04970591      18.93845269
Li       3.05760018      48.26652318      15.27762955
Li       4.27441744      44.60570004      22.60964717
Li       1.83041157      45.82251731      21.38245856
Li       0.61359430      47.04970591      23.82646444
Li       3.05760018      48.26652318      20.16564130
Li       4.27441744      44.60570004      27.49765892
Li       1.83041157      45.82251731      26.27047031
Li       0.61359430      47.04970591      28.71447619
Li       3.05760018      48.26652318      25.05365305
Li       4.27441744      44.60570004      32.38567067
Li       1.83041157      45.82251731      31.15848206
Li       0.61359430      47.04970591      33.60248794
Li       3.05760018      48.26652318      29.94166479
Li       4.27441744      44.60570004      37.27368242
Li       1.83041157      45.82251731      36.04649381
Li       0.61359430      47.04970591      38.49049968
Li       3.05760018      48.26652318      34.82967654
Li       4.27441744      44.60570004      42.16169417
Li       1.83041157      45.82251731      40.93450556
Li       0.61359430      47.04970591      43.37851143
Li       3.05760018      48.26652318      39.71768829
Li       4.27441744      44.60570004      47.04970591
Li       1.83041157      45.82251731      45.82251731
Li       0.61359430      47.04970591      48.26652318
Li       3.05760018      48.26652318      44.60570004
Li       9.16242919       0.61359430       3.05760018
Li       6.71842332       1.83041157       1.83041157
Li       5.50160605       3.05760018       4.27441744
Li       7.94561193       4.27441744       0.61359430
Li       9.16242919       0.61359430       7.94561193
Li       6.71842332       1.83041157       6.71842332
Li       5.50160605       3.05760018       9.16242919
Li       7.94561193       4.27441744       5.50160605
Li       9.16242919       0.61359430      12.83362367
Li       6.71842332       1.83041157      11.60643507
Li       5.50160605       3.05760018      14.05044094
Li       7.94561193       4.27441744      10.38961780
Li       9.16242919       0.61359430      17.72163542
Li       6.71842332       1.83041157      16.49444682
Li       5.50160605       3.05760018      18.93845269
Li       7.94561193       4.27441744      15.27762955
Li       9.16242919       0.61359430      22.60964717
Li       6.71842332       1.83041157      21.38245856
Li       5.50160605       3.05760018      23.82646444
Li       7.94561193       4.27441744      20.16564130
Li       9.16242919       0.61359430      27.49765892
Li       6.71842332       1.83041157      26.27047031
Li       5.50160605       3.05760018      28.71447619
Li       7.94561193       4.27441744      25.05365305
Li       9.16242919       0.61359430      32.38567067
Li       6.71842332       1.83041157      31.15848206
Li       5.50160605       3.05760018      33.60248794
Li       7.94561193       4.27441744      29.94166479
Li       9.16242919       0.61359430      37.27368242
Li       6.71842332       1.83041157      36.04649381
Li       5.50160605       3.05760018      38.49049968
Li       7.94561193       4.27441744      34.82967654
Li       9.16242919       0.61359430      42.16169417
Li       6.71842332       1.83041157      40.93450556
Li       5.50160605       3.05760018      43.37851143
Li       7.94561193       4.27441744      39.71768829
Li       9.16242919       0.61359430      47.04970591
Li       6.71842332       1.83041157      45.82251731
Li       5.50160605       3.05760018      48.26652318
Li       7.94561193       4.27441744      44.60570004
Li       9.16242919       5.50160605       3.05760018
Li       6.71842332       6.71842332       1.83041157
Li       5.50160605       7.94561193       4.27441744
Li       7.94561193       9.16242919       0.61359430
Li       9.16242919       5.50160605       7.94561193
Li       6.71842332       6.71842332       6.71842332
Li       5.50160605       7.94561193       9.16242919
Li       7.94561193       9.16242919       5.50160605
Li       9.16242919       5.50160605      12.83362367
Li       6.71842332       6.71842332      11.60643507
Li       5.50160605       7.94561193      14.05044094
Li       7.94561193       9.16242919      10.38961780
Li       9.16242919       5.50160605      17.72163542
Li       6.71842332       6.71842332      16.49444682
Li       5.50160605       7.94561193      18.93845269
Li       7.94561193       9.16242919      15.27762955
Li       9.16242919       5.50160605      22.60964717
Li       6.71842332       6.71842332      21.38245856
Li       5.50160605       7.94561193      23.82646444
Li       7.94561193       9.16242919      20.16564130
Li       9.16242919       5.50160605      27.49765892
Li       6.71842332       6.71842332      26.27047031
Li       5.50160605       7.94561193      28.71447619
Li       7.94561193       9.16242919      25.05365305
Li       9.16242919       5.50160605      32.38567067
Li       6.71842332       6.71842332      31.15848206
Li       5.50160605       7.94561193      33.60248794
Li       7.94561193       9.16242919      29.94166479
Li       9.16242919       5.50160605      37.27368242
Li       6.71842332       6.71842332      36.04649381
Li       5.50160605       7.94561193      38.49049968
Li       7.94561193       9.16242919      34.82967654
Li       9.16242919       5.50160605      42.16169417
Li       6.71842332       6.71842332      40.93450556
Li       5.50160605       7.94561193      43.37851143
Li       7.94561193       9.16242919      39.71768829
Li       9.16242919       5.50160605      47.04970591
Li       6.71842332       6.71842332      45.82251731
Li       5.50160605       7.94561193      48.26652318
Li       7.94561193       9.16242919      44.60570004
Li       9.16242919      10.38961780       3.05760018
Li       6.71842332      11.60643507       1.83041157
Li       5.50160605      12.83362367       4.27441744
Li       7.94561193      14.05044094       0.61359430
Li       9.16242919      10.38961780       7.94561193
Li       6.71842332      11.60643507       6.71842332
Li       5.50160605      12.83362367       9.16242919
Li       7.94561193      14.05044094       5.50160605
Li       9.16242919      10.38961780      12.83362367
Li       6.71842332      11.60643507      11.60643507
Li       5.50160605      12.83362367      14.05044094
Li       7.94561193      14.05044094      10.38961780
Li       9.16242919      10.38961780      17.72163542
Li       6.71842332      11.60643507      16.49444682
Li       5.50160605      12.83362367      18.93845269
Li       7.94561193      14.05044094      15.27762955
Li       9.16242919      10.38961780      22.60964717
Li       6.71842332      11.60643507      21.38245856
Li       5.50160605      12.83362367      23.82646444
Li       7.94561193      14.05044094      20.16564130
Li       9.16242919      10.38961780      27.49765892
Li       6.71842332      11.60643507      26.27047031
Li       5.50160605      12.83362367      28.71447619
Li       7.94561193      14.05044094      25.05365305
Li       9.16242919      10.38961780      32.38567067
Li       6.71842332      11.60643507      31.15848206
Li       5.50160605      12.83362367      33.60248794
Li       7.94561193      14.05044094      29.94166479
Li       9.16242919      10.38961780      37.27368242
Li       6.71842332      11.60643507      36.04649381
Li       5.50160605      12.83362367      38.49049968
Li       7.94561193      14.05044094      34.82967654
Li       9.16242919      10.38961780      42.16169417
Li       6.71842332      11.60643507      40.93450556
Li       5.50160605      12.83362367      43.37851143
Li       7.94561193      14.05044094      39.71768829
Li       9.16242919      10.38961780      47.04970591
Li       6.71842332      11.60643507      45.82251731
Li       5.50160605      12.83362367      48.26652318
Li       7.94561193      14.05044094      44.60570004
Li       9.16242919      15.27762955       3.05760018
Li       6.71842332      16.49444682       1.83041157
Li       5.50160605      17.72163542       4.27441744
Li       7.94561193      18.93845269       0.61359430
Li       9.16242919      15.27762955       7.94561193
Li       6.71842332      16.49444682       6.71842332
Li       5.50160605      17.72163542       9.16242919
Li       7.94561193      18.93845269       5.50160605
Li       9.16242919      15.27762955      12.83362367
Li       6.71842332      16.49444682      11.60643507
Li       5.50160605      17.72163542      14.05044094
Li       7.94561193      18.93845269      10.38961780
Li       9.16242919      15.27762955      17.72163542
Li       6.71842332      16.49444682      16.49444682
Li       5.50160605      17.72163542      18.93845269
Li       7.94561193      18.93845269      15.27762955
Li       9.16242919      15.27762955      22.60964717
Li       6.71842332      16.49444682      21.38245856
Li       5.50160605      17.72163542      23.82646444
Li       7.94561193      18.93845269      20.16564130
Li       9.16242919      15.27762955      27.49765892
Li       6.71842332      16.49444682      26.27047031
Li       5.50160605      17.72163542      28.71447619
Li       7.94561193      18.93845269      25.05365305
Li       9.16242919      15.27762955      32.38567067
Li       6.71842332      16.49444682      31.15848206
Li       5.50160605      17.72163542      33.60248794
Li       7.94561193      18.93845269      29.94166479
Li       9.16242919      15.27762955      37.27368242
Li       6.71842332      16.49444682      36.04649381
Li       5.50160605      17.72163542      38.49049968
Li       7.94561193      18.93845269      34.82967654
Li       9.16242919      15.27762955      42.16169417
Li       6.71842332      16.49444682      40.93450556
Li       5.50160605      17.72163542      43.37851143
Li       7.94561193      18.93845269      39.71768829
Li       9.16242919      15.27762955      47.04970591
Li       6.71842332      16.49444682      45.82251731
Li       5.50160605      17.72163542      48.26652318
Li       7.94561193      18.93845269      44.60570004
Li       9.16242919      20.16564130       3.05760018
Li       6.71842332      21.38245856       1.83041157
Li       5.50160605      22.60964717       4.27441744
Li       7.94561193      23.82646444       0.61359430
Li       9.16242919      20.16564130       7.94561193
Li       6.71842332      21.38245856       6.71842332
Li       5.50160605      22.60964717       9.16242919
Li       7.94561193      23.82646444       5.50160605
Li       9.16242919      20.16564130      12.83362367
Li       6.71842332      21.38245856      11.60643507
Li       5.50160605      22.60964717      14.05044094
Li       7.94561193      23.82646444      10.38961780
Li       9.16242919      20.16564130      17.72163542
Li       6.71842332      21.38245856      16.49444682
Li       5.50160605      22.60964717      18.93845269
Li       7.94561193      23.82646444      15.27762955
Li       9.16242919      20.16564130      22.60964717
Li       6.71842332      21.38245856      21.38245856
Li       5.50160605      22.60964717      23.82646444
Li       7.94561193      23.82646444      20.16564130
Li       9.16242919      20.16564130      27.49765892
Li       6.71842332      21.38245856      26.27047031
Li       5.50160605      22.60964717      28.71447619
Li       7.94561193      23.82646444      25.05365305
Li       9.16242919      20.16564130      32.38567067
Li       6.71842332      21.38245856      31.15848206
Li       5.50160605      22.60964717      33.60248794
Li       7.94561193      23.82646444      29.94166479
Li       9.16242919      20.16564130      37.27368242
Li       6.71842332      21.38245856      36.04649381
Li       5.50160605      22.60964717      38.49049968
Li       7.94561193      23.82646444      34.82967654
Li       9.16242919      20.16564130      42.16169417
Li       6.71842332      21.38245856      40.93450556
Li       5.50160605      22.60964717      43.37851143
Li       7.94561193      23.82646444      39.71768829
Li       9.16242919      20.16564130      47.04970591
Li       6.71842332      21.38245856      45.82251731
Li       5.50160605      22.60964717      48.26652318
Li       7.94561193      23.82646444      44.60570004
Li       9.16242919      25.05365305       3.05760018
Li       6.71842332      26.27047031       1.83041157
Li       5.50160605      27.49765892       4.27441744
Li       7.94561193      28.71447619       0.61359430
Li       9.16242919      25.05365305       7.94561193
Li       6.71842332      26.27047031       6.71842332
Li       5.50160605      27.49765892       9.16242919
Li       7.94561193      28.71447619       5.50160605
Li       9.16242919      25.05365305      12.83362367
Li       6.71842332      26.27047031      11.60643507
Li       5.50160605      27.49765892      14.05044094
Li       7.94561193      28.71447619      10.38961780
Li       9.16242919      25.05365305      17.72163542
Li       6.71842332      26.27047031      16.49444682
Li       5.50160605      27.49765892      18.93845269
Li       7.94561193      28.71447619      15.27762955
Li       9.16242919      25.05365305      22.60964717
Li       6.71842332      26.27047031      21.38245856
Li       5.50160605      27.49765892      23.82646444
Li       7.94561193      28.71447619      20.16564130
Li       9.16242919      25.05365305      27.49765892
Li       6.71842332      26.27047031      26.27047031
Li       5.50160605      27.49765892      28.71447619
Li       7.94561193      28.71447619      25.05365305
Li       9.16242919      25.05365305      32.38567067
Li       6.71842332      26.27047031      31.15848206
Li       5.50160605      27.49765892      33.60248794
Li       7.94561193      28.71447619      29.94166479
Li       9.16242919      25.05365305      37.27368242
Li       6.71842332      26.27047031      36.04649381
Li       5.50160605      27.49765892      38.49049968
Li       7.94561193      28.71447619      34.82967654
Li       9.16242919      25.05365305      42.16169417
Li       6.71842332      26.27047031      40.93450556
Li       5.50160605      27.49765892      43.37851143
Li       7.94561193      28.71447619      39.71768829
Li       9.16242919      25.05365305      47.04970591
Li       6.71842332      26.27047031      45.82251731
Li       5.50160605      27.49765892      48.26652318
Li       7.94561193      28.71447619      44.60570004
Li       9.16242919      29.94166479       3.05760018
Li       6.71842332      31.15848206       1.83041157
Li       5.50160605      32.38567067       4.27441744
Li       7.94561193      33.60248794       0.61359430
Li       9.16242919      29.94166479       7.94561193
Li       6.71842332      31.15848206       6.71842332
Li       5.50160605      32.38567067       9.16242919
Li       7.94561193      33.60248794       5.50160605
Li       9.16242919      29.94166479      12.83362367
Li       6.71842332      31.15848206      11.60643507
Li       5.50160605      32.38567067      14.05044094
Li       7.94561193      33.60248794      10.38961780
Li       9.16242919      29.94166479      17.72163542
Li       6.71842332      31.15848206      16.49444682
Li       5.50160605      32.38567067      18.93845269
Li       7.94561193      33.60248794      15.27762955
Li       9.16242919      29.94166479      22.60964717
Li       6.71842332      31.15848206      21.38245856
Li       5.50160605      32.38567067      23.82646444
Li       7.94561193      33.60248794      20.16564130
Li       9.16242919      29.94166479      27.49765892
Li       6.71842332      31.15848206      26.27047031
Li       5.50160605      32.38567067      28.71447619
Li       7.94561193      33.60248794      25.05365305
Li       9.16242919      29.94166479      32.38567067
Li       6.71842332      31.15848206      31.15848206
Li       5.50160605      32.38567067      33.60248794
Li       7.94561193      33.60248794      29.94166479
Li       9.16242919      29.94166479      37.27368242
Li       6.71842332      31.15848206      36.04649381
Li       5.50160605      32.38567067      38.49049968
Li       7.94561193      33.60248794      34.82967654
Li       9.16242919      29.94166479      42.16169417
Li       6.71842332      31.15848206      40.93450556
Li       5.50160605      32.38567067      43.37851143
Li       7.94561193      33.60248794      39.71768829
Li       9.16242919      29.94166479      47.04970591
Li       6.71842332      31.15848206      45.82251731
Li       5.50160605      32.38567067      48.26652318
Li       7.94561193      33.60248794      44.60570004
Li       9.16242919      34.82967654       3.05760018
Li       6.71842332      36.04649381       1.83041157
Li       5.50160605      37.27368242       4.27441744
Li       7.94561193      38.49049968       0.61359430
Li       9.16242919      34.82967654       7.94561193
Li       6.71842332      36.04649381       6.71842332
Li       5.50160605      37.27368242       9.16242919
Li       7.94561193      38.49049968       5.50160605
Li       9.16242919      34.82967654      12.83362367
Li       6.71842332      36.04649381      11.60643507
Li       5.50160605      37.27368242      14.05044094
Li       7.94561193      38.49049968      10.38961780
Li       9.16242919      34.82967654      17.72163542
Li       6.71842332      36.04649381      16.49444682
Li       5.50160605      37.27368242      18.93845269
Li       7.94561193      38.49049968      15.27762955
Li       9.16242919      34.82967654      22.60964717
Li       6.71842332      36.04649381      21.38245856
Li       5.50160605      37.27368242      23.82646444
Li       7.94561193      38.49049968      20.16564130
Li       9.16242919      34.82967654      27.49765892
Li       6.71842332      36.04649381      26.27047031
Li       5.50160605      37.27368242      28.71447619
Li       7.94561193      38.49049968      25.05365305
Li       9.16242919      34.82967654      32.38567067
Li       6.71842332      36.04649381      31.15848206
Li       5.50160605      37.27368242      33.60248794
Li       7.94561193      38.49049968      29.94166479
Li       9.16242919      34.82967654      37.27368242
Li       6.71842332      36.04649381      36.04649381
Li       5.50160605      37.27368242      38.49049968
Li       7.94561193      38.49049968      34.82967654
Li       9.16242919      34.82967654      42.16169417
Li       6.71842332      36.04649381      40.93450556
Li       5.50160605      37.27368242      43.37851143
Li       7.94561193      38.49049968      39.71768829
Li       9.16242919      34.82967654      47.04970591
Li       6.71842332      36.04649381      45.82251731
Li       5.50160605      37.27368242      48.26652318
Li       7.94561193      38.49049968      44.60570004
Li       9.16242919      39.71768829       3.05760018
Li       6.71842332      40.93450556       1.83041157
Li       5.50160605      42.16169417       4.27441744
Li       7.94561193      43.37851143       0.61359430
Li       9.16242919      39.71768829       7.94561193
Li       6.71842332      40.93450556       6.71842332
Li       5.50160605      42.16169417       9.16242919
Li       7.94561193      43.37851143       5.50160605
Li       9.16242919      39.71768829      12.83362367
Li       6.71842332      40.93450556      11.60643507
Li       5.50160605      42.16169417      14.05044094
Li       7.94561193      43.37851143      10.38961780
Li       9.16242919      39.71768829      17.72163542
Li       6.71842332      40.93450556      16.49444682
Li       5.50160605      42.16169417      18.93845269
Li       7.94561193      43.37851143      15.27762955
Li       9.16242919      39.71768829      22.60964717
Li       6.71842332      40.93450556      21.38245856
Li       5.50160605      42.16169417      23.82646444
Li       7.94561193      43.37851143      20.16564130
Li       9.16242919      39.71768829      27.49765892
Li       6.71842332      40.93450556      26.27047031
Li       5.50160605      42.16169417      28.71447619
Li       7.94561193      43.37851143      25.05365305
Li       9.16242919      39.71768829      32.38567067
Li       6.71842332      40.93450556      31.15848206
Li       5.50160605      42.16169417      33.60248794
Li       7.94561193      43.37851143      29.94166479
Li       9.16242919      39.71768829      37.27368242
Li       6.71842332      40.93450556      36.04649381
Li       5.50160605      42.16169417      38.49049968
Li       7.94561193      43.37851143      34.82967654
Li       9.16242919      39.71768829      42.16169417
Li       6.71842332      40.93450556      40.93450556
Li       5.50160605      42.16169417      43.37851143
Li       7.94561193      43.37851143      39.71768829
Li       9.16242919      39.71768829      47.04970591
Li       6.71842332      40.93450556      45.82251731
Li       5.50160605      42.16169417      48.26652318
Li       7.94561193      43.37851143      44.60570004
Li       9.16242919      44.60570004       3.05760018
Li       6.71842332      45.82251731       1.83041157
Li       5.50160605      47.04970591       4.27441744
Li       7.94561193      48.26652318       0.61359430
Li       9.16242919      44.60570004       7.94561193
Li       6.71842332      45.82251731       6.71842332
Li       5.50160605      47.04970591       9.16242919
Li       7.94561193      48.26652318       5.50160605
Li       9.16242919      44.60570004      12.83362367
Li       6.71842332      45.82251731      11.60643507
Li       5.50160605      47.04970591      14.05044094
Li       7.94561193      48.26652318      10.38961780
Li       9.16242919      44.60570004      17.72163542
Li       6.71842332      45.82251731      16.49444682
Li       5.50160605      47.04970591      18.93845269
Li       7.94561193      48.26652318      15.27762955
Li       9.16242919      44.60570004      22.60964717
Li       6.71842332      45.82251731      21.38245856
Li       5.50160605      47.04970591      23.82646444
Li       7.94561193      48.26652318      20.16564130
Li       9.16242919      44.60570004      27.49765892
Li       6.71842332      45.82251731      26.27047031
Li       5.50160605      47.04970591      28.71447619
Li       7.94561193      48.26652318      25.05365305
Li       9.16242919      44.60570004      32.38567067
Li       6.71842332      45.82251731      31.15848206
Li       5.50160605      47.04970591      33.60248794
Li       7.94561193      48.26652318      29.94166479
Li       9.16242919      44.60570004      37.27368242
Li       6.71842332      45.82251731      36.04649381
Li       5.50160605      47.04970591      38.49049968
Li       7.94561193      48.26652318      34.82967654
Li       9.16242919      44.60570004      42.16169417
Li       6.71842332      45.82251731      40.93450556
Li       5.50160605      47.04970591      43.37851143
Li       7.94561193      48.26652318      39.71768829
Li       9.16242919      44.60570004      47.04970591
Li       6.71842332      45.82251731      45.82251731
Li       5.50160605      47.04970591      48.26652318
Li       7.94561193      48.26652318      44.60570004
Li      14.05044094       0.61359430       3.05760018
Li      11.60643507       1.83041157       1.83041157
Li      10.38961780       3.05760018       4.27441744
Li      12.83362367       4.27441744       0.61359430
Li      14.05044094       0.61359430       7.94561193
Li      11.60643507       1.83041157       6.71842332
Li      10.38961780       3.05760018       9.16242919
Li      12.83362367       4.27441744       5.50160605
Li      14.05044094       0.61359430      12.83362367
Li      11.60643507       1.83041157      11.60643507
Li      10.38961780       3.05760018      14.05044094
Li      12.83362367       4.27441744      10.38961780
Li      14.05044094       0.61359430      17.72163542
Li      11.60643507       1.83041157      16.49444682
Li      10.38961780       3.05760018      18.93845269
Li      12.83362367       4.27441744      15.27762955
Li      14.05044094       0.61359430      22.60964717
Li      11.60643507       1.83041157      21.38245856
Li      10.38961780       3.05760018      23.82646444
Li      12.83362367       4.27441744      20.16564130
Li      14.05044094       0.61359430      27.49765892
Li      11.60643507       1.83041157      26.27047031
Li      10.38961780       3.05760018      28.71447619
Li      12.83362367       4.27441744      25.05365305
Li      14.05044094       0.61359430      32.38567067
Li      11.60643507       1.83041157      31.15848206
Li      10.38961780       3.05760018      33.60248794
Li      12.83362367       4.27441744      29.94166479
Li      14.05044094       0.61359430      37.27368242
Li      11.60643507       1.83041157      36.04649381
Li      10.38961780       3.05760018      38.49049968
Li      12.83362367       4.27441744      34.82967654
Li      14.05044094       0.61359430      42.16169417
Li      11.60643507       1.83041157      40.93450556
Li      10.38961780       3.05760018      43.37851143
Li      12.83362367       4.27441744      39.71768829
Li      14.05044094       0.61359430      47.04970591
Li      11.60643507       1.83041157      45.82251731
Li      10.38961780       3.05760018      48.26652318
Li      12.83362367       4.27441744      44.60570004
Li      14.05044094       5.50160605       3.05760018
Li      11.60643507       6.71842332       1.83041157
Li      10.38961780       7.94561193       4.27441744
Li      12.83362367       9.16242919       0.61359430
Li      14.05044094       5.50160605       7.94561193
Li      11.60643507       6.71842332       6.71842332
Li      10.38961780       7.94561193       9.16242919
Li      12.83362367       9.16242919       5.50160605
Li      14.05044094       5.50160605      12.83362367
Li      11.60643507       6.71842332      11.60643507
Li      10.38961780       7.94561193      14.05044094
Li      12.83362367       9.16242919      10.38961780
Li      14.05044094       5.50160605      17.72163542
Li      11.60643507       6.71842332      16.49444682
Li      10.38961780       7.94561193      18.93845269
Li      12.83362367       9.16242919      15.27762955
Li      14.05044094       5.50160605      22.60964717
Li      11.60643507       6.71842332      21.38245856
Li      10.38961780       7.94561193      23.82646444
Li      12.83362367       9.16242919      20.16564130
Li      14.05044094       5.50160605      27.49765892
Li      11.60643507       6.71842332      26.27047031
Li      10.38961780       7.94561193      28.71447619
Li      12.83362367       9.16242919      25.05365305
Li      14.05044094       5.50160605      32.38567067
Li      11.60643507       6.71842332      31.15848206
Li      10.38961780       7.94561193      33.60248794
Li      12.83362367       9.16242919      29.94166479
Li      14.05044094       5.50160605      37.27368242
Li      11.60643507       6.71842332      36.04649381
Li      10.38961780       7.94561193      38.49049968
Li      12.83362367       9.16242919      34.82967654
Li      14.05044094       5.50160605      42.16169417
Li      11.60643507       6.71842332      40.93450556
Li      10.38961780       7.94561193      43.37851143
Li      12.83362367       9.16242919      39.71768829
Li      14.05044094       5.50160605      47.04970591
Li      11.60643507       6.71842332      45.82251731
Li      10.38961780       7.94561193      48.26652318
Li      12.83362367       9.16242919      44.60570004
Li      14.05044094      10.38961780       3.05760018
Li      11.60643507      11.60643507       1.83041157
Li      10.38961780      12.83362367       4.27441744
Li      12.83362367      14.05044094       0.61359430
Li      14.05044094      10.38961780       7.94561193
Li      11.60643507      11.60643507       6.71842332
Li      10.38961780      12.83362367       9.16242919
Li      12.83362367      14.05044094       5.50160605
Li      14.05044094      10.38961780      12.83362367
Li      11.60643507      11.60643507      11.60643507
Li      10.38961780      12.83362367      14.05044094
Li      12.83362367      14.05044094      10.38961780
Li      14.05044094      10.38961780      17.72163542
Li      11.60643507      11.60643507      16.49444682
Li      10.38961780      12.83362367      18.93845269
Li      12.83362367      14.05044094      15.27762955
Li      14.05044094      10.38961780      22.60964717
Li      11.60643507      11.60643507      21.38245856
Li      10.38961780      12.83362367      23.82646444
Li      12.83362367      14.05044094      20.16564130
Li      14.05044094      10.38961780      27.49765892
Li      11.60643507      11.60643507      26.27047031
Li      10.38961780      12.83362367      28.71447619
Li      12.83362367      14.05044094      25.05365305
Li      14.05044094      10.38961780      32.38567067
Li      11.60643507      11.60643507      31.15848206
Li      10.38961780      12.83362367      33.60248794
Li      12.83362367      14.05044094      29.94166479
Li      14.05044094      10.38961780      37.27368242
Li      11.60643507      11.60643507      36.04649381
Li      10.38961780      12.83362367      38.49049968
Li      12.83362367      14.05044094      34.82967654
Li      14.05044094      10.38961780      42.16169417
Li      11.60643507      11.60643507      40.93450556
Li      10.38961780      12.83362367      43.37851143
Li      12.83362367      14.05044094      39.71768829
Li      14.05044094      10.38961780      47.04970591
Li      11.60643507      11.60643507      45.82251731
Li      10.38961780      12.83362367      48.26652318
Li      12.83362367      14.05044094      44.60570004
Li      14.05044094      15.27762955       3.05760018
Li      11.60643507      16.49444682       1.83041157
Li      10.38961780      17.72163542       4.27441744
Li      12.83362367      18.93845269       0.61359430
Li      14.05044094      15.27762955       7.94561193
Li      11.60643507      16.49444682       6.71842332
Li      10.38961780      17.72163542       9.16242919
Li      12.83362367      18.93845269       5.50160605
Li      14.05044094      15.27762955      12.83362367
Li      11.60643507      16.49444682      11.60643507
Li      10.38961780      17.72163542      14.05044094
Li      12.83362367      18.93845269      10.38961780
Li      14.05044094      15.27762955      17.72163542
Li      11.60643507      16.49444682      16.49444682
Li      10.38961780      17.72163542      18.93845269
Li      12.83362367      18.93845269      15.27762955
Li      14.05044094      15.27762955      22.60964717
Li      11.60643507      16.49444682      21.38245856
Li      10.38961780      17.72163542      23.82646444
Li      12.83362367      18.93845269      20.16564130
Li      14.05044094      15.27762955      27.49765892
Li      11.60643507      16.49444682      26.27047031
Li      10.38961780      17.72163542      28.71447619
Li      12.83362367      18.93845269      25.05365305
Li      14.05044094      15.27762955      32.38567067
Li      11.60643507      16.49444682      31.15848206
Li      10.38961780      17.72163542      33.60248794
Li      12.83362367      18.93845269      29.94166479
Li      14.05044094      15.27762955      37.27368242
Li      11.60643507      16.49444682      36.04649381
Li      10.38961780      17.72163542      38.49049968
Li      12.83362367      18.93845269      34.82967654
Li      14.05044094      15.27762955      42.16169417
Li      11.60643507      16.49444682      40.93450556
Li      10.38961780      17.72163542      43.37851143
Li      12.83362367      18.93845269      39.71768829
Li      14.05044094      15.27762955      47.04970591
Li      11.60643507      16.49444682      45.82251731
Li      10.38961780      17.72163542      48.26652318
Li      12.83362367      18.93845269      44.60570004
Li      14.05044094      20.16564130       3.05760018
Li      11.60643507      21.38245856       1.83041157
Li      10.38961780      22.60964717       4.27441744
Li      12.83362367      23.82646444       0.61359430
Li      14.05044094      20.16564130       7.94561193
Li      11.60643507      21.38245856       6.71842332
Li      10.38961780      22.60964717       9.16242919
Li      12.83362367      23.82646444       5.50160605
Li      14.05044094      20.16564130      12.83362367
Li      11.60643507      21.38245856      11.60643507
Li      10.38961780      22.60964717      14.05044094
Li      12.83362367      23.82646444      10.38961780
Li      14.05044094      20.16564130      17.72163542
Li      11.60643507      21.38245856      16.49444682
Li      10.38961780      22.60964717      18.93845269
Li      12.83362367      23.82646444      15.27762955
Li      14.05044094      20.16564130      22.60964717
Li      11.60643507      21.38245856      21.38245856
Li      10.38961780      22.60964717      23.82646444
Li      12.83362367      23.82646444      20.16564130
Li      14.05044094      20.16564130      27.49765892
Li      11.60643507      21.38245856      26.27047031
Li      10.38961780      22.60964717      28.71447619
Li      12.83362367      23.82646444      25.05365305
Li      14.05044094      20.16564130      32.38567067
Li      11.60643507      21.38245856      31.15848206
Li      10.38961780      22.60964717      33.60248794
Li      12.83362367      23.82646444      29.94166479
Li      14.05044094      20.16564130      37.27368242
Li      11.60643507      21.38245856      36.04649381
Li      10.38961780      22.60964717      38.49049968
Li      12.83362367      23.82646444      34.82967654
Li      14.05044094      20.16564130      42.16169417
Li      11.60643507      21.38245856      40.93450556
Li      10.38961780      22.60964717      43.37851143
Li      12.83362367      23.82646444      39.71768829
Li      14.05044094      20.16564130      47.04970591
Li      11.60643507      21.38245856      45.82251731
Li      10.38961780      22.60964717      48.26652318
Li      12.83362367      23.82646444      44.60570004
Li      14.05044094      25.05365305       3.05760018
Li      11.60643507      26.27047031       1.83041157
Li      10.38961780      27.49765892       4.27441744
Li      12.83362367      28.71447619       0.61359430
Li      14.05044094      25.05365305       7.94561193
Li      11.60643507      26.27047031       6.71842332
Li      10.38961780      27.49765892       9.16242919
Li      12.83362367      28.71447619       5.50160605
Li      14.05044094      25.05365305      12.83362367
Li      11.60643507      26.27047031      11.60643507
Li      10.38961780      27.49765892      14.05044094
Li      12.83362367      28.71447619      10.38961780
Li      14.05044094      25.05365305      17.72163542
Li      11.60643507      26.27047031      16.49444682
Li      10.38961780      27.49765892      18.93845269
Li      12.83362367      28.71447619      15.27762955
Li      14.05044094      25.05365305      22.60964717
Li      11.60643507      26.27047031      21.38245856
Li      10.38961780      27.49765892      23.82646444
Li      12.83362367      28.71447619      20.16564130
Li      14.05044094      25.05365305      27.49765892
Li      11.60643507      26.27047031      26.27047031
Li      10.38961780      27.49765892      28.71447619
Li      12.83362367      28.71447619      25.05365305
Li      14.05044094      25.05365305      32.38567067
Li      11.60643507      26.27047031      31.15848206
Li      10.38961780      27.49765892      33.60248794
Li      12.83362367      28.71447619      29.94166479
Li      14.05044094      25.05365305      37.27368242
Li      11.60643507      26.27047031      36.04649381
Li      10.38961780      27.49765892      38.49049968
Li      12.83362367      28.71447619      34.82967654
Li      14.05044094      25.05365305      42.16169417
Li      11.60643507      26.27047031      40.93450556
Li      10.38961780      27.49765892      43.37851143
Li      12.83362367      28.71447619      39.71768829
Li      14.05044094      25.05365305      47.04970591
Li      11.60643507      26.27047031      45.82251731
Li      10.38961780      27.49765892      48.26652318
Li      12.83362367      28.71447619      44.60570004
Li      14.05044094      29.94166479       3.05760018
Li      11.60643507      31.15848206       1.83041157
Li      10.38961780      32.38567067       4.27441744
Li      12.83362367      33.60248794       0.61359430
Li      14.05044094      29.94166479       7.94561193
Li      11.60643507      31.15848206       6.71842332
Li      10.38961780      32.38567067       9.16242919
Li      12.83362367      33.60248794       5.50160605
Li      14.05044094      29.94166479      12.83362367
Li      11.60643507      31.15848206      11.60643507
Li      10.38961780      32.38567067      14.05044094
Li      12.83362367      33.60248794      10.38961780
Li      14.05044094      29.94166479      17.72163542
Li      11.60643507      31.15848206      16.49444682
Li      10.38961780      32.38567067      18.93845269
Li      12.83362367      33.60248794      15.27762955
Li      14.05044094      29.94166479      22.60964717
Li      11.60643507      31.15848206      21.38245856
Li      10.38961780      32.38567067      23.82646444
Li      12.83362367      33.60248794      20.16564130
Li      14.05044094      29.94166479      27.49765892
Li      11.60643507      31.15848206      26.27047031
Li      10.38961780      32.38567067      28.71447619
Li      12.83362367      33.60248794      25.05365305
Li      14.05044094      29.94166479      32.38567067
Li      11.60643507      31.15848206      31.15848206
Li      10.38961780      32.38567067      33.60248794
Li      12.83362367      33.60248794      29.94166479
Li      14.05044094      29.94166479      37.27368242
Li      11.60643507      31.15848206      36.04649381
Li      10.38961780      32.38567067      38.49049968
Li      12.83362367      33.60248794      34.82967654
Li      14.05044094      29.94166479      42.16169417
Li      11.60643507      31.15848206      40.93450556
Li      10.38961780      32.38567067      43.37851143
Li      12.83362367      33.60248794      39.71768829
Li      14.05044094      29.94166479      47.04970591
Li      11.60643507      31.15848206      45.82251731
Li      10.38961780      32.38567067      48.26652318
Li      12.83362367      33.60248794      44.60570004
Li      14.05044094      34.82967654       3.05760018
Li      11.60643507      36.04649381       1.83041157
Li      10.38961780      37.27368242       4.27441744
Li      12.83362367      38.49049968       0.61359430
Li      14.05044094      34.82967654       7.94561193
Li      11.60643507      36.04649381       6.71842332
Li      10.38961780      37.27368242       9.16242919
Li      12.83362367      38.49049968       5.50160605
Li      14.05044094      34.82967654      12.83362367
Li      11.60643507      36.04649381      11.60643507
Li      10.38961780      37.27368242      14.05044094
Li      12.83362367      38.49049968      10.38961780
Li      14.05044094      34.82967654      17.72163542
Li      11.60643507      36.04649381      16.49444682
Li      10.38961780      37.27368242      18.93845269
Li      12.83362367      38.49049968      15.27762955
Li      14.05044094      34.82967654      22.60964717
Li      11.60643507      36.04649381      21.38245856
Li      10.38961780      37.27368242      23.82646444
Li      12.83362367      38.49049968      20.16564130
Li      14.05044094      34.82967654      27.49765892
Li      11.60643507      36.04649381      26.27047031
Li      10.38961780      37.27368242      28.71447619
Li      12.83362367      38.49049968      25.05365305
Li      14.05044094      34.82967654      32.38567067
Li      11.60643507      36.04649381      31.15848206
Li      10.38961780      37.27368242      33.60248794
Li      12.83362367      38.49049968      29.94166479
Li      14.05044094      34.82967654      37.27368242
Li      11.60643507      36.04649381      36.04649381
Li      10.38961780      37.27368242      38.49049968
Li      12.83362367      38.49049968      34.82967654
Li      14.05044094      34.82967654      42.16169417
Li      11.60643507      36.04649381      40.93450556
Li      10.38961780      37.27368242      43.37851143
Li      12.83362367      38.49049968      39.71768829
Li      14.05044094      34.82967654      47.04970591
Li      11.60643507      36.04649381      45.82251731
Li      10.38961780      37.27368242      48.26652318
Li      12.83362367      38.49049968      44.60570004
Li      14.05044094      39.71768829       3.05760018
Li      11.60643507      40.93450556       1.83041157
Li      10.38961780      42.16169417       4.27441744
Li      12.83362367      43.37851143       0.61359430
Li      14.05044094      39.71768829       7.94561193
Li      11.60643507      40.93450556       6.71842332
Li      10.38961780      42.16169417       9.16242919
Li      12.83362367      43.37851143       5.50160605
Li      14.05044094      39.71768829      12.83362367
Li      11.60643507      40.93450556      11.60643507
Li      10.38961780      42.16169417      14.05044094
Li      12.83362367      43.37851143      10.38961780
Li      14.05044094      39.71768829      17.72163542
Li      11.60643507      40.93450556      16.49444682
Li      10.38961780      42.16169417      18.93845269
Li      12.83362367      43.37851143      15.27762955
Li      14.05044094      39.71768829      22.60964717
Li      11.60643507      40.93450556      21.38245856
Li      10.38961780      42.16169417      23.82646444
Li      12.83362367      43.37851143      20.16564130
Li      14.05044094      39.71768829      27.49765892
Li      11.60643507      40.93450556      26.27047031
Li      10.38961780      42.16169417      28.71447619
Li      12.83362367      43.37851143      25.05365305
Li      14.05044094      39.71768829      32.38567067
Li      11.60643507      40.93450556      31.15848206
Li      10.38961780      42.16169417      33.60248794
Li      12.83362367      43.37851143      29.94166479
Li      14.05044094      39.71768829      37.27368242
Li      11.60643507      40.93450556      36.04649381
Li      10.38961780      42.16169417      38.49049968
Li      12.83362367      43.37851143      34.82967654
Li      14.05044094      39.71768829      42.16169417
Li      11.60643507      40.93450556      40.93450556
Li      10.38961780      42.16169417      43.37851143
Li      12.83362367      43.37851143      39.71768829
Li      14.05044094      39.71768829      47.04970591
Li      11.60643507      40.93450556      45.82251731
Li      10.38961780      42.16169417      48.26652318
Li      12.83362367      43.37851143      44.60570004
Li      14.05044094      44.60570004       3.05760018
Li      11.60643507      45.82251731       1.83041157
Li      10.38961780      47.04970591       4.27441744
Li      12.83362367      48.26652318       0.61359430
Li      14.05044094      44.60570004       7.94561193
Li      11.60643507      45.82251731       6.71842332
Li      10.38961780      47.04970591       9.16242919
Li      12.83362367      48.26652318       5.50160605
Li      14.05044094      44.60570004      12.83362367
Li      11.60643507      45.82251731      11.60643507
Li      10.38961780      47.04970591      14.05044094
Li      12.83362367      48.26652318      10.38961780
Li      14.05044094      44.60570004      17.72163542
Li      11.60643507      45.82251731      16.49444682
Li      10.38961780      47.04970591      18.93845269
Li      12.83362367      48.26652318      15.27762955
Li      14.05044094      44.60570004      22.60964717
Li      11.60643507      45.82251731      21.38245856
Li      10.38961780      47.04970591      23.82646444
Li      12.83362367      48.26652318      20.16564130
Li      14.05044094      44.60570004      27.49765892
Li      11.60643507      45.82251731      26.27047031
Li      10.38961780      47.04970591      28.71447619
Li      12.83362367      48.26652318      25.05365305
Li      14.05044094      44.60570004      32.38567067
Li      11.60643507      45.82251731      31.15848206
Li      10.38961780      47.04970591      33.60248794
Li      12.83362367      48.26652318      29.94166479
Li      14.05044094      44.60570004      37.27368242
Li      11.60643507      45.82251731      36.04649381
Li      10.38961780      47.04970591      38.49049968
Li      12.83362367      48.26652318      34.82967654
Li      14.05044094      44.60570004      42.16169417
Li      11.60643507      45.82251731      40.93450556
Li      10.38961780      47.04970591      43.37851143
Li      12.83362367      48.26652318      39.71768829
Li      14.05044094      44.60570004      47.04970591
Li      11.60643507      45.82251731      45.82251731
Li      10.38961780      47.04970591      48.26652318
Li      12.83362367      48.26652318      44.60570004
Li      18.93845269       0.61359430       3.05760018
Li      16.49444682       1.83041157       1.83041157
Li      15.27762955       3.05760018       4.27441744
Li      17.72163542       4.27441744       0.61359430
Li      18.93845269       0.61359430       7.94561193
Li      16.49444682       1.83041157       6.71842332
Li      15.27762955       3.05760018       9.16242919
Li      17.72163542       4.27441744       5.50160605
Li      18.93845269       0.61359430      12.83362367
Li      16.49444682       1.83041157      11.60643507
Li      15.27762955       3.05760018      14.05044094
Li      17.72163542       4.27441744      10.38961780
Li      18.93845269       0.61359430      17.72163542
Li      16.49444682       1.83041157      16.49444682
Li      15.27762955       3.05760018      18.93845269
Li      17.72163542       4.27441744      15.27762955
Li      18.93845269       0.61359430      22.60964717
Li      16.49444682       1.83041157      21.38245856
Li      15.27762955       3.05760018      23.82646444
Li      17.72163542       4.27441744      20.16564130
Li      18.93845269       0.61359430      27.49765892
Li      16.49444682       1.83041157      26.27047031
Li      15.27762955       3.05760018      28.71447619
Li      17.72163542       4.27441744      25.05365305
Li      18.93845269       0.61359430      32.38567067
Li      16.49444682       1.83041157      31.15848206
Li      15.27762955       3.05760018      33.60248794
Li      17.72163542       4.27441744      29.94166479
Li      18.93845269       0.61359430      37.27368242
Li      16.49444682       1.83041157      36.04649381
Li      15.27762955       3.05760018      38.49049968
Li      17.72163542       4.27441744      34.82967654
Li      18.93845269       0.61359430      42.16169417
Li      16.49444682       1.83041157      40.93450556
Li      15.27762955       3.05760018      43.37851143
Li      17.72163542       4.27441744      39.71768829
Li      18.93845269       0.61359430      47.04970591
Li      16.49444682       1.83041157      45.82251731
Li      15.27762955       3.05760018      48.26652318
Li      17.72163542       4.27441744      44.60570004
Li      18.93845269       5.50160605       3.05760018
Li      16.49444682       6.71842332       1.83041157
Li      15.27762955       7.94561193       4.27441744
Li      17.72163542       9.16242919       0.61359430
Li      18.93845269       5.50160605       7.94561193
Li      16.49444682       6.71842332       6.71842332
Li      15.27762955       7.94561193       9.16242919
Li      17.72163542       9.16242919       5.50160605
Li      18.93845269       5.50160605      12.83362367
Li      16.49444682       6.71842332      11.60643507
Li      15.27762955       7.94561193      14.05044094
Li      17.72163542       9.16242919      10.38961780
Li      18.93845269       5.50160605      17.72163542
Li      16.49444682       6.71842332      16.49444682
Li      15.27762955       7.94561193      18.93845269
Li      17.72163542       9.16242919      15.27762955
Li      18.93845269       5.50160605      22.60964717
Li      16.49444682       6.71842332      21.38245856
Li      15.27762955       7.94561193      23.82646444
Li      17.72163542       9.16242919      20.16564130
Li      18.93845269       5.50160605      27.49765892
Li      16.49444682       6.71842332      26.27047031
Li      15.27762955       7.94561193      28.71447619
Li      17.72163542       9.16242919      25.05365305
Li      18.93845269       5.50160605      32.38567067
Li      16.49444682       6.71842332      31.15848206
Li      15.27762955       7.94561193      33.60248794
Li      17.72163542       9.16242919      29.94166479
Li      18.93845269       5.50160605      37.27368242
Li      16.49444682       6.71842332      36.04649381
Li      15.27762955       7.94561193      38.49049968
Li      17.72163542       9.16242919      34.82967654
Li      18.93845269       5.50160605      42.16169417
Li      16.49444682       6.71842332      40.93450556
Li      15.27762955       7.94561193      43.37851143
Li      17.72163542       9.16242919      39.71768829
Li      18.93845269       5.50160605      47.04970591
Li      16.49444682       6.71842332      45.82251731
Li      15.27762955       7.94561193      48.26652318
Li      17.72163542       9.16242919      44.60570004
Li      18.93845269      10.38961780       3.05760018
Li      16.49444682      11.60643507       1.83041157
Li      15.27762955      12.83362367       4.27441744
Li      17.72163542      14.05044094       0.61359430
Li      18.93845269      10.38961780       7.94561193
Li      16.49444682      11.60643507       6.71842332
Li      15.27762955      12.83362367       9.16242919
Li      17.72163542      14.05044094       5.50160605
Li      18.93845269      10.38961780      12.83362367
Li      16.49444682      11.60643507      11.60643507
Li      15.27762955      12.83362367      14.05044094
Li      17.72163542      14.05044094      10.38961780
Li      18.93845269      10.38961780      17.72163542
Li      16.49444682      11.60643507      16.49444682
Li      15.27762955      12.83362367      18.93845269
Li      17.72163542      14.05044094      15.27762955
Li      18.93845269      10.38961780      22.60964717
Li      16.49444682      11.60643507      21.38245856
Li      15.27762955      12.83362367      23.82646444
Li      17.72163542      14.05044094      20.16564130
Li      18.93845269      10.38961780      27.49765892
Li      16.49444682      11.60643507      26.27047031
Li      15.27762955      12.83362367      28.71447619
Li      17.72163542      14.05044094      25.05365305
Li      18.93845269      10.38961780      32.38567067
Li      16.49444682      11.60643507      31.15848206
Li      15.27762955      12.83362367      33.60248794
Li      17.72163542      14.05044094      29.94166479
Li      18.93845269      10.38961780      37.27368242
Li      16.49444682      11.60643507      36.04649381
Li      15.27762955      12.83362367      38.49049968
Li      17.72163542      14.05044094      34.82967654
Li      18.93845269      10.38961780      42.16169417
Li      16.49444682      11.60643507      40.93450556
Li      15.27762955      12.83362367      43.37851143
Li      17.72163542      14.05044094      39.71768829
Li      18.93845269      10.38961780      47.04970591
Li      16.49444682      11.60643507      45.82251731
Li      15.27762955      12.83362367      48.26652318
Li      17.72163542      14.05044094      44.60570004
Li      18.93845269      15.27762955       3.05760018
Li      16.49444682      16.49444682       1.83041157
Li      15.27762955      17.72163542       4.27441744
Li      17.72163542      18.93845269       0.61359430
Li      18.93845269      15.27762955       7.94561193
Li      16.49444682      16.49444682       6.71842332
Li      15.27762955      17.72163542       9.16242919
Li      17.72163542      18.93845269       5.50160605
Li      18.93845269      15.27762955      12.83362367
Li      16.49444682      16.49444682      11.60643507
Li      15.27762955      17.72163542      14.05044094
Li      17.72163542      18.93845269      10.38961780
Li      18.93845269      15.27762955      17.72163542
Li      16.49444682      16.49444682      16.49444682
Li      15.27762955      17.72163542      18.93845269
Li      17.72163542      18.93845269      15.27762955
Li      18.93845269      15.27762955      22.60964717
Li      16.49444682      16.49444682      21.38245856
Li      15.27762955      17.72163542      23.82646444
Li      17.72163542      18.93845269      20.16564130
Li      18.93845269      15.27762955      27.49765892
Li      16.49444682      16.49444682      26.27047031
Li      15.27762955      17.72163542      28.71447619
Li      17.72163542      18.93845269      25.05365305
Li      18.93845269      15.27762955      32.38567067
Li      16.49444682      16.49444682      31.15848206
Li      15.27762955      17.72163542      33.60248794
Li      17.72163542      18.93845269      29.94166479
Li      18.93845269      15.27762955      37.27368242
Li      16.49444682      16.49444682      36.04649381
Li      15.27762955      17.72163542      38.49049968
Li      17.72163542      18.93845269      34.82967654
Li      18.93845269      15.27762955      42.16169417
Li      16.49444682      16.49444682      40.93450556
Li      15.27762955      17.72163542      43.37851143
Li      17.72163542      18.93845269      39.71768829
Li      18.93845269      15.27762955      47.04970591
Li      16.49444682      16.49444682      45.82251731
Li      15.27762955      17.72163542      48.26652318
Li      17.72163542      18.93845269      44.60570004
Li      18.93845269      20.16564130       3.05760018
Li      16.49444682      21.38245856       1.83041157
Li      15.27762955      22.60964717       4.27441744
Li      17.72163542      23.82646444       0.61359430
Li      18.93845269      20.16564130       7.94561193
Li      16.49444682      21.38245856       6.71842332
Li      15.27762955      22.60964717       9.16242919
Li      17.72163542      23.82646444       5.50160605
Li      18.93845269      20.16564130      12.83362367
Li      16.49444682      21.38245856      11.60643507
Li      15.27762955      22.60964717      14.05044094
Li      17.72163542      23.82646444      10.38961780
Li      18.93845269      20.16564130      17.72163542
Li      16.49444682      21.38245856      16.49444682
Li      15.27762955      22.60964717      18.93845269
Li      17.72163542      23.82646444      15.27762955
Li      18.93845269      20.16564130      22.60964717
Li      16.49444682      21.38245856      21.38245856
Li      15.27762955      22.60964717      23.82646444
Li      17.72163542      23.82646444      20.16564130
Li      18.93845269      20.16564130      27.49765892
Li      16.49444682      21.38245856      26.27047031
Li      15.27762955      22.60964717      28.71447619
Li      17.72163542      23.82646444      25.05365305
Li      18.93845269      20.16564130      32.38567067
Li      16.49444682      21.38245856      31.15848206
Li      15.27762955      22.60964717      33.60248794
Li      17.72163542      23.82646444      29.94166479
Li      18.93845269      20.16564130      37.27368242
Li      16.49444682      21.38245856      36.04649381
Li      15.27762955      22.60964717      38.49049968
Li      17.72163542      23.82646444      34.82967654
Li      18.93845269      20.16564130      42.16169417
Li      16.49444682      21.38245856      40.93450556
Li      15.27762955      22.60964717      43.37851143
Li      17.72163542      23.82646444      39.71768829
Li      18.93845269      20.16564130      47.04970591
Li      16.49444682      21.38245856      45.82251731
Li      15.27762955      22.60964717      48.26652318
Li      17.72163542      23.82646444      44.60570004
Li      18.93845269      25.05365305       3.05760018
Li      16.49444682      26.27047031       1.83041157
Li      15.27762955      27.49765892       4.27441744
Li      17.72163542      28.71447619       0.61359430
Li      18.93845269      25.05365305       7.94561193
Li      16.49444682      26.27047031       6.71842332
Li      15.27762955      27.49765892       9.16242919
Li      17.72163542      28.71447619       5.50160605
Li      18.93845269      25.05365305      12.83362367
Li      16.49444682      26.27047031      11.60643507
Li      15.27762955      27.49765892      14.05044094
Li      17.72163542      28.71447619      10.38961780
Li      18.93845269      25.05365305      17.72163542
Li      16.49444682      26.27047031      16.49444682
Li      15.27762955      27.49765892      18.93845269
Li      17.72163542      28.71447619      15.27762955
Li      18.93845269      25.05365305      22.60964717
Li      16.49444682      26.27047031      21.38245856
Li      15.27762955      27.49765892      23.82646444
Li      17.72163542      28.71447619      20.16564130
Li      18.93845269      25.05365305      27.49765892
Li      16.49444682      26.27047031      26.27047031
Li      15.27762955      27.49765892      28.71447619
Li      17.72163542      28.71447619      25.05365305
Li      18.93845269      25.05365305      32.38567067
Li      16.49444682      26.27047031      31.15848206
Li      15.27762955      27.49765892      33.60248794
Li      17.72163542      28.71447619      29.94166479
Li      18.93845269      25.05365305      37.27368242
Li      16.49444682      26.27047031      36.04649381
Li      15.27762955      27.49765892      38.49049968
Li      17.72163542      28.71447619      34.82967654
Li      18.93845269      25.05365305      42.16169417
Li      16.49444682      26.27047031      40.93450556
Li      15.27762955      27.49765892      43.37851143
Li      17.72163542      28.71447619      39.71768829
Li      18.93845269      25.05365305      47.04970591
Li      16.49444682      26.27047031      45.82251731
Li      15.27762955      27.49765892      48.26652318
Li      17.72163542      28.71447619      44.60570004
Li      18.93845269      29.94166479       3.05760018
Li      16.49444682      31.15848206       1.83041157
Li      15.27762955      32.38567067       4.27441744
Li      17.72163542      33.60248794       0.61359430
Li      18.93845269      29.94166479       7.94561193
Li      16.49444682      31.15848206       6.71842332
Li      15.27762955      32.38567067       9.16242919
Li      17.72163542      33.60248794       5.50160605
Li      18.93845269      29.94166479      12.83362367
Li      16.49444682      31.15848206      11.60643507
Li      15.27762955      32.38567067      14.05044094
Li      17.72163542      33.60248794      10.38961780
Li      18.93845269      29.94166479      17.72163542
Li      16.49444682      31.15848206      16.49444682
Li      15.27762955      32.38567067      18.93845269
Li      17.72163542      33.60248794      15.27762955
Li      18.93845269      29.94166479      22.60964717
Li      16.49444682      31.15848206      21.38245856
Li      15.27762955      32.38567067      23.82646444
Li      17.72163542      33.60248794      20.16564130
Li      18.93845269      29.94166479      27.49765892
Li      16.49444682      31.15848206      26.27047031
Li      15.27762955      32.38567067      28.71447619
Li      17.72163542      33.60248794      25.05365305
Li      18.93845269      29.94166479      32.38567067
Li      16.49444682      31.15848206      31.15848206
Li      15.27762955      32.38567067      33.60248794
Li      17.72163542      33.60248794      29.94166479
Li      18.93845269      29.94166479      37.27368242
Li      16.49444682      31.15848206      36.04649381
Li      15.27762955      32.38567067      38.49049968
Li      17.72163542      33.60248794      34.82967654
Li      18.93845269      29.94166479      42.16169417
Li      16.49444682      31.15848206      40.93450556
Li      15.27762955      32.38567067      43.37851143
Li      17.72163542      33.60248794      39.71768829
Li      18.93845269      29.94166479      47.04970591
Li      16.49444682      31.15848206      45.82251731
Li      15.27762955      32.38567067      48.26652318
Li      17.72163542      33.60248794      44.60570004
Li      18.93845269      34.82967654       3.05760018
Li      16.49444682      36.04649381       1.83041157
Li      15.27762955      37.27368242       4.27441744
Li      17.72163542      38.49049968       0.61359430
Li      18.93845269      34.82967654       7.94561193
Li      16.49444682      36.04649381       6.71842332
Li      15.27762955      37.27368242       9.16242919
Li      17.72163542      38.49049968       5.50160605
Li      18.93845269      34.82967654      12.83362367
Li      16.49444682      36.04649381      11.60643507
Li      15.27762955      37.27368242      14.05044094
Li      17.72163542      38.49049968      10.38961780
Li      18.93845269      34.82967654      17.72163542
Li      16.49444682      36.04649381      16.49444682
Li      15.27762955      37.27368242      18.93845269
Li      17.72163542      38.49049968      15.27762955
Li      18.93845269      34.82967654      22.60964717
Li      16.49444682      36.04649381      21.38245856
Li      15.27762955      37.27368242      23.82646444
Li      17.72163542      38.49049968      20.16564130
Li      18.93845269      34.82967654      27.49765892
Li      16.49444682      36.04649381      26.27047031
Li      15.27762955      37.27368242      28.71447619
Li      17.72163542      38.49049968      25.05365305
Li      18.93845269      34.82967654      32.38567067
Li      16.49444682      36.04649381      31.15848206
Li      15.27762955      37.27368242      33.60248794
Li      17.72163542      38.49049968      29.94166479
Li      18.93845269      34.82967654      37.27368242
Li      16.49444682      36.04649381      36.04649381
Li      15.27762955      37.27368242      38.49049968
Li      17.72163542      38.49049968      34.82967654
Li      18.93845269      34.82967654      42.16169417
Li      16.49444682      36.04649381      40.93450556
Li      15.27762955      37.27368242      43.37851143
Li      17.72163542      38.49049968      39.71768829
Li      18.93845269      34.82967654      47.04970591
Li      16.49444682      36.04649381      45.82251731
Li      15.27762955      37.27368242      48.26652318
Li      17.72163542      38.49049968      44.60570004
Li      18.93845269      39.71768829       3.05760018
Li      16.49444682      40.93450556       1.83041157
Li      15.27762955      42.16169417       4.27441744
Li      17.72163542      43.37851143       0.61359430
Li      18.93845269      39.71768829       7.94561193
Li      16.49444682      40.93450556       6.71842332
Li      15.27762955      42.16169417       9.16242919
Li      17.72163542      43.37851143       5.50160605
Li      18.93845269      39.71768829      12.83362367
Li      16.49444682      40.93450556      11.60643507
Li      15.27762955      42.16169417      14.05044094
Li      17.72163542      43.37851143      10.38961780
Li      18.93845269      39.71768829      17.72163542
Li      16.49444682      40.93450556      16.49444682
Li      15.27762955      42.16169417      18.93845269
Li      17.72163542      43.37851143      15.27762955
Li      18.93845269      39.71768829      22.60964717
Li      16.49444682      40.93450556      21.38245856
Li      15.27762955      42.16169417      23.82646444
Li      17.72163542      43.37851143      20.16564130
Li      18.93845269      39.71768829      27.49765892
Li      16.49444682      40.93450556      26.27047031
Li      15.27762955      42.16169417      28.71447619
Li      17.72163542      43.37851143      25.05365305
Li      18.93845269      39.71768829      32.38567067
Li      16.49444682      40.93450556      31.15848206
Li      15.27762955      42.16169417      33.60248794
Li      17.72163542      43.37851143      29.94166479
Li      18.93845269      39.71768829      37.27368242
Li      16.49444682      40.93450556      36.04649381
Li      15.27762955      42.16169417      38.49049968
Li      17.72163542      43.37851143      34.82967654
Li      18.93845269      39.71768829      42.16169417
Li      16.49444682      40.93450556      40.93450556
Li      15.27762955      42.16169417      43.37851143
Li      17.72163542      43.37851143      39.71768829
Li      18.93845269      39.71768829      47.04970591
Li      16.49444682      40.93450556      45.82251731
Li      15.27762955      42.16169417      48.26652318
Li      17.72163542      43.37851143      44.60570004
Li      18.93845269      44.60570004       3.05760018
Li      16.49444682      45.82251731       1.83041157
Li      15.27762955      47.04970591       4.27441744
Li      17.72163542      48.26652318       0.61359430
Li      18.93845269      44.60570004       7.94561193
Li      16.49444682      45.82251731       6.71842332
Li      15.27762955      47.04970591       9.16242919
Li      17.72163542      48.26652318       5.50160605
Li      18.93845269      44.60570004      12.83362367
Li      16.49444682      45.82251731      11.60643507
Li      15.27762955      47.04970591      14.05044094
Li      17.72163542      48.26652318      10.38961780
Li      18.93845269      44.60570004      17.72163542
Li      16.49444682      45.82251731      16.49444682
Li      15.27762955      47.04970591      18.93845269
Li      17.72163542      48.26652318      15.27762955
Li      18.93845269      44.60570004      22.60964717
Li      16.49444682      45.82251731      21.38245856
Li      15.27762955      47.04970591      23.82646444
Li      17.72163542      48.26652318      20.16564130
Li      18.93845269      44.60570004      27.49765892
Li      16.49444682      45.82251731      26.27047031
Li      15.27762955      47.04970591      28.71447619
Li      17.72163542      48.26652318      25.05365305
Li      18.93845269      44.60570004      32.38567067
Li      16.49444682      45.82251731      31.15848206
Li      15.27762955      47.04970591      33.60248794
Li      17.72163542      48.26652318      29.94166479
Li      18.93845269      44.60570004      37.27368242
Li      16.49444682      45.82251731      36.04649381
Li      15.27762955      47.04970591      38.49049968
Li      17.72163542      48.26652318      34.82967654
Li      18.93845269      44.60570004      42.16169417
Li      16.49444682      45.82251731      40.93450556
Li      15.27762955      47.04970591      43.37851143
Li      17.72163542      48.26652318      39.71768829
Li      18.93845269      44.60570004      47.04970591
Li      16.49444682      45.82251731      45.82251731
Li      15.27762955      47.04970591      48.26652318
Li      17.72163542      48.26652318      44.60570004
Li      23.82646444       0.61359430       3.05760018
Li      21.38245856       1.83041157       1.83041157
Li      20.16564130       3.05760018       4.27441744
Li      22.60964717       4.27441744       0.61359430
Li      23.82646444       0.61359430       7.94561193
Li      21.38245856       1.83041157       6.71842332
Li      20.16564130       3.05760018       9.16242919
Li      22.60964717       4.27441744       5.50160605
Li      23.82646444       0.61359430      12.83362367
Li      21.38245856       1.83041157      11.60643507
Li      20.16564130       3.05760018      14.05044094
Li      22.60964717       4.27441744      10.38961780
Li      23.82646444       0.61359430      17.72163542
Li      21.38245856       1.83041157      16.49444682
Li      20.16564130       3.05760018      18.93845269
Li      22.60964717       4.27441744      15.27762955
Li      23.82646444       0.61359430      22.60964717
Li      21.38245856       1.83041157      21.38245856
Li      20.16564130       3.05760018      23.82646444
Li      22.60964717       4.27441744      20.16564130
Li      23.82646444       0.61359430      27.49765892
Li      21.38245856       1.83041157      26.27047031
Li      20.16564130       3.05760018      28.71447619
Li      22.60964717       4.27441744      25.05365305
Li      23.82646444       0.61359430      32.38567067
Li      21.38245856       1.83041157      31.15848206
Li      20.16564130       3.05760018      33.60248794
Li      22.60964717       4.27441744      29.94166479
Li      23.82646444       0.61359430      37.27368242
Li      21.38245856       1.83041157      36.04649381
Li      20.16564130       3.05760018      38.49049968
Li      22.60964717       4.27441744      34.82967654
Li      23.82646444       0.61359430      42.16169417
Li      21.38245856       1.83041157      40.93450556
Li      20.16564130       3.05760018      43.37851143
Li      22.60964717       4.27441744      39.71768829
Li      23.82646444       0.61359430      47.04970591
Li      21.38245856       1.83041157      45.82251731
Li      20.16564130       3.05760018      48.26652318
Li      22.60964717       4.27441744      44.60570004
Li      23.82646444       5.50160605       3.05760018
Li      21.38245856       6.71842332       1.83041157
Li      20.16564130       7.94561193       4.27441744
Li      22.60964717       9.16242919       0.61359430
Li      23.82646444       5.50160605       7.94561193
Li      21.38245856       6.71842332       6.71842332
Li      20.16564130       7.94561193       9.16242919
Li      22.60964717       9.16242919       5.50160605
Li      23.82646444       5.50160605      12.83362367
Li      21.38245856       6.71842332      11.60643507
Li      20.16564130       7.94561193      14.05044094
Li      22.60964717       9.16242919      10.38961780
Li      23.82646444       5.50160605      17.72163542
Li      21.38245856       6.71842332      16.49444682
Li      20.16564130       7.94561193      18.93845269
Li      22.60964717       9.16242919      15.27762955
Li      23.82646444       5.50160605      22.60964717
Li      21.38245856       6.71842332      21.38245856
Li      20.16564130       7.94561193      23.82646444
Li      22.60964717       9.16242919      20.16564130
Li      23.82646444       5.50160605      27.49765892
Li      21.38245856       6.71842332      26.27047031
Li      20.16564130       7.94561193      28.71447619
Li      22.60964717       9.16242919      25.05365305
Li      23.82646444       5.50160605      32.38567067
Li      21.38245856       6.71842332      31.15848206
Li      20.16564130       7.94561193      33.60248794
Li      22.60964717       9.16242919      29.94166479
Li      23.82646444       5.50160605      37.27368242
Li      21.38245856       6.71842332      36.04649381
Li      20.16564130       7.94561193      38.49049968
Li      22.60964717       9.16242919      34.82967654
Li      23.82646444       5.50160605      42.16169417
Li      21.38245856       6.71842332      40.93450556
Li      20.16564130       7.94561193      43.37851143
Li      22.60964717       9.16242919      39.71768829
Li      23.82646444       5.50160605      47.04970591
Li      21.38245856       6.71842332      45.82251731
Li      20.16564130       7.94561193      48.26652318
Li      22.60964717       9.16242919      44.60570004
Li      23.82646444      10.38961780       3.05760018
Li      21.38245856      11.60643507       1.83041157
Li      20.16564130      12.83362367       4.27441744
Li      22.60964717      14.05044094       0.61359430
Li      23.82646444      10.38961780       7.94561193
Li      21.38245856      11.60643507       6.71842332
Li      20.16564130      12.83362367       9.16242919
Li      22.60964717      14.05044094       5.50160605
Li      23.82646444      10.38961780      12.83362367
Li      21.38245856      11.60643507      11.60643507
Li      20.16564130      12.83362367      14.05044094
Li      22.60964717      14.05044094      10.38961780
Li      23.82646444      10.38961780      17.72163542
Li      21.38245856      11.60643507      16.49444682
Li      20.16564130      12.83362367      18.93845269
Li      22.60964717      14.05044094      15.27762955
Li      23.82646444      10.38961780      22.60964717
Li      21.38245856      11.60643507      21.38245856
Li      20.16564130      12.83362367      23.82646444
Li      22.60964717      14.05044094      20.16564130
Li      23.82646444      10.38961780      27.49765892
Li      21.38245856      11.60643507      26.27047031
Li      20.16564130      12.83362367      28.71447619
Li      22.60964717      14.05044094      25.05365305
Li      23.82646444      10.38961780      32.38567067
Li      21.38245856      11.60643507      31.15848206
Li      20.16564130      12.83362367      33.60248794
Li      22.60964717      14.05044094      29.94166479
Li      23.82646444      10.38961780      37.27368242
Li      21.38245856      11.60643507      36.04649381
Li      20.16564130      12.83362367      38.49049968
Li      22.60964717      14.05044094      34.82967654
Li      23.82646444      10.38961780      42.16169417
Li      21.38245856      11.60643507      40.93450556
Li      20.16564130      12.83362367      43.37851143
Li      22.60964717      14.05044094      39.71768829
Li      23.82646444      10.38961780      47.04970591
Li      21.38245856      11.60643507      45.82251731
Li      20.16564130      12.83362367      48.26652318
Li      22.60964717      14.05044094      44.60570004
Li      23.82646444      15.27762955       3.05760018
Li      21.38245856      16.49444682       1.83041157
Li      20.16564130      17.72163542       4.27441744
Li      22.60964717      18.93845269       0.61359430
Li      23.82646444      15.27762955       7.94561193
Li      21.38245856      16.49444682       6.71842332
Li      20.16564130      17.72163542       9.16242919
Li      22.60964717      18.93845269       5.50160605
Li      23.82646444      15.27762955      12.83362367
Li      21.38245856      16.49444682      11.60643507
Li      20.16564130      17.72163542      14.05044094
Li      22.60964717      18.93845269      10.38961780
Li      23.82646444      15.27762955      17.72163542
Li      21.38245856      16.49444682      16.49444682
Li      20.16564130      17.72163542      18.93845269
Li      22.60964717      18.93845269      15.27762955
Li      23.82646444      15.27762955      22.60964717
Li      21.38245856      16.49444682      21.38245856
Li      20.16564130      17.72163542      23.82646444
Li      22.60964717      18.93845269      20.16564130
Li      23.82646444      15.27762955      27.49765892
Li      21.38245856      16.49444682      26.27047031
Li      20.16564130      17.72163542      28.71447619
Li      22.60964717      18.93845269      25.05365305
Li      23.82646444      15.27762955      32.38567067
Li      21.38245856      16.49444682      31.15848206
Li      20.16564130      17.72163542      33.60248794
Li      22.60964717      18.93845269      29.94166479
Li      23.82646444      15.27762955      37.27368242
Li      21.38245856      16.49444682      36.04649381
Li      20.16564130      17.72163542      38.49049968
Li      22.60964717      18.93845269      34.82967654
Li      23.82646444      15.27762955      42.16169417
Li      21.38245856      16.49444682      40.93450556
Li      20.16564130      17.72163542      43.37851143
Li      22.60964717      18.93845269      39.71768829
Li      23.82646444      15.27762955      47.04970591
Li      21.38245856      16.49444682      45.82251731
Li      20.16564130      17.72163542      48.26652318
Li      22.60964717      18.93845269      44.60570004
Li      23.82646444      20.16564130       3.05760018
Li      21.38245856      21.38245856       1.83041157
Li      20.16564130      22.60964717       4.27441744
Li      22.60964717      23.82646444       0.61359430
Li      23.82646444      20.16564130       7.94561193
Li      21.38245856      21.38245856       6.71842332
Li      20.16564130      22.60964717       9.16242919
Li      22.60964717      23.82646444       5.50160605
Li      23.82646444      20.16564130      12.83362367
Li      21.38245856      21.38245856      11.60643507
Li      20.16564130      22.60964717      14.05044094
Li      22.60964717      23.82646444      10.38961780
Li      23.82646444      20.16564130      17.72163542
Li      21.38245856      21.38245856      16.49444682
Li      20.16564130      22.60964717      18.93845269
Li      22.60964717      23.82646444      15.27762955
Li      23.82646444      20.16564130      22.60964717
Li      21.38245856      21.38245856      21.38245856
Li      20.16564130      22.60964717      23.82646444
Li      22.60964717      23.82646444      20.16564130
Li      23.82646444      20.16564130      27.49765892
Li      21.38245856      21.38245856      26.27047031
Li      20.16564130      22.60964717      28.71447619
Li      22.60964717      23.82646444      25.05365305
Li      23.82646444      20.16564130      32.38567067
Li      21.38245856      21.38245856      31.15848206
Li      20.16564130      22.60964717      33.60248794
Li      22.60964717      23.82646444      29.94166479
Li      23.82646444      20.16564130      37.27368242
Li      21.38245856      21.38245856      36.04649381
Li      20.16564130      22.60964717      38.49049968
Li      22.60964717      23.82646444      34.82967654
Li      23.82646444      20.16564130      42.16169417
Li      21.38245856      21.38245856      40.93450556
Li      20.16564130      22.60964717      43.37851143
Li      22.60964717      23.82646444      39.71768829
Li      23.82646444      20.16564130      47.04970591
Li      21.38245856      21.38245856      45.82251731
Li      20.16564130      22.60964717      48.26652318
Li      22.60964717      23.82646444      44.60570004
Li      23.82646444      25.05365305       3.05760018
Li      21.38245856      26.27047031       1.83041157
Li      20.16564130      27.49765892       4.27441744
Li      22.60964717      28.71447619       0.61359430
Li      23.82646444      25.05365305       7.94561193
Li      21.38245856      26.27047031       6.71842332
Li      20.16564130      27.49765892       9.16242919
Li      22.60964717      28.71447619       5.50160605
Li      23.82646444      25.05365305      12.83362367
Li      21.38245856      26.27047031      11.60643507
Li      20.16564130      27.49765892      14.05044094
Li      22.60964717      28.71447619      10.38961780
Li      23.82646444      25.05365305      17.72163542
Li      21.38245856      26.27047031      16.49444682
Li      20.16564130      27.49765892      18.93845269
Li      22.60964717      28.71447619      15.27762955
Li      23.82646444      25.05365305      22.60964717
Li      21.38245856      26.27047031      21.38245856
Li      20.16564130      27.49765892      23.82646444
Li      22.60964717      28.71447619      20.16564130
Li      23.82646444      25.05365305      27.49765892
Li      21.38245856      26.27047031      26.27047031
Li      20.16564130      27.49765892      28.71447619
Li      22.60964717      28.71447619      25.05365305
Li      23.82646444      25.05365305      32.38567067
Li      21.38245856      26.27047031      31.15848206
Li      20.16564130      27.49765892      33.60248794
Li      22.60964717      28.71447619      29.94166479
Li      23.82646444      25.05365305      37.27368242
Li      21.38245856      26.27047031      36.04649381
Li      20.16564130      27.49765892      38.49049968
Li      22.60964717      28.71447619      34.82967654
Li      23.82646444      25.05365305      42.16169417
Li      21.38245856      26.27047031      40.93450556
Li      20.16564130      27.49765892      43.37851143
Li      22.60964717      28.71447619      39.71768829
Li      23.82646444      25.05365305      47.04970591
Li      21.38245856      26.27047031      45.82251731
Li      20.16564130      27.49765892      48.26652318
Li      22.60964717      28.71447619      44.60570004
Li      23.82646444      29.94166479       3.05760018
Li      21.38245856      31.15848206       1.83041157
Li      20.16564130      32.38567067       4.27441744
Li      22.60964717      33.60248794       0.61359430
Li      23.82646444      29.94166479       7.94561193
Li      21.38245856      31.15848206       6.71842332
Li      20.16564130      32.38567067       9.16242919
Li      22.60964717      33.60248794       5.50160605
Li      23.82646444      29.94166479      12.83362367
Li      21.38245856      31.15848206      11.60643507
Li      20.16564130      32.38567067      14.05044094
Li      22.60964717      33.60248794      10.38961780
Li      23.82646444      29.94166479      17.72163542
Li      21.38245856      31.15848206      16.49444682
Li      20.16564130      32.38567067      18.93845269
Li      22.60964717      33.60248794      15.27762955
Li      23.82646444      29.94166479      22.60964717
Li      21.38245856      31.15848206      21.38245856
Li      20.16564130      32.38567067      23.82646444
Li      22.60964717      33.60248794      20.16564130
Li      23.82646444      29.94166479      27.49765892
Li      21.38245856      31.15848206      26.27047031
Li      20.16564130      32.38567067      28.71447619
Li      22.60964717      33.60248794      25.05365305
Li      23.82646444      29.94166479      32.38567067
Li      21.38245856      31.15848206      31.15848206
Li      20.16564130      32.38567067      33.60248794
Li      22.60964717      33.60248794      29.94166479
Li      23.82646444      29.94166479      37.27368242
Li      21.38245856      31.15848206      36.04649381
Li      20.16564130      32.38567067      38.49049968
Li      22.60964717      33.60248794      34.82967654
Li      23.82646444      29.94166479      42.16169417
Li      21.38245856      31.15848206      40.93450556
Li      20.16564130      32.38567067      43.37851143
Li      22.60964717      33.60248794      39.71768829
Li      23.82646444      29.94166479      47.04970591
Li      21.38245856      31.15848206      45.82251731
Li      20.16564130      32.38567067      48.26652318
Li      22.60964717      33.60248794      44.60570004
Li      23.82646444      34.82967654       3.05760018
Li      21.38245856      36.04649381       1.83041157
Li      20.16564130      37.27368242       4.27441744
Li      22.60964717      38.49049968       0.61359430
Li      23.82646444      34.82967654       7.94561193
Li      21.38245856      36.04649381       6.71842332
Li      20.16564130      37.27368242       9.16242919
Li      22.60964717      38.49049968       5.50160605
Li      23.82646444      34.82967654      12.83362367
Li      21.38245856      36.04649381      11.60643507
Li      20.16564130      37.27368242      14.05044094
Li      22.60964717      38.49049968      10.38961780
Li      23.82646444      34.82967654      17.72163542
Li      21.38245856      36.04649381      16.49444682
Li      20.16564130      37.27368242      18.93845269
Li      22.60964717      38.49049968      15.27762955
Li      23.82646444      34.82967654      22.60964717
Li      21.38245856      36.04649381      21.38245856
Li      20.16564130      37.27368242      23.82646444
Li      22.60964717      38.49049968      20.16564130
Li      23.82646444      34.82967654      27.49765892
Li      21.38245856      36.04649381      26.27047031
Li      20.16564130      37.27368242      28.71447619
Li      22.60964717      38.49049968      25.05365305
Li      23.82646444      34.82967654      32.38567067
Li      21.38245856      36.04649381      31.15848206
Li      20.16564130      37.27368242      33.60248794
Li      22.60964717      38.49049968      29.94166479
Li      23.82646444      34.82967654      37.27368242
Li      21.38245856      36.04649381      36.04649381
Li      20.16564130      37.27368242      38.49049968
Li      22.60964717      38.49049968      34.82967654
Li      23.82646444      34.82967654      42.16169417
Li      21.38245856      36.04649381      40.93450556
Li      20.16564130      37.27368242      43.37851143
Li      22.60964717      38.49049968      39.71768829
Li      23.82646444      34.82967654      47.04970591
Li      21.38245856      36.04649381      45.82251731
Li      20.16564130      37.27368242      48.26652318
Li      22.60964717      38.49049968      44.60570004
Li      23.82646444      39.71768829       3.05760018
Li      21.38245856      40.93450556       1.83041157
Li      20.16564130      42.16169417       4.27441744
Li      22.60964717      43.37851143       0.61359430
Li      23.82646444      39.71768829       7.94561193
Li      21.38245856      40.93450556       6.71842332
Li      20.16564130      42.16169417       9.16242919
Li      22.60964717      43.37851143       5.50160605
Li      23.82646444      39.71768829      12.83362367
Li      21.38245856      40.93450556      11.60643507
Li      20.16564130      42.16169417      14.05044094
Li      22.60964717      43.37851143      10.38961780
Li      23.82646444      39.71768829      17.72163542
Li      21.38245856      40.93450556      16.49444682
Li      20.16564130      42.16169417      18.93845269
Li      22.60964717      43.37851143      15.27762955
Li      23.82646444      39.71768829      22.60964717
Li      21.38245856      40.93450556      21.38245856
Li      20.16564130      42.16169417      23.82646444
Li      22.60964717      43.37851143      20.16564130
Li      23.82646444      39.71768829      27.49765892
Li      21.38245856      40.93450556      26.27047031
Li      20.16564130      42.16169417      28.71447619
Li      22.60964717      43.37851143      25.05365305
Li      23.82646444      39.71768829      32.38567067
Li      21.38245856      40.93450556      31.15848206
Li      20.16564130      42.16169417      33.60248794
Li      22.60964717      43.37851143      29.94166479
Li      23.82646444      39.71768829      37.27368242
Li      21.38245856      40.93450556      36.04649381
Li      20.16564130      42.16169417      38.49049968
Li      22.60964717      43.37851143      34.82967654
Li      23.82646444      39.71768829      42.16169417
Li      21.38245856      40.93450556      40.93450556
Li      20.16564130      42.16169417      43.37851143
Li      22.60964717      43.37851143      39.71768829
Li      23.82646444      39.71768829      47.04970591
Li      21.38245856      40.93450556      45.82251731
Li      20.16564130      42.16169417      48.26652318
Li      22.60964717      43.37851143      44.60570004
Li      23.82646444      44.60570004       3.05760018
Li      21.38245856      45.82251731       1.83041157
Li      20.16564130      47.04970591       4.27441744
Li      22.60964717      48.26652318       0.61359430
Li      23.82646444      44.60570004       7.94561193
Li      21.38245856      45.82251731       6.71842332
Li      20.16564130      47.04970591       9.16242919
Li      22.60964717      48.26652318       5.50160605
Li      23.82646444      44.60570004      12.83362367
Li      21.38245856      45.82251731      11.60643507
Li      20.16564130      47.04970591      14.05044094
Li      22.60964717      48.26652318      10.38961780
Li      23.82646444      44.60570004      17.72163542
Li      21.38245856      45.82251731      16.49444682
Li      20.16564130      47.04970591      18.93845269
Li      22.60964717      48.26652318      15.27762955
Li      23.82646444      44.60570004      22.60964717
Li      21.38245856      45.82251731      21.38245856
Li      20.16564130      47.04970591      23.82646444
Li      22.60964717      48.26652318      20.16564130
Li      23.82646444      44.60570004      27.49765892
Li      21.38245856      45.82251731      26.27047031
Li      20.16564130      47.04970591      28.71447619
Li      22.60964717      48.26652318      25.05365305
Li      23.82646444      44.60570004      32.38567067
Li      21.38245856      45.82251731      31.15848206
Li      20.16564130      47.04970591      33.60248794
Li      22.60964717      48.26652318      29.94166479
Li      23.82646444      44.60570004      37.27368242
Li      21.38245856      45.82251731      36.04649381
Li      20.16564130      47.04970591      38.49049968
Li      22.60964717      48.26652318      34.82967654
Li      23.82646444      44.60570004      42.16169417
Li      21.38245856      45.82251731      40.93450556
Li      20.16564130      47.04970591      43.37851143
Li      22.60964717      48.26652318      39.71768829
Li      23.82646444      44.60570004      47.04970591
Li      21.38245856      45.82251731      45.82251731
Li      20.16564130      47.04970591      48.26652318
Li      22.60964717      48.26652318      44.60570004
Li      28.71447619       0.61359430       3.05760018
Li      26.27047031       1.83041157       1.83041157
Li      25.05365305       3.05760018       4.27441744
Li      27.49765892       4.27441744       0.61359430
Li      28.71447619       0.61359430       7.94561193
Li      26.27047031       1.83041157       6.71842332
Li      25.05365305       3.05760018       9.16242919
Li      27.49765892       4.27441744       5.50160605
Li      28.71447619       0.61359430      12.83362367
Li      26.27047031       1.83041157      11.60643507
Li      25.05365305       3.05760018      14.05044094
Li      27.49765892       4.27441744      10.38961780
Li      28.71447619       0.61359430      17.72163542
Li      26.27047031       1.83041157      16.49444682
Li      25.05365305       3.05760018      18.93845269
Li      27.49765892       4.27441744      15.27762955
Li      28.71447619       0.61359430      22.60964717
Li      26.27047031       1.83041157      21.38245856
Li      25.05365305       3.05760018      23.82646444
Li      27.49765892       4.27441744      20.16564130
Li      28.71447619       0.61359430      27.49765892
Li      26.27047031       1.83041157      26.27047031
Li      25.05365305       3.05760018      28.71447619
Li      27.49765892       4.27441744      25.05365305
Li      28.71447619       0.61359430      32.38567067
Li      26.27047031       1.83041157      31.15848206
Li      25.05365305       3.05760018      33.60248794
Li      27.49765892       4.27441744      29.94166479
Li      28.71447619       0.61359430      37.27368242
Li      26.27047031       1.83041157      36.04649381
Li      25.05365305       3.05760018      38.49049968
Li      27.49765892       4.27441744      34.82967654
Li      28.71447619       0.61359430      42.16169417
Li      26.27047031       1.83041157      40.93450556
Li      25.05365305       3.05760018      43.37851143
Li      27.49765892       4.27441744      39.71768829
Li      28.71447619       0.61359430      47.04970591
Li      26.27047031       1.83041157      45.82251731
Li      25.05365305       3.05760018      48.26652318
Li      27.49765892       4.27441744      44.60570004
Li      28.71447619       5.50160605       3.05760018
Li      26.27047031       6.71842332       1.83041157
Li      25.05365305       7.94561193       4.27441744
Li      27.49765892       9.16242919       0.61359430
Li      28.71447619       5.50160605       7.94561193
Li      26.27047031       6.71842332       6.71842332
Li      25.05365305       7.94561193       9.16242919
Li      27.49765892       9.16242919       5.50160605
Li      28.71447619       5.50160605      12.83362367
Li      26.27047031       6.71842332      11.60643507
Li      25.05365305       7.94561193      14.05044094
Li      27.49765892       9.16242919      10.38961780
Li      28.71447619       5.50160605      17.72163542
Li      26.27047031       6.71842332      16.49444682
Li      25.05365305       7.94561193      18.93845269
Li      27.49765892       9.16242919      15.27762955
Li      28.71447619       5.50160605      22.60964717
Li      26.27047031       6.71842332      21.38245856
Li      25.05365305       7.94561193      23.82646444
Li      27.49765892       9.16242919      20.16564130
Li      28.71447619       5.50160605      27.49765892
Li      26.27047031       6.71842332      26.27047031
Li      25.05365305       7.94561193      28.71447619
Li      27.49765892       9.16242919      25.05365305
Li      28.71447619       5.50160605      32.38567067
Li      26.27047031       6.71842332      31.15848206
Li      25.05365305       7.94561193      33.60248794
Li      27.49765892       9.16242919      29.94166479
Li      28.71447619       5.50160605      37.27368242
Li      26.27047031       6.71842332      36.04649381
Li      25.05365305       7.94561193      38.49049968
Li      27.49765892       9.16242919      34.82967654
Li      28.71447619       5.50160605      42.16169417
Li      26.27047031       6.71842332      40.93450556
Li      25.05365305       7.94561193      43.37851143
Li      27.49765892       9.16242919      39.71768829
Li      28.71447619       5.50160605      47.04970591
Li      26.27047031       6.71842332      45.82251731
Li      25.05365305       7.94561193      48.26652318
Li      27.49765892       9.16242919      44.60570004
Li      28.71447619      10.38961780       3.05760018
Li      26.27047031      11.60643507       1.83041157
Li      25.05365305      12.83362367       4.27441744
Li      27.49765892      14.05044094       0.61359430
Li      28.71447619      10.38961780       7.94561193
Li      26.27047031      11.60643507       6.71842332
Li      25.05365305      12.83362367       9.16242919
Li      27.49765892      14.05044094       5.50160605
Li      28.71447619      10.38961780      12.83362367
Li      26.27047031      11.60643507      11.60643507
Li      25.05365305      12.83362367      14.05044094
Li      27.49765892      14.05044094      10.38961780
Li      28.71447619      10.38961780      17.72163542
Li      26.27047031      11.60643507      16.49444682
Li      25.05365305      12.83362367      18.93845269
Li      27.49765892      14.05044094      15.27762955
Li      28.71447619      10.38961780      22.60964717
Li      26.27047031      11.60643507      21.38245856
Li      25.05365305      12.83362367      23.82646444
Li      27.49765892      14.05044094      20.16564130
Li      28.71447619      10.38961780      27.49765892
Li      26.27047031      11.60643507      26.27047031
Li      25.05365305      12.83362367      28.71447619
Li      27.49765892      14.05044094      25.05365305
Li      28.71447619      10.38961780      32.38567067
Li      26.27047031      11.60643507      31.15848206
Li      25.05365305      12.83362367      33.60248794
Li      27.49765892      14.05044094      29.94166479
Li      28.71447619      10.38961780      37.27368242
Li      26.27047031      11.60643507      36.04649381
Li      25.05365305      12.83362367      38.49049968
Li      27.49765892      14.05044094      34.82967654
Li      28.71447619      10.38961780      42.16169417
Li      26.27047031      11.60643507      40.93450556
Li      25.05365305      12.83362367      43.37851143
Li      27.49765892      14.05044094      39.71768829
Li      28.71447619      10.38961780      47.04970591
Li      26.27047031      11.60643507      45.82251731
Li      25.05365305      12.83362367      48.26652318
Li      27.49765892      14.05044094      44.60570004
Li      28.71447619      15.27762955       3.05760018
Li      26.27047031      16.49444682       1.83041157
Li      25.05365305      17.72163542       4.27441744
Li      27.49765892      18.93845269       0.61359430
Li      28.71447619      15.27762955       7.94561193
Li      26.27047031      16.49444682       6.71842332
Li      25.05365305      17.72163542       9.16242919
Li      27.49765892      18.93845269       5.50160605
Li      28.71447619      15.27762955      12.83362367
Li      26.27047031      16.49444682      11.60643507
Li      25.05365305      17.72163542      14.05044094
Li      27.49765892      18.93845269      10.38961780
Li      28.71447619      15.27762955      17.72163542
Li      26.27047031      16.49444682      16.49444682
Li      25.05365305      17.72163542      18.93845269
Li      27.49765892      18.93845269      15.27762955
Li      28.71447619      15.27762955      22.60964717
Li      26.27047031      16.49444682      21.38245856
Li      25.05365305      17.72163542      23.82646444
Li      27.49765892      18.93845269      20.16564130
Li      28.71447619      15.27762955      27.49765892
Li      26.27047031      16.49444682      26.27047031
Li      25.05365305      17.72163542      28.71447619
Li      27.49765892      18.93845269      25.05365305
Li      28.71447619      15.27762955      32.38567067
Li      26.27047031      16.49444682      31.15848206
Li      25.05365305      17.72163542      33.60248794
Li      27.49765892      18.93845269      29.94166479
Li      28.71447619      15.27762955      37.27368242
Li      26.27047031      16.49444682      36.04649381
Li      25.05365305      17.72163542      38.49049968
Li      27.49765892      18.93845269      34.82967654
Li      28.71447619      15.27762955      42.16169417
Li      26.27047031      16.49444682      40.93450556
Li      25.05365305      17.72163542      43.37851143
Li      27.49765892      18.93845269      39.71768829
Li      28.71447619      15.27762955      47.04970591
Li      26.27047031      16.49444682      45.82251731
Li      25.05365305      17.72163542      48.26652318
Li      27.49765892      18.93845269      44.60570004
Li      28.71447619      20.16564130       3.05760018
Li      26.27047031      21.38245856       1.83041157
Li      25.05365305      22.60964717       4.27441744
Li      27.49765892      23.82646444       0.61359430
Li      28.71447619      20.16564130       7.94561193
Li      26.27047031      21.38245856       6.71842332
Li      25.05365305      22.60964717       9.16242919
Li      27.49765892      23.82646444       5.50160605
Li      28.71447619      20.16564130      12.83362367
Li      26.27047031      21.38245856      11.60643507
Li      25.05365305      22.60964717      14.05044094
Li      27.49765892      23.82646444      10.38961780
Li      28.71447619      20.16564130      17.72163542
Li      26.27047031      21.38245856      16.49444682
Li      25.05365305      22.60964717      18.93845269
Li      27.49765892      23.82646444      15.27762955
Li      28.71447619      20.16564130      22.60964717
Li      26.27047031      21.38245856      21.38245856
Li      25.05365305      22.60964717      23.82646444
Li      27.49765892      23.82646444      20.16564130
Li      28.71447619      20.16564130      27.49765892
Li      26.27047031      21.38245856      26.27047031
Li      25.05365305      22.60964717      28.71447619
Li      27.49765892      23.82646444      25.05365305
Li      28.71447619      20.16564130      32.38567067
Li      26.27047031      21.38245856      31.15848206
Li      25.05365305      22.60964717      33.60248794
Li      27.49765892      23.82646444      29.94166479
Li      28.71447619      20.16564130      37.27368242
Li      26.27047031      21.38245856      36.04649381
Li      25.05365305      22.60964717      38.49049968
Li      27.49765892      23.82646444      34.82967654
Li      28.71447619      20.16564130      42.16169417
Li      26.27047031      21.38245856      40.93450556
Li      25.05365305      22.60964717      43.37851143
Li      27.49765892      23.82646444      39.71768829
Li      28.71447619      20.16564130      47.04970591
Li      26.27047031      21.38245856      45.82251731
Li      25.05365305      22.60964717      48.26652318
Li      27.49765892      23.82646444      44.60570004
Li      28.71447619      25.05365305       3.05760018
Li      26.27047031      26.27047031       1.83041157
Li      25.05365305      27.49765892       4.27441744
Li      27.49765892      28.71447619       0.61359430
Li      28.71447619      25.05365305       7.94561193
Li      26.27047031      26.27047031       6.71842332
Li      25.05365305      27.49765892       9.16242919
Li      27.49765892      28.71447619       5.50160605
Li      28.71447619      25.05365305      12.83362367
Li      26.27047031      26.27047031      11.60643507
Li      25.05365305      27.49765892      14.05044094
Li      27.49765892      28.71447619      10.38961780
Li      28.71447619      25.05365305      17.72163542
Li      26.27047031      26.27047031      16.49444682
Li      25.05365305      27.49765892      18.93845269
Li      27.49765892      28.71447619      15.27762955
Li      28.71447619      25.05365305      22.60964717
Li      26.27047031      26.27047031      21.38245856
Li      25.05365305      27.49765892      23.82646444
Li      27.49765892      28.71447619      20.16564130
Li      28.71447619      25.05365305      27.49765892
Li      26.27047031      26.27047031      26.27047031
Li      25.05365305      27.49765892      28.71447619
Li      27.49765892      28.71447619      25.05365305
Li      28.71447619      25.05365305      32.38567067
Li      26.27047031      26.27047031      31.15848206
Li      25.05365305      27.49765892      33.60248794
Li      27.49765892      28.71447619      29.94166479
Li      28.71447619      25.05365305      37.27368242
Li      26.27047031      26.27047031      36.04649381
Li      25.05365305      27.49765892      38.49049968
Li      27.49765892      28.71447619      34.82967654
Li      28.71447619      25.05365305      42.16169417
Li      26.27047031      26.27047031      40.93450556
Li      25.05365305      27.49765892      43.37851143
Li      27.49765892      28.71447619      39.71768829
Li      28.71447619      25.05365305      47.04970591
Li      26.27047031      26.27047031      45.82251731
Li      25.05365305      27.49765892      48.26652318
Li      27.49765892      28.71447619      44.60570004
Li      28.71447619      29.94166479       3.05760018
Li      26.27047031      31.15848206       1.83041157
Li      25.05365305      32.38567067       4.27441744
Li      27.49765892      33.60248794       0.61359430
Li      28.71447619      29.94166479       7.94561193
Li      26.27047031      31.15848206       6.71842332
Li      25.05365305      32.38567067       9.16242919
Li      27.49765892      33.60248794       5.50160605
Li      28.71447619      29.94166479      12.83362367
Li      26.27047031      31.15848206      11.60643507
Li      25.05365305      32.38567067      14.05044094
Li      27.49765892      33.60248794      10.38961780
Li      28.71447619      29.94166479      17.72163542
Li      26.27047031      31.15848206      16.49444682
Li      25.05365305      32.38567067      18.93845269
Li      27.49765892      33.60248794      15.27762955
Li      28.71447619      29.94166479      22.60964717
Li      26.27047031      31.15848206      21.38245856
Li      25.05365305      32.38567067      23.82646444
Li      27.49765892      33.60248794      20.16564130
Li      28.71447619      29.94166479      27.49765892
Li      26.27047031      31.15848206      26.27047031
Li      25.05365305      32.38567067      28.71447619
Li      27.49765892      33.60248794      25.05365305
Li      28.71447619      29.94166479      32.38567067
Li      26.27047031      31.15848206      31.15848206
Li      25.05365305      32.38567067      33.60248794
Li      27.49765892      33.60248794      29.94166479
Li      28.71447619      29.94166479      37.27368242
Li      26.27047031      31.15848206      36.04649381
Li      25.05365305      32.38567067      38.49049968
Li      27.49765892      33.60248794      34.82967654
Li      28.71447619      29.94166479      42.16169417
Li      26.27047031      31.15848206      40.93450556
Li      25.05365305      32.38567067      43.37851143
Li      27.49765892      33.60248794      39.71768829
Li      28.71447619      29.94166479      47.04970591
Li      26.27047031      31.15848206      45.82251731
Li      25.05365305      32.38567067      48.26652318
Li      27.49765892      33.60248794      44.60570004
Li      28.71447619      34.82967654       3.05760018
Li      26.27047031      36.04649381       1.83041157
Li      25.05365305      37.27368242       4.27441744
Li      27.49765892      38.49049968       0.61359430
Li      28.71447619      34.82967654       7.94561193
Li      26.27047031      36.04649381       6.71842332
Li      25.05365305      37.27368242       9.16242919
Li      27.49765892      38.49049968       5.50160605
Li      28.71447619      34.82967654      12.83362367
Li      26.27047031      36.04649381      11.60643507
Li      25.05365305      37.27368242      14.05044094
Li      27.49765892      38.49049968      10.38961780
Li      28.71447619      34.82967654      17.72163542
Li      26.27047031      36.04649381      16.49444682
Li      25.05365305      37.27368242      18.93845269
Li      27.49765892      38.49049968      15.27762955
Li      28.71447619      34.82967654      22.60964717
Li      26.27047031      36.04649381      21.38245856
Li      25.05365305      37.27368242      23.82646444
Li      27.49765892      38.49049968      20.16564130
Li      28.71447619      34.82967654      27.49765892
Li      26.27047031      36.04649381      26.27047031
Li      25.05365305      37.27368242      28.71447619
Li      27.49765892      38.49049968      25.05365305
Li      28.71447619      34.82967654      32.38567067
Li      26.27047031      36.04649381      31.15848206
Li      25.05365305      37.27368242      33.60248794
Li      27.49765892      38.49049968      29.94166479
Li      28.71447619      34.82967654      37.27368242
Li      26.27047031      36.04649381      36.04649381
Li      25.05365305      37.27368242      38.49049968
Li      27.49765892      38.49049968      34.82967654
Li      28.71447619      34.82967654      42.16169417
Li      26.27047031      36.04649381      40.93450556
Li      25.05365305      37.27368242      43.37851143
Li      27.49765892      38.49049968      39.71768829
Li      28.71447619      34.82967654      47.04970591
Li      26.27047031      36.04649381      45.82251731
Li      25.05365305      37.27368242      48.26652318
Li      27.49765892      38.49049968      44.60570004
Li      28.71447619      39.71768829       3.05760018
Li      26.27047031      40.93450556       1.83041157
Li      25.05365305      42.16169417       4.27441744
Li      27.49765892      43.37851143       0.61359430
Li      28.71447619      39.71768829       7.94561193
Li      26.27047031      40.93450556       6.71842332
Li      25.05365305      42.16169417       9.16242919
Li      27.49765892      43.37851143       5.50160605
Li      28.71447619      39.71768829      12.83362367
Li      26.27047031      40.93450556      11.60643507
Li      25.05365305      42.16169417      14.05044094
Li      27.49765892      43.37851143      10.38961780
Li      28.71447619      39.71768829      17.72163542
Li      26.27047031      40.93450556      16.49444682
Li      25.05365305      42.16169417      18.93845269
Li      27.49765892      43.37851143      15.27762955
Li      28.71447619      39.71768829      22.60964717
Li      26.27047031      40.93450556      21.38245856
Li      25.05365305      42.16169417      23.82646444
Li      27.49765892      43.37851143      20.16564130
Li      28.71447619      39.71768829      27.49765892
Li      26.27047031      40.93450556      26.27047031
Li      25.05365305      42.16169417      28.71447619
Li      27.49765892      43.37851143      25.05365305
Li      28.71447619      39.71768829      32.38567067
Li      26.27047031      40.93450556      31.15848206
Li      25.05365305      42.16169417      33.60248794
Li      27.49765892      43.37851143      29.94166479
Li      28.71447619      39.71768829      37.27368242
Li      26.27047031      40.93450556      36.04649381
Li      25.05365305      42.16169417      38.49049968
Li      27.49765892      43.37851143      34.82967654
Li      28.71447619      39.71768829      42.16169417
Li      26.27047031      40.93450556      40.93450556
Li      25.05365305      42.16169417      43.37851143
Li      27.49765892      43.37851143      39.71768829
Li      28.71447619      39.71768829      47.04970591
Li      26.27047031      40.93450556      45.82251731
Li      25.05365305      42.16169417      48.26652318
Li      27.49765892      43.37851143      44.60570004
Li      28.71447619      44.60570004       3.05760018
Li      26.27047031      45.82251731       1.83041157
Li      25.05365305      47.04970591       4.27441744
Li      27.49765892      48.26652318       0.61359430
Li      28.71447619      44.60570004       7.94561193
Li      26.27047031      45.82251731       6.71842332
Li      25.05365305      47.04970591       9.16242919
Li      27.49765892      48.26652318       5.50160605
Li      28.71447619      44.60570004      12.83362367
Li      26.27047031      45.82251731      11.60643507
Li      25.05365305      47.04970591      14.05044094
Li      27.49765892      48.26652318      10.38961780
Li      28.71447619      44.60570004      17.72163542
Li      26.27047031      45.82251731      16.49444682
Li      25.05365305      47.04970591      18.93845269
Li      27.49765892      48.26652318      15.27762955
Li      28.71447619      44.60570004      22.60964717
Li      26.27047031      45.82251731      21.38245856
Li      25.05365305      47.04970591      23.82646444
Li      27.49765892      48.26652318      20.16564130
Li      28.71447619      44.60570004      27.49765892
Li      26.27047031      45.82251731      26.27047031
Li      25.05365305      47.04970591      28.71447619
Li      27.49765892      48.26652318      25.05365305
Li      28.71447619      44.60570004      32.38567067
Li      26.27047031      45.82251731      31.15848206
Li      25.05365305      47.04970591      33.60248794
Li      27.49765892      48.26652318      29.94166479
Li      28.71447619      44.60570004      37.27368242
Li      26.27047031      45.82251731      36.04649381
Li      25.05365305      47.04970591      38.49049968
Li      27.49765892      48.26652318      34.82967654
Li      28.71447619      44.60570004      42.16169417
Li      26.27047031      45.82251731      40.93450556
Li      25.05365305      47.04970591      43.37851143
Li      27.49765892      48.26652318      39.71768829
Li      28.71447619      44.60570004      47.04970591
Li      26.27047031      45.82251731      45.82251731
Li      25.05365305      47.04970591      48.26652318
Li      27.49765892      48.26652318      44.60570004
Li      33.60248794       0.61359430       3.05760018
Li      31.15848206       1.83041157       1.83041157
Li      29.94166479       3.05760018       4.27441744
Li      32.38567067       4.27441744       0.61359430
Li      33.60248794       0.61359430       7.94561193
Li      31.15848206       1.83041157       6.71842332
Li      29.94166479       3.05760018       9.16242919
Li      32.38567067       4.27441744       5.50160605
Li      33.60248794       0.61359430      12.83362367
Li      31.15848206       1.83041157      11.60643507
Li      29.94166479       3.05760018      14.05044094
Li      32.38567067       4.27441744      10.38961780
Li      33.60248794       0.61359430      17.72163542
Li      31.15848206       1.83041157      16.49444682
Li      29.94166479       3.05760018      18.93845269
Li      32.38567067       4.27441744      15.27762955
Li      33.60248794       0.61359430      22.60964717
Li      31.15848206       1.83041157      21.38245856
Li      29.94166479       3.05760018      23.82646444
Li      32.38567067       4.27441744      20.16564130
Li      33.60248794       0.61359430      27.49765892
Li      31.15848206       1.83041157      26.27047031
Li      29.94166479       3.05760018      28.71447619
Li      32.38567067       4.27441744      25.05365305
Li      33.60248794       0.61359430      32.38567067
Li      31.15848206       1.83041157      31.15848206
Li      29.94166479       3.05760018      33.60248794
Li      32.38567067       4.27441744      29.94166479
Li      33.60248794       0.61359430      37.27368242
Li      31.15848206       1.83041157      36.04649381
Li      29.94166479       3.05760018      38.49049968
Li      32.38567067       4.27441744      34.82967654
Li      33.60248794       0.61359430      42.16169417
Li      31.15848206       1.83041157      40.93450556
Li      29.94166479       3.05760018      43.37851143
Li      32.38567067       4.27441744      39.71768829
Li      33.60248794       0.61359430      47.04970591
Li      31.15848206       1.83041157      45.82251731
Li      29.94166479       3.05760018      48.26652318
Li      32.38567067       4.27441744      44.60570004
Li      33.60248794       5.50160605       3.05760018
Li      31.15848206       6.71842332       1.83041157
Li      29.94166479       7.94561193       4.27441744
Li      32.38567067       9.16242919       0.61359430
Li      33.60248794       5.50160605       7.94561193
Li      31.15848206       6.71842332       6.71842332
Li      29.94166479       7.94561193       9.16242919
Li      32.38567067       9.16242919       5.50160605
Li      33.60248794       5.50160605      12.83362367
Li      31.15848206       6.71842332      11.60643507
Li      29.94166479       7.94561193      14.05044094
Li      32.38567067       9.16242919      10.38961780
Li      33.60248794       5.50160605      17.72163542
Li      31.15848206       6.71842332      16.49444682
Li      29.94166479       7.94561193      18.93845269
Li      32.38567067       9.16242919      15.27762955
Li      33.60248794       5.50160605      22.60964717
Li      31.15848206       6.71842332      21.38245856
Li      29.94166479       7.94561193      23.82646444
Li      32.38567067       9.16242919      20.16564130
Li      33.60248794       5.50160605      27.49765892
Li      31.15848206       6.71842332      26.27047031
Li      29.94166479       7.94561193      28.71447619
Li      32.38567067       9.16242919      25.05365305
Li      33.60248794       5.50160605      32.38567067
Li      31.15848206       6.71842332      31.15848206
Li      29.94166479       7.94561193      33.60248794
Li      32.38567067       9.16242919      29.94166479
Li      33.60248794       5.50160605      37.27368242
Li      31.15848206       6.71842332      36.04649381
Li      29.94166479       7.94561193      38.49049968
Li      32.38567067       9.16242919      34.82967654
Li      33.60248794       5.50160605      42.16169417
Li      31.15848206       6.71842332      40.93450556
Li      29.94166479       7.94561193      43.37851143
Li      32.38567067       9.16242919      39.71768829
Li      33.60248794       5.50160605      47.04970591
Li      31.15848206       6.71842332      45.82251731
Li      29.94166479       7.94561193      48.26652318
Li      32.38567067       9.16242919      44.60570004
Li      33.60248794      10.38961780       3.05760018
Li      31.15848206      11.60643507       1.83041157
Li      29.94166479      12.83362367       4.27441744
Li      32.38567067      14.05044094       0.61359430
Li      33.60248794      10.38961780       7.94561193
Li      31.15848206      11.60643507       6.71842332
Li      29.94166479      12.83362367       9.16242919
Li      32.38567067      14.05044094       5.50160605
Li      33.60248794      10.38961780      12.83362367
Li      31.15848206      11.60643507      11.60643507
Li      29.94166479      12.83362367      14.05044094
Li      32.38567067      14.05044094      10.38961780
Li      33.60248794      10.38961780      17.72163542
Li      31.15848206      11.60643507      16.49444682
Li      29.94166479      12.83362367      18.93845269
Li      32.38567067      14.05044094      15.27762955
Li      33.60248794      10.38961780      22.60964717
Li      31.15848206      11.60643507      21.38245856
Li      29.94166479      12.83362367      23.82646444
Li      32.38567067      14.05044094      20.16564130
Li      33.60248794      10.38961780      27.49765892
Li      31.15848206      11.60643507      26.27047031
Li      29.94166479      12.83362367      28.71447619
Li      32.38567067      14.05044094      25.05365305
Li      33.60248794      10.38961780      32.38567067
Li      31.15848206      11.60643507      31.15848206
Li      29.94166479      12.83362367      33.60248794
Li      32.38567067      14.05044094      29.94166479
Li      33.60248794      10.38961780      37.27368242
Li      31.15848206      11.60643507      36.04649381
Li      29.94166479      12.83362367      38.49049968
Li      32.38567067      14.05044094      34.82967654
Li      33.60248794      10.38961780      42.16169417
Li      31.15848206      11.60643507      40.93450556
Li      29.94166479      12.83362367      43.37851143
Li      32.38567067      14.05044094      39.71768829
Li      33.60248794      10.38961780      47.04970591
Li      31.15848206      11.60643507      45.82251731
Li      29.94166479      12.83362367      48.26652318
Li      32.38567067      14.05044094      44.60570004
Li      33.60248794      15.27762955       3.05760018
Li      31.15848206      16.49444682       1.83041157
Li      29.94166479      17.72163542       4.27441744
Li      32.38567067      18.93845269       0.61359430
Li      33.60248794      15.27762955       7.94561193
Li      31.15848206      16.49444682       6.71842332
Li      29.94166479      17.72163542       9.16242919
Li      32.38567067      18.93845269       5.50160605
Li      33.60248794      15.27762955      12.83362367
Li      31.15848206      16.49444682      11.60643507
Li      29.94166479      17.72163542      14.05044094
Li      32.38567067      18.93845269      10.38961780
Li      33.60248794      15.27762955      17.72163542
Li      31.15848206      16.49444682      16.49444682
Li      29.94166479      17.72163542      18.93845269
Li      32.38567067      18.93845269      15.27762955
Li      33.60248794      15.27762955      22.60964717
Li      31.15848206      16.49444682      21.38245856
Li      29.94166479      17.72163542      23.82646444
Li      32.38567067      18.93845269      20.16564130
Li      33.60248794      15.27762955      27.49765892
Li      31.15848206      16.49444682      26.27047031
Li      29.94166479      17.72163542      28.71447619
Li      32.38567067      18.93845269      25.05365305
Li      33.60248794      15.27762955      32.38567067
Li      31.15848206      16.49444682      31.15848206
Li      29.94166479      17.72163542      33.60248794
Li      32.38567067      18.93845269      29.94166479
Li      33.60248794      15.27762955      37.27368242
Li      31.15848206      16.49444682      36.04649381
Li      29.94166479      17.72163542      38.49049968
Li      32.38567067      18.93845269      34.82967654
Li      33.60248794      15.27762955      42.16169417
Li      31.15848206      16.49444682      40.93450556
Li      29.94166479      17.72163542      43.37851143
Li      32.38567067      18.93845269      39.71768829
Li      33.60248794      15.27762955      47.04970591
Li      31.15848206      16.49444682      45.82251731
Li      29.94166479      17.72163542      48.26652318
Li      32.38567067      18.93845269      44.60570004
Li      33.60248794      20.16564130       3.05760018
Li      31.15848206      21.38245856       1.83041157
Li      29.94166479      22.60964717       4.27441744
Li      32.38567067      23.82646444       0.61359430
Li      33.60248794      20.16564130       7.94561193
Li      31.15848206      21.38245856       6.71842332
Li      29.94166479      22.60964717       9.16242919
Li      32.38567067      23.82646444       5.50160605
Li      33.60248794      20.16564130      12.83362367
Li      31.15848206      21.38245856      11.60643507
Li      29.94166479      22.60964717      14.05044094
Li      32.38567067      23.82646444      10.38961780
Li      33.60248794      20.16564130      17.72163542
Li      31.15848206      21.38245856      16.49444682
Li      29.94166479      22.60964717      18.93845269
Li      32.38567067      23.82646444      15.27762955
Li      33.60248794      20.16564130      22.60964717
Li      31.15848206      21.38245856      21.38245856
Li      29.94166479      22.60964717      23.82646444
Li      32.38567067      23.82646444      20.16564130
Li      33.60248794      20.16564130      27.49765892
Li      31.15848206      21.38245856      26.27047031
Li      29.94166479      22.60964717      28.71447619
Li      32.38567067      23.82646444      25.05365305
Li      33.60248794      20.16564130      32.38567067
Li      31.15848206      21.38245856      31.15848206
Li      29.94166479      22.60964717      33.60248794
Li      32.38567067      23.82646444      29.94166479
Li      33.60248794      20.16564130      37.27368242
Li      31.15848206      21.38245856      36.04649381
Li      29.94166479      22.60964717      38.49049968
Li      32.38567067      23.82646444      34.82967654
Li      33.60248794      20.16564130      42.16169417
Li      31.15848206      21.38245856      40.93450556
Li      29.94166479      22.60964717      43.37851143
Li      32.38567067      23.82646444      39.71768829
Li      33.60248794      20.16564130      47.04970591
Li      31.15848206      21.38245856      45.82251731
Li      29.94166479      22.60964717      48.26652318
Li      32.38567067      23.82646444      44.60570004
Li      33.60248794      25.05365305       3.05760018
Li      31.15848206      26.27047031       1.83041157
Li      29.94166479      27.49765892       4.27441744
Li      32.38567067      28.71447619       0.61359430
Li      33.60248794      25.05365305       7.94561193
Li      31.15848206      26.27047031       6.71842332
Li      29.94166479      27.49765892       9.16242919
Li      32.38567067      28.71447619       5.50160605
Li      33.60248794      25.05365305      12.83362367
Li      31.15848206      26.27047031      11.60643507
Li      29.94166479      27.49765892      14.05044094
Li      32.38567067      28.71447619      10.38961780
Li      33.60248794      25.05365305      17.72163542
Li      31.15848206      26.27047031      16.49444682
Li      29.94166479      27.49765892      18.93845269
Li      32.38567067      28.71447619      15.27762955
Li      33.60248794      25.05365305      22.60964717
Li      31.15848206      26.27047031      21.38245856
Li      29.94166479      27.49765892      23.82646444
Li      32.38567067      28.71447619      20.16564130
Li      33.60248794      25.05365305      27.49765892
Li      31.15848206      26.27047031      26.27047031
Li      29.94166479      27.49765892      28.71447619
Li      32.38567067      28.71447619      25.05365305
Li      33.60248794      25.05365305      32.38567067
Li      31.15848206      26.27047031      31.15848206
Li      29.94166479      27.49765892      33.60248794
Li      32.38567067      28.71447619      29.94166479
Li      33.60248794      25.05365305      37.27368242
Li      31.15848206      26.27047031      36.04649381
Li      29.94166479      27.49765892      38.49049968
Li      32.38567067      28.71447619      34.82967654
Li      33.60248794      25.05365305      42.16169417
Li      31.15848206      26.27047031      40.93450556
Li      29.94166479      27.49765892      43.37851143
Li      32.38567067      28.71447619      39.71768829
Li      33.60248794      25.05365305      47.04970591
Li      31.15848206      26.27047031      45.82251731
Li      29.94166479      27.49765892      48.26652318
Li      32.38567067      28.71447619      44.60570004
Li      33.60248794      29.94166479       3.05760018
Li      31.15848206      31.15848206       1.83041157
Li      29.94166479      32.38567067       4.27441744
Li      32.38567067      33.60248794       0.61359430
Li      33.60248794      29.94166479       7.94561193
Li      31.15848206      31.15848206       6.71842332
Li      29.94166479      32.38567067       9.16242919
Li      32.38567067      33.60248794       5.50160605
Li      33.60248794      29.94166479      12.83362367
Li      31.15848206      31.15848206      11.60643507
Li      29.94166479      32.38567067      14.05044094
Li      32.38567067      33.60248794      10.38961780
Li      33.60248794      29.94166479      17.72163542
Li      31.15848206      31.15848206      16.49444682
Li      29.94166479      32.38567067      18.93845269
Li      32.38567067      33.60248794      15.27762955
Li      33.60248794      29.94166479      22.60964717
Li      31.15848206      31.15848206      21.38245856
Li      29.94166479      32.38567067      23.82646444
Li      32.38567067      33.60248794      20.16564130
Li      33.60248794      29.94166479      27.49765892
Li      31.15848206      31.15848206      26.27047031
Li      29.94166479      32.38567067      28.71447619
Li      32.38567067      33.60248794      25.05365305
Li      33.60248794      29.94166479      32.38567067
Li      31.15848206      31.15848206      31.15848206
Li      29.94166479      32.38567067      33.60248794
Li      32.38567067      33.60248794      29.94166479
Li      33.60248794      29.94166479      37.27368242
Li      31.15848206      31.15848206      36.04649381
Li      29.94166479      32.38567067      38.49049968
Li      32.38567067      33.60248794      34.82967654
Li      33.60248794      29.94166479      42.16169417
Li      31.15848206      31.15848206      40.93450556
Li      29.94166479      32.38567067      43.37851143
Li      32.38567067      33.60248794      39.71768829
Li      33.60248794      29.94166479      47.04970591
Li      31.15848206      31.15848206      45.82251731
Li      29.94166479      32.38567067      48.26652318
Li      32.38567067      33.60248794      44.60570004
Li      33.60248794      34.82967654       3.05760018
Li      31.15848206      36.04649381       1.83041157
Li      29.94166479      37.27368242       4.27441744
Li      32.38567067      38.49049968       0.61359430
Li      33.60248794      34.82967654       7.94561193
Li      31.15848206      36.04649381       6.71842332
Li      29.94166479      37.27368242       9.16242919
Li      32.38567067      38.49049968       5.50160605
Li      33.60248794      34.82967654      12.83362367
Li      31.15848206      36.04649381      11.60643507
Li      29.94166479      37.27368242      14.05044094
Li      32.38567067      38.49049968      10.38961780
Li      33.60248794      34.82967654      17.72163542
Li      31.15848206      36.04649381      16.49444682
Li      29.94166479      37.27368242      18.93845269
Li      32.38567067      38.49049968      15.27762955
Li      33.60248794      34.82967654      22.60964717
Li      31.15848206      36.04649381      21.38245856
Li      29.94166479      37.27368242      23.82646444
Li      32.38567067      38.49049968      20.16564130
Li      33.60248794      34.82967654      27.49765892
Li      31.15848206      36.04649381      26.27047031
Li      29.94166479      37.27368242      28.71447619
Li      32.38567067      38.49049968      25.05365305
Li      33.60248794      34.82967654      32.38567067
Li      31.15848206      36.04649381      31.15848206
Li      29.94166479      37.27368242      33.60248794
Li      32.38567067      38.49049968      29.94166479
Li      33.60248794      34.82967654      37.27368242
Li      31.15848206      36.04649381      36.04649381
Li      29.94166479      37.27368242      38.49049968
Li      32.38567067      38.49049968      34.82967654
Li      33.60248794      34.82967654      42.16169417
Li      31.15848206      36.04649381      40.93450556
Li      29.94166479      37.27368242      43.37851143
Li      32.38567067      38.49049968      39.71768829
Li      33.60248794      34.82967654      47.04970591
Li      31.15848206      36.04649381      45.82251731
Li      29.94166479      37.27368242      48.26652318
Li      32.38567067      38.49049968      44.60570004
Li      33.60248794      39.71768829       3.05760018
Li      31.15848206      40.93450556       1.83041157
Li      29.94166479      42.16169417       4.27441744
Li      32.38567067      43.37851143       0.61359430
Li      33.60248794      39.71768829       7.94561193
Li      31.15848206      40.93450556       6.71842332
Li      29.94166479      42.16169417       9.16242919
Li      32.38567067      43.37851143       5.50160605
Li      33.60248794      39.71768829      12.83362367
Li      31.15848206      40.93450556      11.60643507
Li      29.94166479      42.16169417      14.05044094
Li      32.38567067      43.37851143      10.38961780
Li      33.60248794      39.71768829      17.72163542
Li      31.15848206      40.93450556      16.49444682
Li      29.94166479      42.16169417      18.93845269
Li      32.38567067      43.37851143      15.27762955
Li      33.60248794      39.71768829      22.60964717
Li      31.15848206      40.93450556      21.38245856
Li      29.94166479      42.16169417      23.82646444
Li      32.38567067      43.37851143      20.16564130
Li      33.60248794      39.71768829      27.49765892
Li      31.15848206      40.93450556      26.27047031
Li      29.94166479      42.16169417      28.71447619
Li      32.38567067      43.37851143      25.05365305
Li      33.60248794      39.71768829      32.38567067
Li      31.15848206      40.93450556      31.15848206
Li      29.94166479      42.16169417      33.60248794
Li      32.38567067      43.37851143      29.94166479
Li      33.60248794      39.71768829      37.27368242
Li      31.15848206      40.93450556      36.04649381
Li      29.94166479      42.16169417      38.49049968
Li      32.38567067      43.37851143      34.82967654
Li      33.60248794      39.71768829      42.16169417
Li      31.15848206      40.93450556      40.93450556
Li      29.94166479      42.16169417      43.37851143
Li      32.38567067      43.37851143      39.71768829
Li      33.60248794      39.71768829      47.04970591
Li      31.15848206      40.93450556      45.82251731
Li      29.94166479      42.16169417      48.26652318
Li      32.38567067      43.37851143      44.60570004
Li      33.60248794      44.60570004       3.05760018
Li      31.15848206      45.82251731       1.83041157
Li      29.94166479      47.04970591       4.27441744
Li      32.38567067      48.26652318       0.61359430
Li      33.60248794      44.60570004       7.94561193
Li      31.15848206      45.82251731       6.71842332
Li      29.94166479      47.04970591       9.16242919
Li      32.38567067      48.26652318       5.50160605
Li      33.60248794      44.60570004      12.83362367
Li      31.15848206      45.82251731      11.60643507
Li      29.94166479      47.04970591      14.05044094
Li      32.38567067      48.26652318      10.38961780
Li      33.60248794      44.60570004      17.72163542
Li      31.15848206      45.82251731      16.49444682
Li      29.94166479      47.04970591      18.93845269
Li      32.38567067      48.26652318      15.27762955
Li      33.60248794      44.60570004      22.60964717
Li      31.15848206      45.82251731      21.38245856
Li      29.94166479      47.04970591      23.82646444
Li      32.38567067      48.26652318      20.16564130
Li      33.60248794      44.60570004      27.49765892
Li      31.15848206      45.82251731      26.27047031
Li      29.94166479      47.04970591      28.71447619
Li      32.38567067      48.26652318      25.05365305
Li      33.60248794      44.60570004      32.38567067
Li      31.15848206      45.82251731      31.15848206
Li      29.94166479      47.04970591      33.60248794
Li      32.38567067      48.26652318      29.94166479
Li      33.60248794      44.60570004      37.27368242
Li      31.15848206      45.82251731      36.04649381
Li      29.94166479      47.04970591      38.49049968
Li      32.38567067      48.26652318      34.82967654
Li      33.60248794      44.60570004      42.16169417
Li      31.15848206      45.82251731      40.93450556
Li      29.94166479      47.04970591      43.37851143
Li      32.38567067      48.26652318      39.71768829
Li      33.60248794      44.60570004      47.04970591
Li      31.15848206      45.82251731      45.82251731
Li      29.94166479      47.04970591      48.26652318
Li      32.38567067      48.26652318      44.60570004
Li      38.49049968       0.61359430       3.05760018
Li      36.04649381       1.83041157       1.83041157
Li      34.82967654       3.05760018       4.27441744
Li      37.27368242       4.27441744       0.61359430
Li      38.49049968       0.61359430       7.94561193
Li      36.04649381       1.83041157       6.71842332
Li      34.82967654       3.05760018       9.16242919
Li      37.27368242       4.27441744       5.50160605
Li      38.49049968       0.61359430      12.83362367
Li      36.04649381       1.83041157      11.60643507
Li      34.82967654       3.05760018      14.05044094
Li      37.27368242       4.27441744      10.38961780
Li      38.49049968       0.61359430      17.72163542
Li      36.04649381       1.83041157      16.49444682
Li      34.82967654       3.05760018      18.93845269
Li      37.27368242       4.27441744      15.27762955
Li      38.49049968       0.61359430      22.60964717
Li      36.04649381       1.83041157      21.38245856
Li      34.82967654       3.05760018      23.82646444
Li      37.27368242       4.27441744      20.16564130
Li      38.49049968       0.61359430      27.49765892
Li      36.04649381       1.83041157      26.27047031
Li      34.82967654       3.05760018      28.71447619
Li      37.27368242       4.27441744      25.05365305
Li      38.49049968       0.61359430      32.38567067
Li      36.04649381       1.83041157      31.15848206
Li      34.82967654       3.05760018      33.60248794
Li      37.27368242       4.27441744      29.94166479
Li      38.49049968       0.61359430      37.27368242
Li      36.04649381       1.83041157      36.04649381
Li      34.82967654       3.05760018      38.49049968
Li      37.27368242       4.27441744      34.82967654
Li      38.49049968       0.61359430      42.16169417
Li      36.04649381       1.83041157      40.93450556
Li      34.82967654       3.05760018      43.37851143
Li      37.27368242       4.27441744      39.71768829
Li      38.49049968       0.61359430      47.04970591
Li      36.04649381       1.83041157      45.82251731
Li      34.82967654       3.05760018      48.26652318
Li      37.27368242       4.27441744      44.60570004
Li      38.49049968       5.50160605       3.05760018
Li      36.04649381       6.71842332       1.83041157
Li      34.82967654       7.94561193       4.27441744
Li      37.27368242       9.16242919       0.61359430
Li      38.49049968       5.50160605       7.94561193
Li      36.04649381       6.71842332       6.71842332
Li      34.82967654       7.94561193       9.16242919
Li      37.27368242       9.16242919       5.50160605
Li      38.49049968       5.50160605      12.83362367
Li      36.04649381       6.71842332      11.60643507
Li      34.82967654       7.94561193      14.05044094
Li      37.27368242       9.16242919      10.38961780
Li      38.49049968       5.50160605      17.72163542
Li      36.04649381       6.71842332      16.49444682
Li      34.82967654       7.94561193      18.93845269
Li      37.27368242       9.16242919      15.27762955
Li      38.49049968       5.50160605      22.60964717
Li      36.04649381       6.71842332      21.38245856
Li      34.82967654       7.94561193      23.82646444
Li      37.27368242       9.16242919      20.16564130
Li      38.49049968       5.50160605      27.49765892
Li      36.04649381       6.71842332      26.27047031
Li      34.82967654       7.94561193      28.71447619
Li      37.27368242       9.16242919      25.05365305
Li      38.49049968       5.50160605      32.38567067
Li      36.04649381       6.71842332      31.15848206
Li      34.82967654       7.94561193      33.60248794
Li      37.27368242       9.16242919      29.94166479
Li      38.49049968       5.50160605      37.27368242
Li      36.04649381       6.71842332      36.04649381
Li      34.82967654       7.94561193      38.49049968
Li      37.27368242       9.16242919      34.82967654
Li      38.49049968       5.50160605      42.16169417
Li      36.04649381       6.71842332      40.93450556
Li      34.82967654       7.94561193      43.37851143
Li      37.27368242       9.16242919      39.71768829
Li      38.49049968       5.50160605      47.04970591
Li      36.04649381       6.71842332      45.82251731
Li      34.82967654       7.94561193      48.26652318
Li      37.27368242       9.16242919      44.60570004
Li      38.49049968      10.38961780       3.05760018
Li      36.04649381      11.60643507       1.83041157
Li      34.82967654      12.83362367       4.27441744
Li      37.27368242      14.05044094       0.61359430
Li      38.49049968      10.38961780       7.94561193
Li      36.04649381      11.60643507       6.71842332
Li      34.82967654      12.83362367       9.16242919
Li      37.27368242      14.05044094       5.50160605
Li      38.49049968      10.38961780      12.83362367
Li      36.04649381      11.60643507      11.60643507
Li      34.82967654      12.83362367      14.05044094
Li      37.27368242      14.05044094      10.38961780
Li      38.49049968      10.38961780      17.72163542
Li      36.04649381      11.60643507      16.49444682
Li      34.82967654      12.83362367      18.93845269
Li      37.27368242      14.05044094      15.27762955
Li      38.49049968      10.38961780      22.60964717
Li      36.04649381      11.60643507      21.38245856
Li      34.82967654      12.83362367      23.82646444
Li      37.27368242      14.05044094      20.16564130
Li      38.49049968      10.38961780      27.49765892
Li      36.04649381      11.60643507      26.27047031
Li      34.82967654      12.83362367      28.71447619
Li      37.27368242      14.05044094      25.05365305
Li      38.49049968      10.38961780      32.38567067
Li      36.04649381      11.60643507      31.15848206
Li      34.82967654      12.83362367      33.60248794
Li      37.27368242      14.05044094      29.94166479
Li      38.49049968      10.38961780      37.27368242
Li      36.04649381      11.60643507      36.04649381
Li      34.82967654      12.83362367      38.49049968
Li      37.27368242      14.05044094      34.82967654
Li      38.49049968      10.38961780      42.16169417
Li      36.04649381      11.60643507      40.93450556
Li      34.82967654      12.83362367      43.37851143
Li      37.27368242      14.05044094      39.71768829
Li      38.49049968      10.38961780      47.04970591
Li      36.04649381      11.60643507      45.82251731
Li      34.82967654      12.83362367      48.26652318
Li      37.27368242      14.05044094      44.60570004
Li      38.49049968      15.27762955       3.05760018
Li      36.04649381      16.49444682       1.83041157
Li      34.82967654      17.72163542       4.27441744
Li      37.27368242      18.93845269       0.61359430
Li      38.49049968      15.27762955       7.94561193
Li      36.04649381      16.49444682       6.71842332
Li      34.82967654      17.72163542       9.16242919
Li      37.27368242      18.93845269       5.50160605
Li      38.49049968      15.27762955      12.83362367
Li      36.04649381      16.49444682      11.60643507
Li      34.82967654      17.72163542      14.05044094
Li      37.27368242      18.93845269      10.38961780
Li      38.49049968      15.27762955      17.72163542
Li      36.04649381      16.49444682      16.49444682
Li      34.82967654      17.72163542      18.93845269
Li      37.27368242      18.93845269      15.27762955
Li      38.49049968      15.27762955      22.60964717
Li      36.04649381      16.49444682      21.38245856
Li      34.82967654      17.72163542      23.82646444
Li      37.27368242      18.93845269      20.16564130
Li      38.49049968      15.27762955      27.49765892
Li      36.04649381      16.49444682      26.27047031
Li      34.82967654      17.72163542      28.71447619
Li      37.27368242      18.93845269      25.05365305
Li      38.49049968      15.27762955      32.38567067
Li      36.04649381      16.49444682      31.15848206
Li      34.82967654      17.72163542      33.60248794
Li      37.27368242      18.93845269      29.94166479
Li      38.49049968      15.27762955      37.27368242
Li      36.04649381      16.49444682      36.04649381
Li      34.82967654      17.72163542      38.49049968
Li      37.27368242      18.93845269      34.82967654
Li      38.49049968      15.27762955      42.16169417
Li      36.04649381      16.49444682      40.93450556
Li      34.82967654      17.72163542      43.37851143
Li      37.27368242      18.93845269      39.71768829
Li      38.49049968      15.27762955      47.04970591
Li      36.04649381      16.49444682      45.82251731
Li      34.82967654      17.72163542      48.26652318
Li      37.27368242      18.93845269      44.60570004
Li      38.49049968      20.16564130       3.05760018
Li      36.04649381      21.38245856       1.83041157
Li      34.82967654      22.60964717       4.27441744
Li      37.27368242      23.82646444       0.61359430
Li      38.49049968      20.16564130       7.94561193
Li      36.04649381      21.38245856       6.71842332
Li      34.82967654      22.60964717       9.16242919
Li      37.27368242      23.82646444       5.50160605
Li      38.49049968      20.16564130      12.83362367
Li      36.04649381      21.38245856      11.60643507
Li      34.82967654      22.60964717      14.05044094
Li      37.27368242      23.82646444      10.38961780
Li      38.49049968      20.16564130      17.72163542
Li      36.04649381      21.38245856      16.49444682
Li      34.82967654      22.60964717      18.93845269
Li      37.27368242      23.82646444      15.27762955
Li      38.49049968      20.16564130      22.60964717
Li      36.04649381      21.38245856      21.38245856
Li      34.82967654      22.60964717      23.82646444
Li      37.27368242      23.82646444      20.16564130
Li      38.49049968      20.16564130      27.49765892
Li      36.04649381      21.38245856      26.27047031
Li      34.82967654      22.60964717      28.71447619
Li      37.27368242      23.82646444      25.05365305
Li      38.49049968      20.16564130      32.38567067
Li      36.04649381      21.38245856      31.15848206
Li      34.82967654      22.60964717      33.60248794
Li      37.27368242      23.82646444      29.94166479
Li      38.49049968      20.16564130      37.27368242
Li      36.04649381      21.38245856      36.04649381
Li      34.82967654      22.60964717      38.49049968
Li      37.27368242      23.82646444      34.82967654
Li      38.49049968      20.16564130      42.16169417
Li      36.04649381      21.38245856      40.93450556
Li      34.82967654      22.60964717      43.37851143
Li      37.27368242      23.82646444      39.71768829
Li      38.49049968      20.16564130      47.04970591
Li      36.04649381      21.38245856      45.82251731
Li      34.82967654      22.60964717      48.26652318
Li      37.27368242      23.82646444      44.60570004
Li      38.49049968      25.05365305       3.05760018
Li      36.04649381      26.27047031       1.83041157
Li      34.82967654      27.49765892       4.27441744
Li      37.27368242      28.71447619       0.61359430
Li      38.49049968      25.05365305       7.94561193
Li      36.04649381      26.27047031       6.71842332
Li      34.82967654      27.49765892       9.16242919
Li      37.27368242      28.71447619       5.50160605
Li      38.49049968      25.05365305      12.83362367
Li      36.04649381      26.27047031      11.60643507
Li      34.82967654      27.49765892      14.05044094
Li      37.27368242      28.71447619      10.38961780
Li      38.49049968      25.05365305      17.72163542
Li      36.04649381      26.27047031      16.49444682
Li      34.82967654      27.49765892      18.93845269
Li      37.27368242      28.71447619      15.27762955
Li      38.49049968      25.05365305      22.60964717
Li      36.04649381      26.27047031      21.38245856
Li      34.82967654      27.49765892      23.82646444
Li      37.27368242      28.71447619      20.16564130
Li      38.49049968      25.05365305      27.49765892
Li      36.04649381      26.27047031      26.27047031
Li      34.82967654      27.49765892      28.71447619
Li      37.27368242      28.71447619      25.05365305
Li      38.49049968      25.05365305      32.38567067
Li      36.04649381      26.27047031      31.15848206
Li      34.82967654      27.49765892      33.60248794
Li      37.27368242      28.71447619      29.94166479
Li      38.49049968      25.05365305      37.27368242
Li      36.04649381      26.27047031      36.04649381
Li      34.82967654      27.49765892      38.49049968
Li      37.27368242      28.71447619      34.82967654
Li      38.49049968      25.05365305      42.16169417
Li      36.04649381      26.27047031      40.93450556
Li      34.82967654      27.49765892      43.37851143
Li      37.27368242      28.71447619      39.71768829
Li      38.49049968      25.05365305      47.04970591
Li      36.04649381      26.27047031      45.82251731
Li      34.82967654      27.49765892      48.26652318
Li      37.27368242      28.71447619      44.60570004
Li      38.49049968      29.94166479       3.05760018
Li      36.04649381      31.15848206       1.83041157
Li      34.82967654      32.38567067       4.27441744
Li      37.27368242      33.60248794       0.61359430
Li      38.49049968      29.94166479       7.94561193
Li      36.04649381      31.15848206       6.71842332
Li      34.82967654      32.38567067       9.16242919
Li      37.27368242      33.60248794       5.50160605
Li      38.49049968      29.94166479      12.83362367
Li      36.04649381      31.15848206      11.60643507
Li      34.82967654      32.38567067      14.05044094
Li      37.27368242      33.60248794      10.38961780
Li      38.49049968      29.94166479      17.72163542
Li      36.04649381      31.15848206      16.49444682
Li      34.82967654      32.38567067      18.93845269
Li      37.27368242      33.60248794      15.27762955
Li      38.49049968      29.94166479      22.60964717
Li      36.04649381      31.15848206      21.38245856
Li      34.82967654      32.38567067      23.82646444
Li      37.27368242      33.60248794      20.16564130
Li      38.49049968      29.94166479      27.49765892
Li      36.04649381      31.15848206      26.27047031
Li      34.82967654      32.38567067      28.71447619
Li      37.27368242      33.60248794      25.05365305
Li      38.49049968      29.94166479      32.38567067
Li      36.04649381      31.15848206      31.15848206
Li      34.82967654      32.38567067      33.60248794
Li      37.27368242      33.60248794      29.94166479
Li      38.49049968      29.94166479      37.27368242
Li      36.04649381      31.15848206      36.04649381
Li      34.82967654      32.38567067      38.49049968
Li      37.27368242      33.60248794      34.82967654
Li      38.49049968      29.94166479      42.16169417
Li      36.04649381      31.15848206      40.93450556
Li      34.82967654      32.38567067      43.37851143
Li      37.27368242      33.60248794      39.71768829
Li      38.49049968      29.94166479      47.04970591
Li      36.04649381      31.15848206      45.82251731
Li      34.82967654      32.38567067      48.26652318
Li      37.27368242      33.60248794      44.60570004
Li      38.49049968      34.82967654       3.05760018
Li      36.04649381      36.04649381       1.83041157
Li      34.82967654      37.27368242       4.27441744
Li      37.27368242      38.49049968       0.61359430
Li      38.49049968      34.82967654       7.94561193
Li      36.04649381      36.04649381       6.71842332
Li      34.82967654      37.27368242       9.16242919
Li      37.27368242      38.49049968       5.50160605
Li      38.49049968      34.82967654      12.83362367
Li      36.04649381      36.04649381      11.60643507
Li      34.82967654      37.27368242      14.05044094
Li      37.27368242      38.49049968      10.38961780
Li      38.49049968      34.82967654      17.72163542
Li      36.04649381      36.04649381      16.49444682
Li      34.82967654      37.27368242      18.93845269
Li      37.27368242      38.49049968      15.27762955
Li      38.49049968      34.82967654      22.60964717
Li      36.04649381      36.04649381      21.38245856
Li      34.82967654      37.27368242      23.82646444
Li      37.27368242      38.49049968      20.16564130
Li      38.49049968      34.82967654      27.49765892
Li      36.04649381      36.04649381      26.27047031
Li      34.82967654      37.27368242      28.71447619
Li      37.27368242      38.49049968      25.05365305
Li      38.49049968      34.82967654      32.38567067
Li      36.04649381      36.04649381      31.15848206
Li      34.82967654      37.27368242      33.60248794
Li      37.27368242      38.49049968      29.94166479
Li      38.49049968      34.82967654      37.27368242
Li      36.04649381      36.04649381      36.04649381
Li      34.82967654      37.27368242      38.49049968
Li      37.27368242      38.49049968      34.82967654
Li      38.49049968      34.82967654      42.16169417
Li      36.04649381      36.04649381      40.93450556
Li      34.82967654      37.27368242      43.37851143
Li      37.27368242      38.49049968      39.71768829
Li      38.49049968      34.82967654      47.04970591
Li      36.04649381      36.04649381      45.82251731
Li      34.82967654      37.27368242      48.26652318
Li      37.27368242      38.49049968      44.60570004
Li      38.49049968      39.71768829       3.05760018
Li      36.04649381      40.93450556       1.83041157
Li      34.82967654      42.16169417       4.27441744
Li      37.27368242      43.37851143       0.61359430
Li      38.49049968      39.71768829       7.94561193
Li      36.04649381      40.93450556       6.71842332
Li      34.82967654      42.16169417       9.16242919
Li      37.27368242      43.37851143       5.50160605
Li      38.49049968      39.71768829      12.83362367
Li      36.04649381      40.93450556      11.60643507
Li      34.82967654      42.16169417      14.05044094
Li      37.27368242      43.37851143      10.38961780
Li      38.49049968      39.71768829      17.72163542
Li      36.04649381      40.93450556      16.49444682
Li      34.82967654      42.16169417      18.93845269
Li      37.27368242      43.37851143      15.27762955
Li      38.49049968      39.71768829      22.60964717
Li      36.04649381      40.93450556      21.38245856
Li      34.82967654      42.16169417      23.82646444
Li      37.27368242      43.37851143      20.16564130
Li      38.49049968      39.71768829      27.49765892
Li      36.04649381      40.93450556      26.27047031
Li      34.82967654      42.16169417      28.71447619
Li      37.27368242      43.37851143      25.05365305
Li      38.49049968      39.71768829      32.38567067
Li      36.04649381      40.93450556      31.15848206
Li      34.82967654      42.16169417      33.60248794
Li      37.27368242      43.37851143      29.94166479
Li      38.49049968      39.71768829      37.27368242
Li      36.04649381      40.93450556      36.04649381
Li      34.82967654      42.16169417      38.49049968
Li      37.27368242      43.37851143      34.82967654
Li      38.49049968      39.71768829      42.16169417
Li      36.04649381      40.93450556      40.93450556
Li      34.82967654      42.16169417      43.37851143
Li      37.27368242      43.37851143      39.71768829
Li      38.49049968      39.71768829      47.04970591
Li      36.04649381      40.93450556      45.82251731
Li      34.82967654      42.16169417      48.26652318
Li      37.27368242      43.37851143      44.60570004
Li      38.49049968      44.60570004       3.05760018
Li      36.04649381      45.82251731       1.83041157
Li      34.82967654      47.04970591       4.27441744
Li      37.27368242      48.26652318       0.61359430
Li      38.49049968      44.60570004       7.94561193
Li      36.04649381      45.82251731       6.71842332
Li      34.82967654      47.04970591       9.16242919
Li      37.27368242      48.26652318       5.50160605
Li      38.49049968      44.60570004      12.83362367
Li      36.04649381      45.82251731      11.60643507
Li      34.82967654      47.04970591      14.05044094
Li      37.27368242      48.26652318      10.38961780
Li      38.49049968      44.60570004      17.72163542
Li      36.04649381      45.82251731      16.49444682
Li      34.82967654      47.04970591      18.93845269
Li      37.27368242      48.26652318      15.27762955
Li      38.49049968      44.60570004      22.60964717
Li      36.04649381      45.82251731      21.38245856
Li      34.82967654      47.04970591      23.82646444
Li      37.27368242      48.26652318      20.16564130
Li      38.49049968      44.60570004      27.49765892
Li      36.04649381      45.82251731      26.27047031
Li      34.82967654      47.04970591      28.71447619
Li      37.27368242      48.26652318      25.05365305
Li      38.49049968      44.60570004      32.38567067
Li      36.04649381      45.82251731      31.15848206
Li      34.82967654      47.04970591      33.60248794
Li      37.27368242      48.26652318      29.94166479
Li      38.49049968      44.60570004      37.27368242
Li      36.04649381      45.82251731      36.04649381
Li      34.82967654      47.04970591      38.49049968
Li      37.27368242      48.26652318      34.82967654
Li      38.49049968      44.60570004      42.16169417
Li      36.04649381      45.82251731      40.93450556
Li      34.82967654      47.04970591      43.37851143
Li      37.27368242      48.26652318      39.71768829
Li      38.49049968      44.60570004      47.04970591
Li      36.04649381      45.82251731      45.82251731
Li      34.82967654      47.04970591      48.26652318
Li      37.27368242      48.26652318      44.60570004
Li      43.37851143       0.61359430       3.05760018
Li      40.93450556       1.83041157       1.83041157
Li      39.71768829       3.05760018       4.27441744
Li      42.16169417       4.27441744       0.61359430
Li      43.37851143       0.61359430       7.94561193
Li      40.93450556       1.83041157       6.71842332
Li      39.71768829       3.05760018       9.16242919
Li      42.16169417       4.27441744       5.50160605
Li      43.37851143       0.61359430      12.83362367
Li      40.93450556       1.83041157      11.60643507
Li      39.71768829       3.05760018      14.05044094
Li      42.16169417       4.27441744      10.38961780
Li      43.37851143       0.61359430      17.72163542
Li      40.93450556       1.83041157      16.49444682
Li      39.71768829       3.05760018      18.93845269
Li      42.16169417       4.27441744      15.27762955
Li      43.37851143       0.61359430      22.60964717
Li      40.93450556       1.83041157      21.38245856
Li      39.71768829       3.05760018      23.82646444
Li      42.16169417       4.27441744      20.16564130
Li      43.37851143       0.61359430      27.49765892
Li      40.93450556       1.83041157      26.27047031
Li      39.71768829       3.05760018      28.71447619
Li      42.16169417       4.27441744      25.05365305
Li      43.37851143       0.61359430      32.38567067
Li      40.93450556       1.83041157      31.15848206
Li      39.71768829       3.05760018      33.60248794
Li      42.16169417       4.27441744      29.94166479
Li      43.37851143       0.61359430      37.27368242
Li      40.93450556       1.83041157      36.04649381
Li      39.71768829       3.05760018      38.49049968
Li      42.16169417       4.27441744      34.82967654
Li      43.37851143       0.61359430      42.16169417
Li      40.93450556       1.83041157      40.93450556
Li      39.71768829       3.05760018      43.37851143
Li      42.16169417       4.27441744      39.71768829
Li      43.37851143       0.61359430      47.04970591
Li      40.93450556       1.83041157      45.82251731
Li      39.71768829       3.05760018      48.26652318
Li      42.16169417       4.27441744      44.60570004
Li      43.37851143       5.50160605       3.05760018
Li      40.93450556       6.71842332       1.83041157
Li      39.71768829       7.94561193       4.27441744
Li      42.16169417       9.16242919       0.61359430
Li      43.37851143       5.50160605       7.94561193
Li      40.93450556       6.71842332       6.71842332
Li      39.71768829       7.94561193       9.16242919
Li      42.16169417       9.16242919       5.50160605
Li      43.37851143       5.50160605      12.83362367
Li      40.93450556       6.71842332      11.60643507
Li      39.71768829       7.94561193      14.05044094
Li      42.16169417       9.16242919      10.38961780
Li      43.37851143       5.50160605      17.72163542
Li      40.93450556       6.71842332      16.49444682
Li      39.71768829       7.94561193      18.93845269
Li      42.16169417       9.16242919      15.27762955
Li      43.37851143       5.50160605      22.60964717
Li      40.93450556       6.71842332      21.38245856
Li      39.71768829       7.94561193      23.82646444
Li      42.16169417       9.16242919      20.16564130
Li      43.37851143       5.50160605      27.49765892
Li      40.93450556       6.71842332      26.27047031
Li      39.71768829       7.94561193      28.71447619
Li      42.16169417       9.16242919      25.05365305
Li      43.37851143       5.50160605      32.38567067
Li      40.93450556       6.71842332      31.15848206
Li      39.71768829       7.94561193      33.60248794
Li      42.16169417       9.16242919      29.94166479
Li      43.37851143       5.50160605      37.27368242
Li      40.93450556       6.71842332      36.04649381
Li      39.71768829       7.94561193      38.49049968
Li      42.16169417       9.16242919      34.82967654
Li      43.37851143       5.50160605      42.16169417
Li      40.93450556       6.71842332      40.93450556
Li      39.71768829       7.94561193      43.37851143
Li      42.16169417       9.16242919      39.71768829
Li      43.37851143       5.50160605      47.04970591
Li      40.93450556       6.71842332      45.82251731
Li      39.71768829       7.94561193      48.26652318
Li      42.16169417       9.16242919      44.60570004
Li      43.37851143      10.38961780       3.05760018
Li      40.93450556      11.60643507       1.83041157
Li      39.71768829      12.83362367       4.27441744
Li      42.16169417      14.05044094       0.61359430
Li      43.37851143      10.38961780       7.94561193
Li      40.93450556      11.60643507       6.71842332
Li      39.71768829      12.83362367       9.16242919
Li      42.16169417      14.05044094       5.50160605
Li      43.37851143      10.38961780      12.83362367
Li      40.93450556      11.60643507      11.60643507
Li      39.71768829      12.83362367      14.05044094
Li      42.16169417      14.05044094      10.38961780
Li      43.37851143      10.38961780      17.72163542
Li      40.93450556      11.60643507      16.49444682
Li      39.71768829      12.83362367      18.93845269
Li      42.16169417      14.05044094      15.27762955
Li      43.37851143      10.38961780      22.60964717
Li      40.93450556      11.60643507      21.38245856
Li      39.71768829      12.83362367      23.82646444
Li      42.16169417      14.05044094      20.16564130
Li      43.37851143      10.38961780      27.49765892
Li      40.93450556      11.60643507      26.27047031
Li      39.71768829      12.83362367      28.71447619
Li      42.16169417      14.05044094      25.05365305
Li      43.37851143      10.38961780      32.38567067
Li      40.93450556      11.60643507      31.15848206
Li      39.71768829      12.83362367      33.60248794
Li      42.16169417      14.05044094      29.94166479
Li      43.37851143      10.38961780      37.27368242
Li      40.93450556      11.60643507      36.04649381
Li      39.71768829      12.83362367      38.49049968
Li      42.16169417      14.05044094      34.82967654
Li      43.37851143      10.38961780      42.16169417
Li      40.93450556      11.60643507      40.93450556
Li      39.71768829      12.83362367      43.37851143
Li      42.16169417      14.05044094      39.71768829
Li      43.37851143      10.38961780      47.04970591
Li      40.93450556      11.60643507      45.82251731
Li      39.71768829      12.83362367      48.26652318
Li      42.16169417      14.05044094      44.60570004
Li      43.37851143      15.27762955       3.05760018
Li      40.93450556      16.49444682       1.83041157
Li      39.71768829      17.72163542       4.27441744
Li      42.16169417      18.93845269       0.61359430
Li      43.37851143      15.27762955       7.94561193
Li      40.93450556      16.49444682       6.71842332
Li      39.71768829      17.72163542       9.16242919
Li      42.16169417      18.93845269       5.50160605
Li      43.37851143      15.27762955      12.83362367
Li      40.93450556      16.49444682      11.60643507
Li      39.71768829      17.72163542      14.05044094
Li      42.16169417      18.93845269      10.38961780
Li      43.37851143      15.27762955      17.72163542
Li      40.93450556      16.49444682      16.49444682
Li      39.71768829      17.72163542      18.93845269
Li      42.16169417      18.93845269      15.27762955
Li      43.37851143      15.27762955      22.60964717
Li      40.93450556      16.49444682      21.38245856
Li      39.71768829      17.72163542      23.82646444
Li      42.16169417      18.93845269      20.16564130
Li      43.37851143      15.27762955      27.49765892
Li      40.93450556      16.49444682      26.27047031
Li      39.71768829      17.72163542      28.71447619
Li      42.16169417      18.93845269      25.05365305
Li      43.37851143      15.27762955      32.38567067
Li      40.93450556      16.49444682      31.15848206
Li      39.71768829      17.72163542      33.60248794
Li      42.16169417      18.93845269      29.94166479
Li      43.37851143      15.27762955      37.27368242
Li      40.93450556      16.49444682      36.04649381
Li      39.71768829      17.72163542      38.49049968
Li      42.16169417      18.93845269      34.82967654
Li      43.37851143      15.27762955      42.16169417
Li      40.93450556      16.49444682      40.93450556
Li      39.71768829      17.72163542      43.37851143
Li      42.16169417      18.93845269      39.71768829
Li      43.37851143      15.27762955      47.04970591
Li      40.93450556      16.49444682      45.82251731
Li      39.71768829      17.72163542      48.26652318
Li      42.16169417      18.93845269      44.60570004
Li      43.37851143      20.16564130       3.05760018
Li      40.93450556      21.38245856       1.83041157
Li      39.71768829      22.60964717       4.27441744
Li      42.16169417      23.82646444       0.61359430
Li      43.37851143      20.16564130       7.94561193
Li      40.93450556      21.38245856       6.71842332
Li      39.71768829      22.60964717       9.16242919
Li      42.16169417      23.82646444       5.50160605
Li      43.37851143      20.16564130      12.83362367
Li      40.93450556      21.38245856      11.60643507
Li      39.71768829      22.60964717      14.05044094
Li      42.16169417      23.82646444      10.38961780
Li      43.37851143      20.16564130      17.72163542
Li      40.93450556      21.38245856      16.49444682
Li      39.71768829      22.60964717      18.93845269
Li      42.16169417      23.82646444      15.27762955
Li      43.37851143      20.16564130      22.60964717
Li      40.93450556      21.38245856      21.38245856
Li      39.71768829      22.60964717      23.82646444
Li      42.16169417      23.82646444      20.16564130
Li      43.37851143      20.16564130      27.49765892
Li      40.93450556      21.38245856      26.27047031
Li      39.71768829      22.60964717      28.71447619
Li      42.16169417      23.82646444      25.05365305
Li      43.37851143      20.16564130      32.38567067
Li      40.93450556      21.38245856      31.15848206
Li      39.71768829      22.60964717      33.60248794
Li      42.16169417      23.82646444      29.94166479
Li      43.37851143      20.16564130      37.27368242
Li      40.93450556      21.38245856      36.04649381
Li      39.71768829      22.60964717      38.49049968
Li      42.16169417      23.82646444      34.82967654
Li      43.37851143      20.16564130      42.16169417
Li      40.93450556      21.38245856      40.93450556
Li      39.71768829      22.60964717      43.37851143
Li      42.16169417      23.82646444      39.71768829
Li      43.37851143      20.16564130      47.04970591
Li      40.93450556      21.38245856      45.82251731
Li      39.71768829      22.60964717      48.26652318
Li      42.16169417      23.82646444      44.60570004
Li      43.37851143      25.05365305       3.05760018
Li      40.93450556      26.27047031       1.83041157
Li      39.71768829      27.49765892       4.27441744
Li      42.16169417      28.71447619       0.61359430
Li      43.37851143      25.05365305       7.94561193
Li      40.93450556      26.27047031       6.71842332
Li      39.71768829      27.49765892       9.16242919
Li      42.16169417      28.71447619       5.50160605
Li      43.37851143      25.05365305      12.83362367
Li      40.93450556      26.27047031      11.60643507
Li      39.71768829      27.49765892      14.05044094
Li      42.16169417      28.71447619      10.38961780
Li      43.37851143      25.05365305      17.72163542
Li      40.93450556      26.27047031      16.49444682
Li      39.71768829      27.49765892      18.93845269
Li      42.16169417      28.71447619      15.27762955
Li      43.37851143      25.05365305      22.60964717
Li      40.93450556      26.27047031      21.38245856
Li      39.71768829      27.49765892      23.82646444
Li      42.16169417      28.71447619      20.16564130
Li      43.37851143      25.05365305      27.49765892
Li      40.93450556      26.27047031      26.27047031
Li      39.71768829      27.49765892      28.71447619
Li      42.16169417      28.71447619      25.05365305
Li      43.37851143      25.05365305      32.38567067
Li      40.93450556      26.27047031      31.15848206
Li      39.71768829      27.49765892      33.60248794
Li      42.16169417      28.71447619      29.94166479
Li      43.37851143      25.05365305      37.27368242
Li      40.93450556      26.27047031      36.04649381
Li      39.71768829      27.49765892      38.49049968
Li      42.16169417      28.71447619      34.82967654
Li      43.37851143      25.05365305      42.16169417
Li      40.93450556      26.27047031      40.93450556
Li      39.71768829      27.49765892      43.37851143
Li      42.16169417      28.71447619      39.71768829
Li      43.37851143      25.05365305      47.04970591
Li      40.93450556      26.27047031      45.82251731
Li      39.71768829      27.49765892      48.26652318
Li      42.16169417      28.71447619      44.60570004
Li      43.37851143      29.94166479       3.05760018
Li      40.93450556      31.15848206       1.83041157
Li      39.71768829      32.38567067       4.27441744
Li      42.16169417      33.60248794       0.61359430
Li      43.37851143      29.94166479       7.94561193
Li      40.93450556      31.15848206       6.71842332
Li      39.71768829      32.38567067       9.16242919
Li      42.16169417      33.60248794       5.50160605
Li      43.37851143      29.94166479      12.83362367
Li      40.93450556      31.15848206      11.60643507
Li      39.71768829      32.38567067      14.05044094
Li      42.16169417      33.60248794      10.38961780
Li      43.37851143      29.94166479      17.72163542
Li      40.93450556      31.15848206      16.49444682
Li      39.71768829      32.38567067      18.93845269
Li      42.16169417      33.60248794      15.27762955
Li      43.37851143      29.94166479      22.60964717
Li      40.93450556      31.15848206      21.38245856
Li      39.71768829      32.38567067      23.82646444
Li      42.16169417      33.60248794      20.16564130
Li      43.37851143      29.94166479      27.49765892
Li      40.93450556      31.15848206      26.27047031
Li      39.71768829      32.38567067      28.71447619
Li      42.16169417      33.60248794      25.05365305
Li      43.37851143      29.94166479      32.38567067
Li      40.93450556      31.15848206      31.15848206
Li      39.71768829      32.38567067      33.60248794
Li      42.16169417      33.60248794      29.94166479
Li      43.37851143      29.94166479      37.27368242
Li      40.93450556      31.15848206      36.04649381
Li      39.71768829      32.38567067      38.49049968
Li      42.16169417      33.60248794      34.82967654
Li      43.37851143      29.94166479      42.16169417
Li      40.93450556      31.15848206      40.93450556
Li      39.71768829      32.38567067      43.37851143
Li      42.16169417      33.60248794      39.71768829
Li      43.37851143      29.94166479      47.04970591
Li      40.93450556      31.15848206      45.82251731
Li      39.71768829      32.38567067      48.26652318
Li      42.16169417      33.60248794      44.60570004
Li      43.37851143      34.82967654       3.05760018
Li      40.93450556      36.04649381       1.83041157
Li      39.71768829      37.27368242       4.27441744
Li      42.16169417      38.49049968       0.61359430
Li      43.37851143      34.82967654       7.94561193
Li      40.93450556      36.04649381       6.71842332
Li      39.71768829      37.27368242       9.16242919
Li      42.16169417      38.49049968       5.50160605
Li      43.37851143      34.82967654      12.83362367
Li      40.93450556      36.04649381      11.60643507
Li      39.71768829      37.27368242      14.05044094
Li      42.16169417      38.49049968      10.38961780
Li      43.37851143      34.82967654      17.72163542
Li      40.93450556      36.04649381      16.49444682
Li      39.71768829      37.27368242      18.93845269
Li      42.16169417      38.49049968      15.27762955
Li      43.37851143      34.82967654      22.60964717
Li      40.93450556      36.04649381      21.38245856
Li      39.71768829      37.27368242      23.82646444
Li      42.16169417      38.49049968      20.16564130
Li      43.37851143      34.82967654      27.49765892
Li      40.93450556      36.04649381      26.27047031
Li      39.71768829      37.27368242      28.71447619
Li      42.16169417      38.49049968      25.05365305
Li      43.37851143      34.82967654      32.38567067
Li      40.93450556      36.04649381      31.15848206
Li      39.71768829      37.27368242      33.60248794
Li      42.16169417      38.49049968      29.94166479
Li      43.37851143      34.82967654      37.27368242
Li      40.93450556      36.04649381      36.04649381
Li      39.71768829      37.27368242      38.49049968
Li      42.16169417      38.49049968      34.82967654
Li      43.37851143      34.82967654      42.16169417
Li      40.93450556      36.04649381      40.93450556
Li      39.71768829      37.27368242      43.37851143
Li      42.16169417      38.49049968      39.71768829
Li      43.37851143      34.82967654      47.04970591
Li      40.93450556      36.04649381      45.82251731
Li      39.71768829      37.27368242      48.26652318
Li      42.16169417      38.49049968      44.60570004
Li      43.37851143      39.71768829       3.05760018
Li      40.93450556      40.93450556       1.83041157
Li      39.71768829      42.16169417       4.27441744
Li      42.16169417      43.37851143       0.61359430
Li      43.37851143      39.71768829       7.94561193
Li      40.93450556      40.93450556       6.71842332
Li      39.71768829      42.16169417       9.16242919
Li      42.16169417      43.37851143       5.50160605
Li      43.37851143      39.71768829      12.83362367
Li      40.93450556      40.93450556      11.60643507
Li      39.71768829      42.16169417      14.05044094
Li      42.16169417      43.37851143      10.38961780
Li      43.37851143      39.71768829      17.72163542
Li      40.93450556      40.93450556      16.49444682
Li      39.71768829      42.16169417      18.93845269
Li      42.16169417      43.37851143      15.27762955
Li      43.37851143      39.71768829      22.60964717
Li      40.93450556      40.93450556      21.38245856
Li      39.71768829      42.16169417      23.82646444
Li      42.16169417      43.37851143      20.16564130
Li      43.37851143      39.71768829      27.49765892
Li      40.93450556      40.93450556      26.27047031
Li      39.71768829      42.16169417      28.71447619
Li      42.16169417      43.37851143      25.05365305
Li      43.37851143      39.71768829      32.38567067
Li      40.93450556      40.93450556      31.15848206
Li      39.71768829      42.16169417      33.60248794
Li      42.16169417      43.37851143      29.94166479
Li      43.37851143      39.71768829      37.27368242
Li      40.93450556      40.93450556      36.04649381
Li      39.71768829      42.16169417      38.49049968
Li      42.16169417      43.37851143      34.82967654
Li      43.37851143      39.71768829      42.16169417
Li      40.93450556      40.93450556      40.93450556
Li      39.71768829      42.16169417      43.37851143
Li      42.16169417      43.37851143      39.71768829
Li      43.37851143      39.71768829      47.04970591
Li      40.93450556      40.93450556      45.82251731
Li      39.71768829      42.16169417      48.26652318
Li      42.16169417      43.37851143      44.60570004
Li      43.37851143      44.60570004       3.05760018
Li      40.93450556      45.82251731       1.83041157
Li      39.71768829      47.04970591       4.27441744
Li      42.16169417      48.26652318       0.61359430
Li      43.37851143      44.60570004       7.94561193
Li      40.93450556      45.82251731       6.71842332
Li      39.71768829      47.04970591       9.16242919
Li      42.16169417      48.26652318       5.50160605
Li      43.37851143      44.60570004      12.83362367
Li      40.93450556      45.82251731      11.60643507
Li      39.71768829      47.04970591      14.05044094
Li      42.16169417      48.26652318      10.38961780
Li      43.37851143      44.60570004      17.72163542
Li      40.93450556      45.82251731      16.49444682
Li      39.71768829      47.04970591      18.93845269
Li      42.16169417      48.26652318      15.27762955
Li      43.37851143      44.60570004      22.60964717
Li      40.93450556      45.82251731      21.38245856
Li      39.71768829      47.04970591      23.82646444
Li      42.16169417      48.26652318      20.16564130
Li      43.37851143      44.60570004      27.49765892
Li      40.93450556      45.82251731      26.27047031
Li      39.71768829      47.04970591      28.71447619
Li      42.16169417      48.26652318      25.05365305
Li      43.37851143      44.60570004      32.38567067
Li      40.93450556      45.82251731      31.15848206
Li      39.71768829      47.04970591      33.60248794
Li      42.16169417      48.26652318      29.94166479
Li      43.37851143      44.60570004      37.27368242
Li      40.93450556      45.82251731      36.04649381
Li      39.71768829      47.04970591      38.49049968
Li      42.16169417      48.26652318      34.82967654
Li      43.37851143      44.60570004      42.16169417
Li      40.93450556      45.82251731      40.93450556
Li      39.71768829      47.04970591      43.37851143
Li      42.16169417      48.26652318      39.71768829
Li      43.37851143      44.60570004      47.04970591
Li      40.93450556      45.82251731      45.82251731
Li      39.71768829      47.04970591      48.26652318
Li      42.16169417      48.26652318      44.60570004
Li      48.26652318       0.61359430       3.05760018
Li      45.82251731       1.83041157       1.83041157
Li      44.60570004       3.05760018       4.27441744
Li      47.04970591       4.27441744       0.61359430
Li      48.26652318       0.61359430       7.94561193
Li      45.82251731       1.83041157       6.71842332
Li      44.60570004       3.05760018       9.16242919
Li      47.04970591       4.27441744       5.50160605
Li      48.26652318       0.61359430      12.83362367
Li      45.82251731       1.83041157      11.60643507
Li      44.60570004       3.05760018      14.05044094
Li      47.04970591       4.27441744      10.38961780
Li      48.26652318       0.61359430      17.72163542
Li      45.82251731       1.83041157      16.49444682
Li      44.60570004       3.05760018      18.93845269
Li      47.04970591       4.27441744      15.27762955
Li      48.26652318       0.61359430      22.60964717
Li      45.82251731       1.83041157      21.38245856
Li      44.60570004       3.05760018      23.82646444
Li      47.04970591       4.27441744      20.16564130
Li      48.26652318       0.61359430      27.49765892
Li      45.82251731       1.83041157      26.27047031
Li      44.60570004       3.05760018      28.71447619
Li      47.04970591       4.27441744      25.05365305
Li      48.26652318       0.61359430      32.38567067
Li      45.82251731       1.83041157      31.15848206
Li      44.60570004       3.05760018      33.60248794
Li      47.04970591       4.27441744      29.94166479
Li      48.26652318       0.61359430      37.27368242
Li      45.82251731       1.83041157      36.04649381
Li      44.60570004       3.05760018      38.49049968
Li      47.04970591       4.27441744      34.82967654
Li      48.26652318       0.61359430      42.16169417
Li      45.82251731       1.83041157      40.93450556
Li      44.60570004       3.05760018      43.37851143
Li      47.04970591       4.27441744      39.71768829
Li      48.26652318       0.61359430      47.04970591
Li      45.82251731       1.83041157      45.82251731
Li      44.60570004       3.05760018      48.26652318
Li      47.04970591       4.27441744      44.60570004
Li      48.26652318       5.50160605       3.05760018
Li      45.82251731       6.71842332       1.83041157
Li      44.60570004       7.94561193       4.27441744
Li      47.04970591       9.16242919       0.61359430
Li      48.26652318       5.50160605       7.94561193
Li      45.82251731       6.71842332       6.71842332
Li      44.60570004       7.94561193       9.16242919
Li      47.04970591       9.16242919       5.50160605
Li      48.26652318       5.50160605      12.83362367
Li      45.82251731       6.71842332      11.60643507
Li      44.60570004       7.94561193      14.05044094
Li      47.04970591       9.16242919      10.38961780
Li      48.26652318       5.50160605      17.72163542
Li      45.82251731       6.71842332      16.49444682
Li      44.60570004       7.94561193      18.93845269
Li      47.04970591       9.16242919      15.27762955
Li      48.26652318       5.50160605      22.60964717
Li      45.82251731       6.71842332      21.38245856
Li      44.60570004       7.94561193      23.82646444
Li      47.04970591       9.16242919      20.16564130
Li      48.26652318       5.50160605      27.49765892
Li      45.82251731       6.71842332      26.27047031
Li      44.60570004       7.94561193      28.71447619
Li      47.04970591       9.16242919      25.05365305
Li      48.26652318       5.50160605      32.38567067
Li      45.82251731       6.71842332      31.15848206
Li      44.60570004       7.94561193      33.60248794
Li      47.04970591       9.16242919      29.94166479
Li      48.26652318       5.50160605      37.27368242
Li      45.82251731       6.71842332      36.04649381
Li      44.60570004       7.94561193      38.49049968
Li      47.04970591       9.16242919      34.82967654
Li      48.26652318       5.50160605      42.16169417
Li      45.82251731       6.71842332      40.93450556
Li      44.60570004       7.94561193      43.37851143
Li      47.04970591       9.16242919      39.71768829
Li      48.26652318       5.50160605      47.04970591
Li      45.82251731       6.71842332      45.82251731
Li      44.60570004       7.94561193      48.26652318
Li      47.04970591       9.16242919      44.60570004
Li      48.26652318      10.38961780       3.05760018
Li      45.82251731      11.60643507       1.83041157
Li      44.60570004      12.83362367       4.27441744
Li      47.04970591      14.05044094       0.61359430
Li      48.26652318      10.38961780       7.94561193
Li      45.82251731      11.60643507       6.71842332
Li      44.60570004      12.83362367       9.16242919
Li      47.04970591      14.05044094       5.50160605
Li      48.26652318      10.38961780      12.83362367
Li      45.82251731      11.60643507      11.60643507
Li      44.60570004      12.83362367      14.05044094
Li      47.04970591      14.05044094      10.38961780
Li      48.26652318      10.38961780      17.72163542
Li      45.82251731      11.60643507      16.49444682
Li      44.60570004      12.83362367      18.93845269
Li      47.04970591      14.05044094      15.27762955
Li      48.26652318      10.38961780      22.60964717
Li      45.82251731      11.60643507      21.38245856
Li      44.60570004      12.83362367      23.82646444
Li      47.04970591      14.05044094      20.16564130
Li      48.26652318      10.38961780      27.49765892
Li      45.82251731      11.60643507      26.27047031
Li      44.60570004      12.83362367      28.71447619
Li      47.04970591      14.05044094      25.05365305
Li      48.26652318      10.38961780      32.38567067
Li      45.82251731      11.60643507      31.15848206
Li      44.60570004      12.83362367      33.60248794
Li      47.04970591      14.05044094      29.94166479
Li      48.26652318      10.38961780      37.27368242
Li      45.82251731      11.60643507      36.04649381
Li      44.60570004      12.83362367      38.49049968
Li      47.04970591      14.05044094      34.82967654
Li      48.26652318      10.38961780      42.16169417
Li      45.82251731      11.60643507      40.93450556
Li      44.60570004      12.83362367      43.37851143
Li      47.04970591      14.05044094      39.71768829
Li      48.26652318      10.38961780      47.04970591
Li      45.82251731      11.60643507      45.82251731
Li      44.60570004      12.83362367      48.26652318
Li      47.04970591      14.05044094      44.60570004
Li      48.26652318      15.27762955       3.05760018
Li      45.82251731      16.49444682       1.83041157
Li      44.60570004      17.72163542       4.27441744
Li      47.04970591      18.93845269       0.61359430
Li      48.26652318      15.27762955       7.94561193
Li      45.82251731      16.49444682       6.71842332
Li      44.60570004      17.72163542       9.16242919
Li      47.04970591      18.93845269       5.50160605
Li      48.26652318      15.27762955      12.83362367
Li      45.82251731      16.49444682      11.60643507
Li      44.60570004      17.72163542      14.05044094
Li      47.04970591      18.93845269      10.38961780
Li      48.26652318      15.27762955      17.72163542
Li      45.82251731      16.49444682      16.49444682
Li      44.60570004      17.72163542      18.93845269
Li      47.04970591      18.93845269      15.27762955
Li      48.26652318      15.27762955      22.60964717
Li      45.82251731      16.49444682      21.38245856
Li      44.60570004      17.72163542      23.82646444
Li      47.04970591      18.93845269      20.16564130
Li      48.26652318      15.27762955      27.49765892
Li      45.82251731      16.49444682      26.27047031
Li      44.60570004      17.72163542      28.71447619
Li      47.04970591      18.93845269      25.05365305
Li      48.26652318      15.27762955      32.38567067
Li      45.82251731      16.49444682      31.15848206
Li      44.60570004      17.72163542      33.60248794
Li      47.04970591      18.93845269      29.94166479
Li      48.26652318      15.27762955      37.27368242
Li      45.82251731      16.49444682      36.04649381
Li      44.60570004      17.72163542      38.49049968
Li      47.04970591      18.93845269      34.82967654
Li      48.26652318      15.27762955      42.16169417
Li      45.82251731      16.49444682      40.93450556
Li      44.60570004      17.72163542      43.37851143
Li      47.04970591      18.93845269      39.71768829
Li      48.26652318      15.27762955      47.04970591
Li      45.82251731      16.49444682      45.82251731
Li      44.60570004      17.72163542      48.26652318
Li      47.04970591      18.93845269      44.60570004
Li      48.26652318      20.16564130       3.05760018
Li      45.82251731      21.38245856       1.83041157
Li      44.60570004      22.60964717       4.27441744
Li      47.04970591      23.82646444       0.61359430
Li      48.26652318      20.16564130       7.94561193
Li      45.82251731      21.38245856       6.71842332
Li      44.60570004      22.60964717       9.16242919
Li      47.04970591      23.82646444       5.50160605
Li      48.26652318      20.16564130      12.83362367
Li      45.82251731      21.38245856      11.60643507
Li      44.60570004      22.60964717      14.05044094
Li      47.04970591      23.82646444      10.38961780
Li      48.26652318      20.16564130      17.72163542
Li      45.82251731      21.38245856      16.49444682
Li      44.60570004      22.60964717      18.93845269
Li      47.04970591      23.82646444      15.27762955
Li      48.26652318      20.16564130      22.60964717
Li      45.82251731      21.38245856      21.38245856
Li      44.60570004      22.60964717      23.82646444
Li      47.04970591      23.82646444      20.16564130
Li      48.26652318      20.16564130      27.49765892
Li      45.82251731      21.38245856      26.27047031
Li      44.60570004      22.60964717      28.71447619
Li      47.04970591      23.82646444      25.05365305
Li      48.26652318      20.16564130      32.38567067
Li      45.82251731      21.38245856      31.15848206
Li      44.60570004      22.60964717      33.60248794
Li      47.04970591      23.82646444      29.94166479
Li      48.26652318      20.16564130      37.27368242
Li      45.82251731      21.38245856      36.04649381
Li      44.60570004      22.60964717      38.49049968
Li      47.04970591      23.82646444      34.82967654
Li      48.26652318      20.16564130      42.16169417
Li      45.82251731      21.38245856      40.93450556
Li      44.60570004      22.60964717      43.37851143
Li      47.04970591      23.82646444      39.71768829
Li      48.26652318      20.16564130      47.04970591
Li      45.82251731      21.38245856      45.82251731
Li      44.60570004      22.60964717      48.26652318
Li      47.04970591      23.82646444      44.60570004
Li      48.26652318      25.05365305       3.05760018
Li      45.82251731      26.27047031       1.83041157
Li      44.60570004      27.49765892       4.27441744
Li      47.04970591      28.71447619       0.61359430
Li      48.26652318      25.05365305       7.94561193
Li      45.82251731      26.27047031       6.71842332
Li      44.60570004      27.49765892       9.16242919
Li      47.04970591      28.71447619       5.50160605
Li      48.26652318      25.05365305      12.83362367
Li      45.82251731      26.27047031      11.60643507
Li      44.60570004      27.49765892      14.05044094
Li      47.04970591      28.71447619      10.38961780
Li      48.26652318      25.05365305      17.72163542
Li      45.82251731      26.27047031      16.49444682
Li      44.60570004      27.49765892      18.93845269
Li      47.04970591      28.71447619      15.27762955
Li      48.26652318      25.05365305      22.60964717
Li      45.82251731      26.27047031      21.38245856
Li      44.60570004      27.49765892      23.82646444
Li      47.04970591      28.71447619      20.16564130
Li      48.26652318      25.05365305      27.49765892
Li      45.82251731      26.27047031      26.27047031
Li      44.60570004      27.49765892      28.71447619
Li      47.04970591      28.71447619      25.05365305
Li      48.26652318      25.05365305      32.38567067
Li      45.82251731      26.27047031      31.15848206
Li      44.60570004      27.49765892      33.60248794
Li      47.04970591      28.71447619      29.94166479
Li      48.26652318      25.05365305      37.27368242
Li      45.82251731      26.27047031      36.04649381
Li      44.60570004      27.49765892      38.49049968
Li      47.04970591      28.71447619      34.82967654
Li      48.26652318      25.05365305      42.16169417
Li      45.82251731      26.27047031      40.93450556
Li      44.60570004      27.49765892      43.37851143
Li      47.04970591      28.71447619      39.71768829
Li      48.26652318      25.05365305      47.04970591
Li      45.82251731      26.27047031      45.82251731
Li      44.60570004      27.49765892      48.26652318
Li      47.04970591      28.71447619      44.60570004
Li      48.26652318      29.94166479       3.05760018
Li      45.82251731      31.15848206       1.83041157
Li      44.60570004      32.38567067       4.27441744
Li      47.04970591      33.60248794       0.61359430
Li      48.26652318      29.94166479       7.94561193
Li      45.82251731      31.15848206       6.71842332
Li      44.60570004      32.38567067       9.16242919
Li      47.04970591      33.60248794       5.50160605
Li      48.26652318      29.94166479      12.83362367
Li      45.82251731      31.15848206      11.60643507
Li      44.60570004      32.38567067      14.05044094
Li      47.04970591      33.60248794      10.38961780
Li      48.26652318      29.94166479      17.72163542
Li      45.82251731      31.15848206      16.49444682
Li      44.60570004      32.38567067      18.93845269
Li      47.04970591      33.60248794      15.27762955
Li      48.26652318      29.94166479      22.60964717
Li      45.82251731      31.15848206      21.38245856
Li      44.60570004      32.38567067      23.82646444
Li      47.04970591      33.60248794      20.16564130
Li      48.26652318      29.94166479      27.49765892
Li      45.82251731      31.15848206      26.27047031
Li      44.60570004      32.38567067      28.71447619
Li      47.04970591      33.60248794      25.05365305
Li      48.26652318      29.94166479      32.38567067
Li      45.82251731      31.15848206      31.15848206
Li      44.60570004      32.38567067      33.60248794
Li      47.04970591      33.60248794      29.94166479
Li      48.26652318      29.94166479      37.27368242
Li      45.82251731      31.15848206      36.04649381
Li      44.60570004      32.38567067      38.49049968
Li      47.04970591      33.60248794      34.82967654
Li      48.26652318      29.94166479      42.16169417
Li      45.82251731      31.15848206      40.93450556
Li      44.60570004      32.38567067      43.37851143
Li      47.04970591      33.60248794      39.71768829
Li      48.26652318      29.94166479      47.04970591
Li      45.82251731      31.15848206      45.82251731
Li      44.60570004      32.38567067      48.26652318
Li      47.04970591      33.60248794      44.60570004
Li      48.26652318      34.82967654       3.05760018
Li      45.82251731      36.04649381       1.83041157
Li      44.60570004      37.27368242       4.27441744
Li      47.04970591      38.49049968       0.61359430
Li      48.26652318      34.82967654       7.94561193
Li      45.82251731      36.04649381       6.71842332
Li      44.60570004      37.27368242       9.16242919
Li      47.04970591      38.49049968       5.50160605
Li      48.26652318      34.82967654      12.83362367
Li      45.82251731      36.04649381      11.60643507
Li      44.60570004      37.27368242      14.05044094
Li      47.04970591      38.49049968      10.38961780
Li      48.26652318      34.82967654      17.72163542
Li      45.82251731      36.04649381      16.49444682
Li      44.60570004      37.27368242      18.93845269
Li      47.04970591      38.49049968      15.27762955
Li      48.26652318      34.82967654      22.60964717
Li      45.82251731      36.04649381      21.38245856
Li      44.60570004      37.27368242      23.82646444
Li      47.04970591      38.49049968      20.16564130
Li      48.26652318      34.82967654      27.49765892
Li      45.82251731      36.04649381      26.27047031
Li      44.60570004      37.27368242      28.71447619
Li      47.04970591      38.49049968      25.05365305
Li      48.26652318      34.82967654      32.38567067
Li      45.82251731      36.04649381      31.15848206
Li      44.60570004      37.27368242      33.60248794
Li      47.04970591      38.49049968      29.94166479
Li      48.26652318      34.82967654      37.27368242
Li      45.82251731      36.04649381      36.04649381
Li      44.60570004      37.27368242      38.49049968
Li      47.04970591      38.49049968      34.82967654
Li      48.26652318      34.82967654      42.16169417
Li      45.82251731      36.04649381      40.93450556
Li      44.60570004      37.27368242      43.37851143
Li      47.04970591      38.49049968      39.71768829
Li      48.26652318      34.82967654      47.04970591
Li      45.82251731      36.04649381      45.82251731
Li      44.60570004      37.27368242      48.26652318
Li      47.04970591      38.49049968      44.60570004
Li      48.26652318      39.71768829       3.05760018
Li      45.82251731      40.93450556       1.83041157
Li      44.60570004      42.16169417       4.27441744
Li      47.04970591      43.37851143       0.61359430
Li      48.26652318      39.71768829       7.94561193
Li      45.82251731      40.93450556       6.71842332
Li      44.60570004      42.16169417       9.16242919
Li      47.04970591      43.37851143       5.50160605
Li      48.26652318      39.71768829      12.83362367
Li      45.82251731      40.93450556      11.60643507
Li      44.60570004      42.16169417      14.05044094
Li      47.04970591      43.37851143      10.38961780
Li      48.26652318      39.71768829      17.72163542
Li      45.82251731      40.93450556      16.49444682
Li      44.60570004      42.16169417      18.93845269
Li      47.04970591      43.37851143      15.27762955
Li      48.26652318      39.71768829      22.60964717
Li      45.82251731      40.93450556      21.38245856
Li      44.60570004      42.16169417      23.82646444
Li      47.04970591      43.37851143      20.16564130
Li      48.26652318      39.71768829      27.49765892
Li      45.82251731      40.93450556      26.27047031
Li      44.60570004      42.16169417      28.71447619
Li      47.04970591      43.37851143      25.05365305
Li      48.26652318      39.71768829      32.38567067
Li      45.82251731      40.93450556      31.15848206
Li      44.60570004      42.16169417      33.60248794
Li      47.04970591      43.37851143      29.94166479
Li      48.26652318      39.71768829      37.27368242
Li      45.82251731      40.93450556      36.04649381
Li      44.60570004      42.16169417      38.49049968
Li      47.04970591      43.37851143      34.82967654
Li      48.26652318      39.71768829      42.16169417
Li      45.82251731      40.93450556      40.93450556
Li      44.60570004      42.16169417      43.37851143
Li      47.04970591      43.37851143      39.71768829
Li      48.26652318      39.71768829      47.04970591
Li      45.82251731      40.93450556      45.82251731
Li      44.60570004      42.16169417      48.26652318
Li      47.04970591      43.37851143      44.60570004
Li      48.26652318      44.60570004       3.05760018
Li      45.82251731      45.82251731       1.83041157
Li      44.60570004      47.04970591       4.27441744
Li      47.04970591      48.26652318       0.61359430
Li      48.26652318      44.60570004       7.94561193
Li      45.82251731      45.82251731       6.71842332
Li      44.60570004      47.04970591       9.16242919
Li      47.04970591      48.26652318       5.50160605
Li      48.26652318      44.60570004      12.83362367
Li      45.82251731      45.82251731      11.60643507
Li      44.60570004      47.04970591      14.05044094
Li      47.04970591      48.26652318      10.38961780
Li      48.26652318      44.60570004      17.72163542
Li      45.82251731      45.82251731      16.49444682
Li      44.60570004      47.04970591      18.93845269
Li      47.04970591      48.26652318      15.27762955
Li      48.26652318      44.60570004      22.60964717
Li      45.82251731      45.82251731      21.38245856
Li      44.60570004      47.04970591      23.82646444
Li      47.04970591      48.26652318      20.16564130
Li      48.26652318      44.60570004      27.49765892
Li      45.82251731      45.82251731      26.27047031
Li      44.60570004      47.04970591      28.71447619
Li      47.04970591      48.26652318      25.05365305
Li      48.26652318      44.60570004      32.38567067
Li      45.82251731      45.82251731      31.15848206
Li      44.60570004      47.04970591      33.60248794
Li      47.04970591      48.26652318      29.94166479
Li      48.26652318      44.60570004      37.27368242
Li      45.82251731      45.82251731      36.04649381
Li      44.60570004      47.04970591      38.49049968
Li      47.04970591      48.26652318      34.82967654
Li      48.26652318      44.60570004      42.16169417
Li      45.82251731      45.82251731      40.93450556
Li      44.60570004      47.04970591      43.37851143
Li      47.04970591      48.26652318      39.71768829
Li      48.26652318      44.60570004      47.04970591
Li      45.82251731      45.82251731      45.82251731
Li      44.60570004      47.04970591      48.26652318
Li      47.04970591      48.26652318      44.60570004
