216
Lattice="10.981546512780493 0.0 0.0 0.0 10.981546512780493 0.0 0.0 0.0 10.981546512780493" Properties=species:S:1:pos:R:3 pbc="T T T"
C        0.00000000       0.00000000       0.00000000
C        0.00000000       1.83025775       1.83025775
C        1.83025775       0.00000000       1.83025775
C        1.83025775       1.83025775       0.00000000
C        0.91512888       0.91512888       0.91512888
C        0.91512888       2.74538663       2.74538663
C        2.74538663       0.91512888       2.74538663
C        2.74538663       2.74538663       0.91512888
C        0.00000000       0.00000000       3.66051550
C        0.00000000       1.83025775       5.49077326
C        1.83025775       0.00000000       5.49077326
C        1.83025775       1.83025775       3.66051550
C        0.91512888       0.91512888       4.57564438
C        0.91512888       2.74538663       6.40590213
C        2.74538663       0.91512888       6.40590213
C        2.74538663       2.74538663       4.57564438
C        0.00000000       0.00000000       7.32103101
C        0.00000000       1.83025775       9.15128876
C        1.83025775       0.00000000       9.15128876
C        1.83025775       1.83025775       7.32103101
C        0.91512888       0.91512888       8.23615988
C        0.91512888       2.74538663      10.06641764
C        2.74538663       0.91512888      10.06641764
C        2.74538663       2.74538663       8.23615988
C        0.00000000       3.66051550       0.00000000
C        0.00000000       5.49077326       1.83025775
C        1.83025775       3.66051550       1.83025775
C        1.83025775       5.49077326       0.00000000
C        0.91512888       4.57564438       0.91512888
C        0.91512888       6.40590213       2.74538663
C        2.74538663       4.57564438       2.74538663
C        2.74538663       6.40590213       0.91512888
C        0.00000000       3.66051550       3.66051550
C        0.00000000       5.49077326       5.49077326
C        1.83025775       3.66051550       5.49077326
C        1.83025775       5.49077326       3.66051550
C        0.91512888       4.57564438       4.57564438
C        0.91512888       6.40590213       6.40590213
C        2.74538663       4.57564438       6.40590213
C        2.74538663       6.40590213       4.57564438
C        0.00000000       3.66051550       7.32103101
C        0.00000000       5.49077326       9.15128876
C        1.83025775       3.66051550       9.15128876
C        1.83025775       5.49077326       7.32103101
C        0.91512888       4.57564438       8.23615988
C        0.91512888       6.40590213      10.06641764
C        2.74538663       4.57564438      10.06641764
C        2.74538663       6.40590213       8.23615988
C        0.00000000       7.32103101       0.00000000
C        0.00000000       9.15128876       1.83025775
C        1.83025775       7.32103101       1.83025775
C        1.83025775       9.15128876       0.00000000
C        0.91512888       8.23615988       0.91512888
C        0.91512888      10.06641764       2.74538663
C        2.74538663       8.23615988       2.74538663
C        2.74538663      10.06641764       0.91512888
C        0.00000000       7.32103101       3.66051550
C        0.00000000       9.15128876       5.49077326
C        1.83025775       7.32103101       5.49077326
C        1.83025775       9.15128876       3.66051550
C        0.91512888       8.23615988       4.57564438
C        0.91512888      10.06641764       6.40590213
C        2.74538663       8.23615988       6.40590213
C        2.74538663      10.06641764       4.57564438
C        0.00000000       7.32103101       7.32103101
C        0.00000000       9.15128876       9.15128876
C        1.83025775       7.32103101       9.15128876
C        1.83025775       9.15128876       7.32103101
C        0.91512888       8.23615988       8.23615988
C        0.91512888      10.06641764      10.06641764
C        2.74538663       8.23615988      10.06641764
C        2.74538663      10.06641764       8.23615988
C        3.66051550       0.00000000       0.00000000
C        3.66051550       1.83025775       1.83025775
C        5.49077326       0.00000000       1.83025775
C        5.49077326       1.83025775       0.00000000
C        4.57564438       0.91512888       0.91512888
C        4.57564438       2.74538663       2.74538663
C        6.40590213       0.91512888       2.74538663
C        6.40590213       2.74538663       0.91512888
C        3.66051550       0.00000000       3.66051550
C        3.66051550       1.83025775       5.49077326
C        5.49077326       0.00000000       5.49077326
C        5.49077326       1.83025775       3.66051550
C        4.57564438       0.91512888       4.57564438
C        4.57564438       2.74538663       6.40590213
C        6.40590213       0.91512888       6.40590213
C        6.40590213       2.74538663       4.57564438
C        3.66051550       0.00000000       7.32103101
C        3.66051550       1.83025775       9.15128876
C        5.49077326       0.00000000       9.15128876
C        5.49077326       1.83025775       7.32103101
C        4.57564438       0.91512888       8.23615988
C        4.57564438       2.74538663      10.06641764
C        6.40590213       0.91512888      10.06641764
C        6.40590213       2.74538663       8.23615988
C        3.66051550       3.66051550       0.00000000
C        3.66051550       5.49077326       1.83025775
C        5.49077326       3.66051550       1.83025775
C        5.49077326       5.49077326       0.00000000
C        4.57564438       4.57564438       0.91512888
C        4.57564438       6.40590213       2.74538663
C        6.40590213       4.57564438       2.74538663
C        6.40590213       6.40590213       0.91512888
C        3.66051550       3.66051550       3.66051550
C        3.66051550       5.49077326       5.49077326
C        5.49077326       3.66051550       5.49077326
C        5.49077326       5.49077326       3.66051550
C        4.57564438       4.57564438       4.57564438
C        4.57564438       6.40590213       6.40590213
C        6.40590213       4.57564438       6.40590213
C        6.40590213       6.40590213       4.57564438
C        3.66051550       3.66051550       7.32103101
C        3.66051550       5.49077326       9.15128876
C        5.49077326       3.66051550       9.15128876
C        5.49077326       5.49077326       7.32103101
C        4.57564438       4.57564438       8.23615988
C        4.57564438       6.40590213      10.06641764
C        6.40590213       4.57564438      10.06641764
C        6.40590213       6.40590213       8.23615988
C        3.66051550       7.32103101       0.00000000
C        3.66051550       9.15128876       1.83025775
C        5.49077326       7.32103101       1.83025775
C        5.49077326       9.15128876       0.00000000
C        4.57564438       8.23615988       0.91512888
C        4.57564438      10.06641764       2.74538663
C        6.40590213       8.23615988       2.74538663
C        6.40590213      10.06641764       0.91512888
C        3.66051550       7.32103101       3.66051550
C        3.66051550       9.15128876       5.49077326
C        5.49077326       7.32103101       5.49077326
C        5.49077326       9.15128876       3.66051550
C        4.57564438       8.23615988       4.57564438
C        4.57564438      10.06641764       6.40590213
C        6.40590213       8.23615988       6.40590213
C        6.40590213      10.06641764       4.57564438
C        3.66051550       7.32103101       7.32103101
C        3.66051550       9.15128876       9.15128876
C        5.49077326       7.32103101       9.15128876
C        5.49077326       9.15128876       7.32103101
C        4.57564438       8.23615988       8.23615988
C        4.57564438      10.06641764      10.06641764
C        6.40590213       8.23615988      10.06641764
C        6.40590213      10.06641764       8.23615988
C        7.32103101       0.00000000       0.00000000
C        7.32103101       1.83025775       1.83025775
C        9.15128876       0.00000000       1.83025775
C        9.15128876       1.83025775       0.00000000
C        8.23615988       0.91512888       0.91512888
C        8.23615988       2.74538663       2.74538663
C       10.06641764       0.91512888       2.74538663
C       10.06641764       2.74538663       0.91512888
C        7.32103101       0.00000000       3.66051550
C        7.32103101       1.83025775       5.49077326
C        9.15128876       0.00000000       5.49077326
C        9.15128876       1.83025775       3.66051550
C        8.23615988       0.91512888       4.57564438
C        8.23615988       2.74538663       6.40590213
C       10.06641764       0.91512888       6.40590213
C       10.06641764       2.74538663       4.57564438
C        7.32103101       0.00000000       7.32103101
C        7.32103101       1.83025775       9.15128876
C        9.15128876       0.00000000       9.15128876
C        9.15128876       1.83025775       7.32103101
C        8.23615988       0.91512888       8.23615988
C        8.23615988       2.74538663      10.06641764
C       10.06641764       0.91512888      10.06641764
C       10.06641764       2.74538663       8.23615988
C        7.32103101       3.66051550       0.00000000
C        7.32103101       5.49077326       1.83025775
C        9.15128876       3.66051550       1.83025775
C        9.15128876       5.49077326       0.00000000
C        8.23615988       4.57564438       0.91512888
C        8.23615988       6.40590213       2.74538663
C       10.06641764       4.57564438       2.74538663
C       10.06641764       6.40590213       0.91512888
C        7.32103101       3.66051550       3.66051550
C        7.32103101       5.49077326       5.49077326
C        9.15128876       3.66051550       5.49077326
C        9.15128876       5.49077326       3.66051550
C        8.23615988       4.57564438       4.57564438
C        8.23615988       6.40590213       6.40590213
C       10.06641764       4.57564438       6.40590213
C       10.06641764       6.40590213       4.57564438
C        7.32103101       3.66051550       7.32103101
C        7.32103101       5.49077326       9.15128876
C        9.15128876       3.66051550       9.15128876
C        9.15128876       5.49077326       7.32103101
C        8.23615988       4.57564438       8.23615988
C        8.23615988       6.40590213      10.06641764
C       10.06641764       4.57564438      10.06641764
C       10.06641764       6.40590213       8.23615988
C        7.32103101       7.32103101       0.00000000
C        7.32103101       9.15128876       1.83025775
C        9.15128876       7.32103101       1.83025775
C        9.15128876       9.15128876       0.00000000
C        8.23615988       8.23615988       0.91512888
C        8.23615988      10.06641764       2.74538663
C       10.06641764       8.23615988       2.74538663
C       10.06641764      10.06641764       0.91512888
C        7.32103101       7.32103101       3.66051550
C        7.32103101       9.15128876       5.49077326
C        9.15128876       7.32103101       5.49077326
C        9.15128876       9.15128876       3.66051550
C        8.23615988       8.23615988       4.57564438
C        8.23615988      10.06641764       6.40590213
C       10.06641764       8.23615988       6.40590213
C       10.06641764      10.06641764       4.57564438
C        7.32103101       7.32103101       7.32103101
C        7.32103101       9.15128876       9.15128876
C        9.15128876       7.32103101       9.15128876
C        9.15128876       9.15128876       7.32103101
C        8.23615988       8.23615988       8.23615988
C        8.23615988      10.06641764      10.06641764
C       10.06641764       8.23615988      10.06641764
C       10.06641764      10.06641764       8.23615988
