216
Lattice="14.210004191342621 0.0 0.0 0.0 14.210004191342621 0.0 0.0 0.0 14.210004191342621" Properties=species:S:1:pos:R:3 pbc="T T T"
C        0.00000000       0.00000000       0.00000000
C        0.00000000       2.36833403       2.36833403
C        2.36833403       0.00000000       2.36833403
C        2.36833403       2.36833403       0.00000000
C        1.18416702       1.18416702       1.18416702
C        1.18416702       3.55250105       3.55250105
C        3.55250105       1.18416702       3.55250105
C        3.55250105       3.55250105       1.18416702
C        0.00000000       0.00000000       4.73666806
C        0.00000000       2.36833403       7.10500210
C        2.36833403       0.00000000       7.10500210
C        2.36833403       2.36833403       4.73666806
C        1.18416702       1.18416702       5.92083508
C        1.18416702       3.55250105       8.28916911
C        3.55250105       1.18416702       8.28916911
C        3.55250105       3.55250105       5.92083508
C        0.00000000       0.00000000       9.47333613
C        0.00000000       2.36833403      11.84167016
C        2.36833403       0.00000000      11.84167016
C        2.36833403       2.36833403       9.47333613
C        1.18416702       1.18416702      10.65750314
C        1.18416702       3.55250105      13.02583718
C        3.55250105       1.18416702      13.02583718
C        3.55250105       3.55250105      10.65750314
C        0.00000000       4.73666806       0.00000000
C        0.00000000       7.10500210       2.36833403
C        2.36833403       4.73666806       2.36833403
C        2.36833403       7.10500210       0.00000000
C        1.18416702       5.92083508       1.18416702
C        1.18416702       8.28916911       3.55250105
C        3.55250105       5.92083508       3.55250105
C        3.55250105       8.28916911       1.18416702
C        0.00000000       4.73666806       4.73666806
C        0.00000000       7.10500210       7.10500210
C        2.36833403       4.73666806       7.10500210
C        2.36833403       7.10500210       4.73666806
C        1.18416702       5.92083508       5.92083508
C        1.18416702       8.28916911       8.28916911
C        3.55250105       5.92083508       8.28916911
C        3.55250105       8.28916911       5.92083508
C        0.00000000       4.73666806       9.47333613
C        0.00000000       7.10500210      11.84167016
C        2.36833403       4.73666806      11.84167016
C        2.36833403       7.10500210       9.47333613
C        1.18416702       5.92083508      10.65750314
C        1.18416702       8.28916911      13.02583718
C        3.55250105       5.92083508      13.02583718
C        3.55250105       8.28916911      10.65750314
C        0.00000000       9.47333613       0.00000000
C        0.00000000      11.84167016       2.36833403
C        2.36833403       9.47333613       2.36833403
C        2.36833403      11.84167016       0.00000000
C        1.18416702      10.65750314       1.18416702
C        1.18416702      13.02583718       3.55250105
C        3.55250105      10.65750314       3.55250105
C        3.55250105      13.02583718       1.18416702
C        0.00000000       9.47333613       4.73666806
C        0.00000000      11.84167016       7.10500210
C        2.36833403       9.47333613       7.10500210
C        2.36833403      11.84167016       4.73666806
C        1.18416702      10.65750314       5.92083508
C        1.18416702      13.02583718       8.28916911
C        3.55250105      10.65750314       8.28916911
C        3.55250105      13.02583718       5.92083508
C        0.00000000       9.47333613       9.47333613
C        0.00000000      11.84167016      11.84167016
C        2.36833403       9.47333613      11.84167016
C        2.36833403      11.84167016       9.47333613
C        1.18416702      10.65750314      10.65750314
C        1.18416702      13.02583718      13.02583718
C        3.55250105      10.65750314      13.02583718
C        3.55250105      13.02583718      10.65750314
C        4.73666806       0.00000000       0.00000000
C        4.73666806       2.36833403       2.36833403
C        7.10500210       0.00000000       2.36833403
C        7.10500210       2.36833403       0.00000000
C        5.92083508       1.18416702       1.18416702
C        5.92083508       3.55250105       3.55250105
C        8.28916911       1.18416702       3.55250105
C        8.28916911       3.55250105       1.18416702
C        4.73666806       0.00000000       4.73666806
C        4.73666806       2.36833403       7.10500210
C        7.10500210       0.00000000       7.10500210
C        7.10500210       2.36833403       4.73666806
C        5.92083508       1.18416702       5.92083508
C        5.92083508       3.55250105       8.28916911
C        8.28916911       1.18416702       8.28916911
C        8.28916911       3.55250105       5.92083508
C        4.73666806       0.00000000       9.47333613
C        4.73666806       2.36833403      11.84167016
C        7.10500210       0.00000000      11.84167016
C        7.10500210       2.36833403       9.47333613
C        5.92083508       1.18416702      10.65750314
C        5.92083508       3.55250105      13.02583718
C        8.28916911       1.18416702      13.02583718
C        8.28916911       3.55250105      10.65750314
C        4.73666806       4.73666806       0.00000000
C        4.73666806       7.10500210       2.36833403
C        7.10500210       4.73666806       2.36833403
C        7.10500210       7.10500210       0.00000000
C        5.92083508       5.92083508       1.18416702
C        5.92083508       8.28916911       3.55250105
C        8.28916911       5.92083508       3.55250105
C        8.28916911       8.28916911       1.18416702
C        4.73666806       4.73666806       4.73666806
C        4.73666806       7.10500210       7.10500210
C        7.10500210       4.73666806       7.10500210
C        7.10500210       7.10500210       4.73666806
C        5.92083508       5.92083508       5.92083508
C        5.92083508       8.28916911       8.28916911
C        8.28916911       5.92083508       8.28916911
C        8.28916911       8.28916911       5.92083508
C        4.73666806       4.73666806       9.47333613
C        4.73666806       7.10500210      11.84167016
C        7.10500210       4.73666806      11.84167016
C        7.10500210       7.10500210       9.47333613
C        5.92083508       5.92083508      10.65750314
C        5.92083508       8.28916911      13.02583718
C        8.28916911       5.92083508      13.02583718
C        8.28916911       8.28916911      10.65750314
C        4.73666806       9.47333613       0.00000000
C        4.73666806      11.84167016       2.36833403
C        7.10500210       9.47333613       2.36833403
C        7.10500210      11.84167016       0.00000000
C        5.92083508      10.65750314       1.18416702
C        5.92083508      13.02583718       3.55250105
C        8.28916911      10.65750314       3.55250105
C        8.28916911      13.02583718       1.18416702
C        4.73666806       9.47333613       4.73666806
C        4.73666806      11.84167016       7.10500210
C        7.10500210       9.47333613       7.10500210
C        7.10500210      11.84167016       4.73666806
C        5.92083508      10.65750314       5.92083508
C        5.92083508      13.02583718       8.28916911
C        8.28916911      10.65750314       8.28916911
C        8.28916911      13.02583718       5.92083508
C        4.73666806       9.47333613       9.47333613
C        4.73666806      11.84167016      11.84167016
C        7.10500210       9.47333613      11.84167016
C        7.10500210      11.84167016       9.47333613
C        5.92083508      10.65750314      10.65750314
C        5.92083508      13.02583718      13.02583718
C        8.28916911      10.65750314      13.02583718
C        8.28916911      13.02583718      10.65750314
C        9.47333613       0.00000000       0.00000000
C        9.47333613       2.36833403       2.36833403
C       11.84167016       0.00000000       2.36833403
C       11.84167016       2.36833403       0.00000000
C       10.65750314       1.18416702       1.18416702
C       10.65750314       3.55250105       3.55250105
C       13.02583718       1.18416702       3.55250105
C       13.02583718       3.55250105       1.18416702
C        9.47333613       0.00000000       4.73666806
C        9.47333613       2.36833403       7.10500210
C       11.84167016       0.00000000       7.10500210
C       11.84167016       2.36833403       4.73666806
C       10.65750314       1.18416702       5.92083508
C       10.65750314       3.55250105       8.28916911
C       13.02583718       1.18416702       8.28916911
C       13.02583718       3.55250105       5.92083508
C        9.47333613       0.00000000       9.47333613
C        9.47333613       2.36833403      11.84167016
C       11.84167016       0.00000000      11.84167016
C       11.84167016       2.36833403       9.47333613
C       10.65750314       1.18416702      10.65750314
C       10.65750314       3.55250105      13.02583718
C       13.02583718       1.18416702      13.02583718
C       13.02583718       3.55250105      10.65750314
C        9.47333613       4.73666806       0.00000000
C        9.47333613       7.10500210       2.36833403
C       11.84167016       4.73666806       2.36833403
C       11.84167016       7.10500210       0.00000000
C       10.65750314       5.92083508       1.18416702
C       10.65750314       8.28916911       3.55250105
C       13.02583718       5.92083508       3.55250105
C       13.02583718       8.28916911       1.18416702
C        9.47333613       4.73666806       4.73666806
C        9.47333613       7.10500210       7.10500210
C       11.84167016       4.73666806       7.10500210
C       11.84167016       7.10500210       4.73666806
C       10.65750314       5.92083508       5.92083508
C       10.65750314       8.28916911       8.28916911
C       13.02583718       5.92083508       8.28916911
C       13.02583718       8.28916911       5.92083508
C        9.47333613       4.73666806       9.47333613
C        9.47333613       7.10500210      11.84167016
C       11.84167016       4.73666806      11.84167016
C       11.84167016       7.10500210       9.47333613
C       10.65750314       5.92083508      10.65750314
C       10.65750314       8.28916911      13.02583718
C       13.02583718       5.92083508      13.02583718
C       13.02583718       8.28916911      10.65750314
C        9.47333613       9.47333613       0.00000000
C        9.47333613      11.84167016       2.36833403
C       11.84167016       9.47333613       2.36833403
C       11.84167016      11.84167016       0.00000000
C       10.65750314      10.65750314       1.18416702
C       10.65750314      13.02583718       3.55250105
C       13.02583718      10.65750314       3.55250105
C       13.02583718      13.02583718       1.18416702
C        9.47333613       9.47333613       4.73666806
C        9.47333613      11.84167016       7.10500210
C       11.84167016       9.47333613       7.10500210
C       11.84167016      11.84167016       4.73666806
C       10.65750314      10.65750314       5.92083508
C       10.65750314      13.02583718       8.28916911
C       13.02583718      10.65750314       8.28916911
C       13.02583718      13.02583718       5.92083508
C        9.47333613       9.47333613       9.47333613
C        9.47333613      11.84167016      11.84167016
C       11.84167016       9.47333613      11.84167016
C       11.84167016      11.84167016       9.47333613
C       10.65750314      10.65750314      10.65750314
C       10.65750314      13.02583718      13.02583718
C       13.02583718      10.65750314      13.02583718
C       13.02583718      13.02583718      10.65750314
