       N       E                     dE             d eps       ncg     rms          rms(c)
DAV:   1     0.315587943956E+02    0.31559E+02   -0.66654E+03  3520   0.124E+03
DAV:   2     0.559549936353E+01   -0.25963E+02   -0.25525E+02  3662   0.190E+02
DAV:   3    -0.586060231501E+01   -0.11456E+02   -0.11339E+02  6922   0.655E+01
DAV:   4    -0.647022311742E+01   -0.60962E+00   -0.60879E+00  4110   0.269E+01
DAV:   5    -0.654128331732E+01   -0.71060E-01   -0.71037E-01  6232   0.580E+00    0.595E-01
DAV:   6    -0.653632835520E+01    0.49550E-02   -0.94463E-03  4590   0.106E+00    0.351E-01
DAV:   7    -0.653321426548E+01    0.31141E-02   -0.89560E-03  6684   0.507E-01    0.110E-01
DAV:   8    -0.653374200646E+01   -0.52774E-03   -0.83597E-04  4144   0.336E-01    0.222E-01
DAV:   9    -0.653321419763E+01    0.52781E-03   -0.33047E-04  4102   0.224E-01    0.137E-02
DAV:  10    -0.653322432619E+01   -0.10129E-04   -0.75364E-05  4960   0.779E-02    0.525E-03
DAV:  11    -0.653322342579E+01    0.90041E-06   -0.68350E-06  4676   0.261E-02
   1 F= -.65332234E+01 E0= -.65330342E+01  d E =-.378470E-03
