       N       E                     dE             d eps       ncg     rms          rms(c)
DAV:   1     0.351838183917E+02    0.35184E+02   -0.67248E+03  3520   0.130E+03
DAV:   2     0.533610996623E+01   -0.29848E+02   -0.29273E+02  3718   0.201E+02
DAV:   3    -0.599598540171E+01   -0.11332E+02   -0.11239E+02  6900   0.690E+01
DAV:   4    -0.646744875369E+01   -0.47146E+00   -0.47004E+00  4118   0.244E+01
DAV:   5    -0.650847755189E+01   -0.41029E-01   -0.41002E-01  5938   0.471E+00    0.502E-01
DAV:   6    -0.649929744567E+01    0.91801E-02   -0.93281E-03  5290   0.902E-01    0.300E-01
DAV:   7    -0.649451403619E+01    0.47834E-02   -0.13387E-02  6650   0.592E-01    0.125E-01
DAV:   8    -0.649464951490E+01   -0.13548E-03   -0.61529E-04  4040   0.290E-01    0.114E-01
DAV:   9    -0.649451742876E+01    0.13209E-03   -0.14484E-04  4290   0.165E-01    0.110E-02
DAV:  10    -0.649452214113E+01   -0.47124E-05   -0.35883E-05  5400   0.571E-02    0.244E-03
DAV:  11    -0.649452138706E+01    0.75407E-06   -0.21026E-06  3980   0.152E-02
   1 F= -.64945214E+01 E0= -.64943591E+01  d E =-.324529E-03
