Li                                      
    1.000000000000000     
     4.4436470440973510   -0.0000000000000000    0.0000000000000000
     0.0000000000000000    4.4436470440973510   -0.0000000000000000
    -0.0000000000000000    0.0000000000000000    4.4436470440973510
   Li
     4
Direct
     0.8744695522008179    0.1255304477991820    0.6255304477991821
     0.3744695522008180    0.3744695522008180    0.3744695522008180
     0.1255304477991820    0.6255304477991821    0.8744695522008179
     0.6255304477991821    0.8744695522008179    0.1255304477991820
 
  0.00000000E+00  0.00000000E+00  0.00000000E+00
  0.00000000E+00  0.00000000E+00  0.00000000E+00
  0.00000000E+00  0.00000000E+00  0.00000000E+00
  0.00000000E+00  0.00000000E+00  0.00000000E+00
